     Program PWSCF v.7.0 starts on 29Aug2025 at 12:36:45

     K-points division:     npool     =       8
     R & G space division:  proc/nbgrp/npool/nimage =       4

     Reading input from /home/jvc/QEspresso7.2/ZnO_database/scripts/cell212.in/ZnO-3.47-1.61-212.in
Warning: card &CELL ignored
Warning: card / ignored
Warning: card &FCP ignored
Warning: card / ignored
Warning: card &RISM ignored
Warning: card / ignored

     Current dimensions of program PWSCF are:
     Max number of different atomic species (ntypx) = 10
     Max number of k-points (npk) =  40000
     Max angular momentum in pseudopotentials (lmaxx) =  4
     file Zn.upf: wavefunction(s)  3D renormalized
     Found identity + (  0.0000  0.0000  0.5000) symmetry
     This is a supercell, fractional translations are disabled
     Message from routine setup:
     using ibrav=0 with symmetry is DISCOURAGED, use correct ibrav instead

     Using Slab Decomposition

     bravais-lattice index     =            0
     lattice parameter (alat)  =      13.0992  a.u.
     unit-cell volume          =    1571.2018 (a.u.)^3
     number of atoms/cell      =           16
     number of atomic types    =            2
     number of electrons       =       144.00
     number of Kohn-Sham states=           72
     kinetic-energy cutoff     =      50.0000  Ry
     charge density cutoff     =     400.0000  Ry
     scf convergence threshold =      1.0E-08
     mixing beta               =       0.3000
     number of iterations used =            8  plain     mixing
     Exchange-correlation= PBE
                           (   1   4   3   4   0   0   0)

     celldm(1)=  13.099170  celldm(2)=   0.000000  celldm(3)=   0.000000
     celldm(4)=   0.000000  celldm(5)=   0.000000  celldm(6)=   0.000000

     crystal axes: (cart. coord. in units of alat)
               a(1) = (   1.000000   0.000000   0.000000 )
               a(2) = (  -0.250000   0.433013   0.000000 )
               a(3) = (   0.000000   0.000000   1.614358 )

     reciprocal axes: (cart. coord. in units 2 pi/alat)
               b(1) = (  1.000000  0.577350 -0.000000 )
               b(2) = (  0.000000  2.309401  0.000000 )
               b(3) = (  0.000000 -0.000000  0.619441 )

     PseudoPot. # 1 for Zn read from file:
     /home/jvc/QEspresso7.2/ZnO_database/pseudos/Zn.upf
     MD5 check sum: 7f56cabf9682ed8c977c2f7d0c5985c5
     Pseudo is Ultrasoft + core correction, Zval = 12.0
     Generated using &quot;atomic&quot; code by A. Dal Corso  v.6.2.2
     Using radial grid of 1201 points,  6 beta functions with:
                l(1) =   0
                l(2) =   0
                l(3) =   1
                l(4) =   1
                l(5) =   2
                l(6) =   2
     Q(r) pseudized with 0 coefficients

     PseudoPot. # 2 for O  read from file:
     /home/jvc/QEspresso7.2/ZnO_database/pseudos/O.upf
     MD5 check sum: 91400c9766925bcf19f520983a725ff0
     Pseudo is Ultrasoft + core correction, Zval =  6.0
     Generated using &quot;atomic&quot; code by A. Dal Corso  v.6.3MaX
     Using radial grid of 1095 points,  4 beta functions with:
                l(1) =   0
                l(2) =   0
                l(3) =   1
                l(4) =   1
     Q(r) pseudized with 0 coefficients

     atomic species   valence    mass     pseudopotential
        Zn            12.00    65.38000     Zn( 1.00)
        O              6.00    15.99900     O ( 1.00)

      2 Sym. Ops. (no inversion) found

                                    s                        frac. trans.

      isym =  1     identity

 cryst.   s( 1) = (     1          0          0      )
                  (     0          1          0      )
                  (     0          0          1      )

 cart.    s( 1) = (  1.0000000  0.0000000  0.0000000 )
                  (  0.0000000  1.0000000  0.0000000 )
                  (  0.0000000  0.0000000  1.0000000 )

      isym =  2     inv. 180 deg rotation - cryst. axis [0,1,0]

 cryst.   s( 2) = (     1          2          0      )
                  (     0         -1          0      )
                  (     0          0          1      )

 cart.    s( 2) = (  0.5000000  0.8660254  0.0000000 )
                  (  0.8660254 -0.5000000  0.0000000 )
                  (  0.0000000  0.0000000  1.0000000 )

   Cartesian axes

     site n.     atom                  positions (alat units)
         1           Zn  tau(   1) = (   0.2500000   0.1443376   0.4041010  )
         2           Zn  tau(   2) = (  -0.0000000   0.2886751   0.0005114  )
         3           O   tau(   3) = (   0.2500000   0.1443376   0.7100565  )
         4           O   tau(   4) = (  -0.0000000   0.2886751   0.3064669  )
         5           Zn  tau(   5) = (   0.2500000   0.1443376   1.2112802  )
         6           Zn  tau(   6) = (  -0.0000000   0.2886751   0.8076906  )
         7           O   tau(   7) = (   0.2500000   0.1443376   1.5172357  )
         8           O   tau(   8) = (  -0.0000000   0.2886751   1.1136461  )
         9           Zn  tau(   9) = (   0.7500000   0.1443376   0.4041010  )
        10           Zn  tau(  10) = (   0.5000000   0.2886751   0.0005114  )
        11           O   tau(  11) = (   0.7500000   0.1443376   0.7100565  )
        12           O   tau(  12) = (   0.5000000   0.2886751   0.3064669  )
        13           Zn  tau(  13) = (   0.7500000   0.1443376   1.2112802  )
        14           Zn  tau(  14) = (   0.5000000   0.2886751   0.8076906  )
        15           O   tau(  15) = (   0.7500000   0.1443376   1.5172357  )
        16           O   tau(  16) = (   0.5000000   0.2886751   1.1136461  )

   Crystallographic axes

     site n.     atom                  positions (cryst. coord.)
         1           Zn  tau(   1) = (  0.3333333  0.3333333  0.2503168  )
         2           Zn  tau(   2) = (  0.1666667  0.6666667  0.0003168  )
         3           O   tau(   3) = (  0.3333333  0.3333333  0.4398382  )
         4           O   tau(   4) = (  0.1666667  0.6666667  0.1898382  )
         5           Zn  tau(   5) = (  0.3333333  0.3333333  0.7503168  )
         6           Zn  tau(   6) = (  0.1666667  0.6666667  0.5003168  )
         7           O   tau(   7) = (  0.3333333  0.3333333  0.9398382  )
         8           O   tau(   8) = (  0.1666667  0.6666667  0.6898382  )
         9           Zn  tau(   9) = (  0.8333333  0.3333333  0.2503168  )
        10           Zn  tau(  10) = (  0.6666667  0.6666667  0.0003168  )
        11           O   tau(  11) = (  0.8333333  0.3333333  0.4398382  )
        12           O   tau(  12) = (  0.6666667  0.6666667  0.1898382  )
        13           Zn  tau(  13) = (  0.8333333  0.3333333  0.7503168  )
        14           Zn  tau(  14) = (  0.6666667  0.6666667  0.5003168  )
        15           O   tau(  15) = (  0.8333333  0.3333333  0.9398382  )
        16           O   tau(  16) = (  0.6666667  0.6666667  0.6898382  )

     number of k points=    80
                       cart. coord. in units 2pi/alat
        k(    1) = (   0.0000000   0.0000000   0.0000000), wk =   0.0092593
        k(    2) = (   0.0000000   0.0000000   0.1032402), wk =   0.0185185
        k(    3) = (   0.0000000   0.0000000   0.2064804), wk =   0.0185185
        k(    4) = (   0.0000000   0.0000000  -0.3097206), wk =   0.0092593
        k(    5) = (   0.0000000   0.3849002   0.0000000), wk =   0.0370370
        k(    6) = (   0.0000000   0.3849002   0.1032402), wk =   0.0370370
        k(    7) = (   0.0000000   0.3849002   0.2064804), wk =   0.0370370
        k(    8) = (   0.0000000   0.3849002  -0.3097206), wk =   0.0370370
        k(    9) = (   0.0000000   0.7698004   0.0000000), wk =   0.0370370
        k(   10) = (   0.0000000   0.7698004   0.1032402), wk =   0.0370370
        k(   11) = (   0.0000000   0.7698004   0.2064804), wk =   0.0370370
        k(   12) = (   0.0000000   0.7698004  -0.3097206), wk =   0.0370370
        k(   13) = (   0.0000000  -1.1547005   0.0000000), wk =   0.0092593
        k(   14) = (   0.0000000  -1.1547005   0.1032402), wk =   0.0185185
        k(   15) = (   0.0000000  -1.1547005   0.2064804), wk =   0.0185185
        k(   16) = (   0.0000000  -1.1547005  -0.3097206), wk =   0.0092593
        k(   17) = (   0.1666667   0.0962250   0.0000000), wk =   0.0185185
        k(   18) = (   0.1666667   0.0962250   0.1032402), wk =   0.0185185
        k(   19) = (   0.1666667   0.0962250   0.2064804), wk =   0.0185185
        k(   20) = (   0.1666667   0.0962250  -0.3097206), wk =   0.0185185
        k(   21) = (   0.1666667   0.4811252   0.0000000), wk =   0.0370370
        k(   22) = (   0.1666667   0.4811252   0.1032402), wk =   0.0370370
        k(   23) = (   0.1666667   0.4811252   0.2064804), wk =   0.0370370
        k(   24) = (   0.1666667   0.4811252  -0.3097206), wk =   0.0370370
        k(   25) = (   0.1666667   0.8660254   0.0000000), wk =   0.0185185
        k(   26) = (   0.1666667   0.8660254   0.1032402), wk =   0.0370370
        k(   27) = (   0.1666667   0.8660254   0.2064804), wk =   0.0370370
        k(   28) = (   0.1666667   0.8660254  -0.3097206), wk =   0.0185185
        k(   29) = (   0.1666667  -1.0584755   0.0000000), wk =   0.0185185
        k(   30) = (   0.1666667  -1.0584755   0.1032402), wk =   0.0185185
        k(   31) = (   0.1666667  -1.0584755   0.2064804), wk =   0.0185185
        k(   32) = (   0.1666667  -1.0584755  -0.3097206), wk =   0.0185185
        k(   33) = (   0.1666667  -0.6735753   0.0000000), wk =   0.0370370
        k(   34) = (   0.1666667  -0.6735753   0.1032402), wk =   0.0370370
        k(   35) = (   0.1666667  -0.6735753   0.2064804), wk =   0.0370370
        k(   36) = (   0.1666667  -0.6735753  -0.3097206), wk =   0.0370370
        k(   37) = (   0.1666667  -0.2886751   0.0000000), wk =   0.0185185
        k(   38) = (   0.1666667  -0.2886751   0.1032402), wk =   0.0370370
        k(   39) = (   0.1666667  -0.2886751   0.2064804), wk =   0.0370370
        k(   40) = (   0.1666667  -0.2886751  -0.3097206), wk =   0.0185185
        k(   41) = (   0.3333333   0.1924501   0.0000000), wk =   0.0185185
        k(   42) = (   0.3333333   0.1924501   0.1032402), wk =   0.0185185
        k(   43) = (   0.3333333   0.1924501   0.2064804), wk =   0.0185185
        k(   44) = (   0.3333333   0.1924501  -0.3097206), wk =   0.0185185
        k(   45) = (   0.3333333   0.5773503   0.0000000), wk =   0.0185185
        k(   46) = (   0.3333333   0.5773503   0.1032402), wk =   0.0370370
        k(   47) = (   0.3333333   0.5773503   0.2064804), wk =   0.0370370
        k(   48) = (   0.3333333   0.5773503  -0.3097206), wk =   0.0185185
        k(   49) = (   0.3333333  -0.9622504   0.0000000), wk =   0.0185185
        k(   50) = (   0.3333333  -0.9622504   0.1032402), wk =   0.0185185
        k(   51) = (   0.3333333  -0.9622504   0.2064804), wk =   0.0185185
        k(   52) = (   0.3333333  -0.9622504  -0.3097206), wk =   0.0185185
        k(   53) = (   0.3333333  -0.5773503   0.0000000), wk =   0.0185185
        k(   54) = (   0.3333333  -0.5773503   0.1032402), wk =   0.0370370
        k(   55) = (   0.3333333  -0.5773503   0.2064804), wk =   0.0370370
[...]
        k(   79) = (  -0.6666667   0.5000000  -0.1666667), wk =   0.0185185
        k(   80) = (  -0.6666667   0.5000000  -0.3333333), wk =   0.0185185

     Check: negative core charge=   -0.000002

     Initial potential from superposition of free atoms

     starting charge     143.9702, renormalised to     144.0000
     Starting wfcs are  104 randomized atomic wfcs

     Self-consistent Calculation

     iteration #  1     ecut=    50.00 Ry     beta= 0.30
     Davidson diagonalization with overlap

     ethr =  1.00E-02,  avg # of iterations =  1.6

     total energy              =   -1445.67265162 Ry
     estimated scf accuracy    <       3.08917802 Ry

[...]

     c_bands:  4 eigenvalues not converged
     ethr =  1.50E-09,  avg # of iterations = 10.6

[...]

     total energy              =   -1446.40870235 Ry
     estimated scf accuracy    <       0.00000001 Ry

     iteration # 44     ecut=    50.00 Ry     beta= 0.30
     Davidson diagonalization with overlap

     ethr =  9.00E-12,  avg # of iterations =  5.9

     End of self-consistent calculation

          k = 0.0000 0.0000 0.0000 (  9381 PWs)   bands (ev):

   -12.1268 -11.9022 -11.9022 -11.6902 -11.6696 -11.6157 -11.6156 -11.5493
    -0.4839  -0.4839  -0.4458  -0.4216  -0.4216  -0.4036  -0.4034  -0.3820
    -0.3544  -0.3544  -0.3542  -0.3542  -0.2735  -0.2733  -0.2343  -0.1708
    -0.0754  -0.0754   0.0247   0.0501   0.0501   0.1152   0.1685   0.1816
     0.2682   0.2682   0.3431   0.3454   0.3454   0.3454   0.3454   0.3768
     0.3907   0.3907   0.3987   0.3987   0.4271   0.4565   0.4565   0.4769
     0.7449   1.1380   1.2210   1.2210   1.6408   2.3585   2.4764   2.4764
     2.9434   3.4778   3.4778   3.5452   3.5453   3.6074   3.9792   3.9987
     3.9992   4.2935   4.2936   4.2940   4.2941   4.5438   4.5807   4.5813

     occupation numbers
     1.0000   1.0000   1.0000   1.0000   1.0000   1.0000   1.0000   1.0000
     1.0000   1.0000   1.0000   1.0000   1.0000   1.0000   1.0000   1.0000
     1.0000   1.0000   1.0000   1.0000   1.0000   1.0000   1.0000   1.0000
     1.0000   1.0000   1.0000   1.0000   1.0000   1.0000   1.0000   1.0000
     1.0000   1.0000   1.0000   1.0000   1.0000   1.0000   1.0000   1.0000
     1.0000   1.0000   1.0000   1.0000   1.0000   1.0000   1.0000   1.0000
     1.0000   1.0000   1.0000   1.0000   1.0000   1.0000   1.0000   1.0000
     1.0000   1.0000   1.0000   1.0000   1.0000   1.0000   1.0000   1.0000
     1.0000   1.0000   1.0000   1.0000   1.0000   1.0000   1.0000   1.0000

[...]

          k =-0.5000-0.2887 0.0000 (  9402 PWs)   bands (ev):

[...]

          k = 0.3333 0.1925-0.2065 (  9391 PWs)   bands (ev):

[...]

          k =-0.6667 0.7698-0.2065 (  9366 PWs)   bands (ev):

   -11.6834 -11.6834 -11.6545 -11.6545 -11.5808 -11.5807 -11.5558 -11.5558
    -0.4138  -0.4138  -0.3984  -0.3984  -0.3195  -0.3195  -0.2511  -0.2511
    -0.1803  -0.1803  -0.1485  -0.1485  -0.0299  -0.0299  -0.0093  -0.0093
     0.0124   0.0124   0.0308   0.0308   0.0882   0.0882   0.1035   0.1035
     0.2791   0.2791   0.3252   0.3252   0.3478   0.3478   0.3637   0.3637
     0.4409   0.4409   0.4523   0.4523   0.5302   0.5302   0.5659   0.5659
     1.2691   1.2691   1.3116   1.3116   1.5737   1.5737   1.7019   1.7019
     2.4636   2.4636   2.7200   2.7201   2.8026   2.8026   3.2019   3.2019
     3.3877   3.3877   3.5805   3.5805   3.7384   3.7384   3.8000   3.8000

     occupation numbers
     1.0000   1.0000   1.0000   1.0000   1.0000   1.0000   1.0000   1.0000
     1.0000   1.0000   1.0000   1.0000   1.0000   1.0000   1.0000   1.0000
     1.0000   1.0000   1.0000   1.0000   1.0000   1.0000   1.0000   1.0000
     1.0000   1.0000   1.0000   1.0000   1.0000   1.0000   1.0000   1.0000
     1.0000   1.0000   1.0000   1.0000   1.0000   1.0000   1.0000   1.0000
     1.0000   1.0000   1.0000   1.0000   1.0000   1.0000   1.0000   1.0000
     1.0000   1.0000   1.0000   1.0000   1.0000   1.0000   1.0000   1.0000
     1.0000   1.0000   1.0000   1.0000   1.0000   1.0000   1.0000   1.0000
     1.0000   1.0000   1.0000   1.0000   1.0000   1.0000   1.0000   1.0000

     highest occupied level (ev):     4.5813

!    total energy              =   -1446.40870235 Ry
     estimated scf accuracy    <          1.1E-09 Ry

     The total energy is the sum of the following terms:
     one-electron contribution =    -696.48772995 Ry
     hartree contribution      =     501.50707912 Ry
     xc contribution           =    -436.88612751 Ry
     ewald contribution        =    -814.54192400 Ry

     convergence has been achieved in  44 iterations

     Forces acting on atoms (cartesian axes, Ry/au):

     atom    1 type  1   force =     0.00000718    0.00000414   -0.00011133
     atom    2 type  1   force =     0.00000793    0.00000458   -0.00010874
     atom    3 type  2   force =    -0.00000437   -0.00000252    0.00011254
     atom    4 type  2   force =     0.00000135    0.00000078    0.00011262
     atom    5 type  1   force =     0.00000199    0.00000115   -0.00010556
     atom    6 type  1   force =    -0.00000115   -0.00000066   -0.00012486
     atom    7 type  2   force =    -0.00000643   -0.00000371    0.00010974
     atom    8 type  2   force =     0.00000277    0.00000160    0.00011118
     atom    9 type  1   force =    -0.00000703   -0.00000406   -0.00010361
     atom   10 type  1   force =    -0.00000878   -0.00000507   -0.00010532
     atom   11 type  2   force =    -0.00000312   -0.00000180    0.00011234
     atom   12 type  2   force =     0.00000525    0.00000303    0.00011077
     atom   13 type  1   force =    -0.00000279   -0.00000161   -0.00011156
     atom   14 type  1   force =     0.00000495    0.00000286   -0.00012118
     atom   15 type  2   force =    -0.00000177   -0.00000102    0.00011117
     atom   16 type  2   force =     0.00000402    0.00000232    0.00011180
     The non-local contrib.  to forces
     atom    1 type  1   force =     0.00000477    0.00000275   -0.00450870
     atom    2 type  1   force =     0.00000414    0.00000239   -0.00450195
     atom    3 type  2   force =    -0.00018805   -0.00010857    0.00636173
     atom    4 type  2   force =     0.00018887    0.00010905    0.00636268
     atom    5 type  1   force =     0.00000089    0.00000052   -0.00450405
     atom    6 type  1   force =     0.00000139    0.00000080   -0.00451130
     atom    7 type  2   force =    -0.00018994   -0.00010966    0.00636307
     atom    8 type  2   force =     0.00019165    0.00011065    0.00636585
     atom    9 type  1   force =    -0.00000485   -0.00000280   -0.00450448
     atom   10 type  1   force =    -0.00000454   -0.00000262   -0.00450435
     atom   11 type  2   force =    -0.00019128   -0.00011043    0.00636182
     atom   12 type  2   force =     0.00019292    0.00011138    0.00636185
     atom   13 type  1   force =     0.00000011    0.00000006   -0.00450344
     atom   14 type  1   force =     0.00000207    0.00000119   -0.00451308
     atom   15 type  2   force =    -0.00019039   -0.00010992    0.00636107
     atom   16 type  2   force =     0.00018982    0.00010959    0.00636231
     The ionic contribution  to forces
     atom    1 type  1   force =    -0.00000000    0.00000001    0.05581774
     atom    2 type  1   force =     0.00000002    0.00000000    0.05581775
     atom    3 type  2   force =    -0.00000000    0.00000001   -0.05581774
     atom    4 type  2   force =     0.00000001   -0.00000000   -0.05581775
     atom    5 type  1   force =    -0.00000000    0.00000001    0.05581774
     atom    6 type  1   force =     0.00000002    0.00000000    0.05581775
     atom    7 type  2   force =    -0.00000000    0.00000001   -0.05581774
     atom    8 type  2   force =     0.00000001   -0.00000000   -0.05581775
     atom    9 type  1   force =    -0.00000001   -0.00000000    0.05581775
     atom   10 type  1   force =    -0.00000000   -0.00000001    0.05581775
     atom   11 type  2   force =    -0.00000001   -0.00000000   -0.05581775
     atom   12 type  2   force =    -0.00000000   -0.00000000   -0.05581775
     atom   13 type  1   force =    -0.00000001   -0.00000000    0.05581775
     atom   14 type  1   force =    -0.00000000   -0.00000001    0.05581775
     atom   15 type  2   force =    -0.00000001   -0.00000000   -0.05581775
     atom   16 type  2   force =    -0.00000000   -0.00000000   -0.05581775
     The local contribution  to forces
     atom    1 type  1   force =    -0.00000637   -0.00000357   -0.05173038
     atom    2 type  1   force =    -0.00001724   -0.00001006   -0.05173026
     atom    3 type  2   force =     0.00018595    0.00010739    0.04964670
     atom    4 type  2   force =    -0.00019457   -0.00011236    0.04963836
     atom    5 type  1   force =     0.00000475    0.00000285   -0.05173392
     atom    6 type  1   force =    -0.00000532   -0.00000317   -0.05171637
     atom    7 type  2   force =     0.00017735    0.00010242    0.04963113
     atom    8 type  2   force =    -0.00018847   -0.00010884    0.04963814
     atom    9 type  1   force =     0.00001677    0.00000979   -0.05174022
     atom   10 type  1   force =     0.00000681    0.00000393   -0.05173112
     atom   11 type  2   force =     0.00018619    0.00010753    0.04964355
     atom   12 type  2   force =    -0.00017717   -0.00010229    0.04963371
     atom   13 type  1   force =     0.00000485    0.00000291   -0.05173068
     atom   14 type  1   force =    -0.00001081   -0.00000624   -0.05171486
     atom   15 type  2   force =     0.00019420    0.00011215    0.04963851
     atom   16 type  2   force =    -0.00018324   -0.00010579    0.04963951
     The core correction contribution to forces
     atom    1 type  1   force =    -0.00000549   -0.00000315    0.00030778
     atom    2 type  1   force =     0.00000572    0.00000329    0.00030628
     atom    3 type  2   force =     0.00000212    0.00000123   -0.00006987
     atom    4 type  2   force =    -0.00000215   -0.00000124   -0.00007170
     atom    5 type  1   force =    -0.00000560   -0.00000322    0.00030440
     atom    6 type  1   force =     0.00000537    0.00000309    0.00030513
     atom    7 type  2   force =     0.00000213    0.00000123   -0.00007271
     atom    8 type  2   force =    -0.00000218   -0.00000126   -0.00007092
     atom    9 type  1   force =    -0.00000561   -0.00000323    0.00030779
     atom   10 type  1   force =     0.00000537    0.00000310    0.00030655
     atom   11 type  2   force =     0.00000218    0.00000126   -0.00006988
     atom   12 type  2   force =    -0.00000217   -0.00000125   -0.00007172
     atom   13 type  1   force =    -0.00000553   -0.00000318    0.00030412
     atom   14 type  1   force =     0.00000551    0.00000318    0.00030509
     atom   15 type  2   force =     0.00000218    0.00000126   -0.00007268
     atom   16 type  2   force =    -0.00000214   -0.00000124   -0.00007088
     The Hubbard contrib.    to forces
     atom    1 type  1   force =     0.00000000    0.00000000    0.00000000
     atom    2 type  1   force =     0.00000000    0.00000000    0.00000000
     atom    3 type  2   force =     0.00000000    0.00000000    0.00000000
     atom    4 type  2   force =     0.00000000    0.00000000    0.00000000
     atom    5 type  1   force =     0.00000000    0.00000000    0.00000000
     atom    6 type  1   force =     0.00000000    0.00000000    0.00000000
     atom    7 type  2   force =     0.00000000    0.00000000    0.00000000
     atom    8 type  2   force =     0.00000000    0.00000000    0.00000000
     atom    9 type  1   force =     0.00000000    0.00000000    0.00000000
     atom   10 type  1   force =     0.00000000    0.00000000    0.00000000
     atom   11 type  2   force =     0.00000000    0.00000000    0.00000000
     atom   12 type  2   force =     0.00000000    0.00000000    0.00000000
     atom   13 type  1   force =     0.00000000    0.00000000    0.00000000
     atom   14 type  1   force =     0.00000000    0.00000000    0.00000000
     atom   15 type  2   force =     0.00000000    0.00000000    0.00000000
     atom   16 type  2   force =     0.00000000    0.00000000    0.00000000
     The SCF correction term to forces
     atom    1 type  1   force =     0.00001471    0.00000849    0.00000228
     atom    2 type  1   force =     0.00001585    0.00000915   -0.00000050
     atom    3 type  2   force =    -0.00000391   -0.00000226   -0.00000821
     atom    4 type  2   force =     0.00000969    0.00000560    0.00000109
     atom    5 type  1   force =     0.00000239    0.00000138    0.00001032
     atom    6 type  1   force =    -0.00000206   -0.00000119   -0.00002001
     atom    7 type  2   force =     0.00000452    0.00000261    0.00000606
     atom    8 type  2   force =     0.00000227    0.00000131   -0.00000409
     atom    9 type  1   force =    -0.00001289   -0.00000744    0.00001560
     atom   10 type  1   force =    -0.00001592   -0.00000919    0.00000592
     atom   11 type  2   force =     0.00000027    0.00000016   -0.00000534
     atom   12 type  2   force =    -0.00000783   -0.00000452    0.00000474
     atom   13 type  1   force =    -0.00000177   -0.00000102    0.00000075
     atom   14 type  1   force =     0.00000868    0.00000501   -0.00001602
     atom   15 type  2   force =    -0.00000727   -0.00000420    0.00000207
     atom   16 type  2   force =     0.00000008    0.00000005   -0.00000134

     Total force =     0.000447     Total SCF correction =     0.000053
     SCF correction compared to forces is large: reduce conv_thr to get better values

     General routines

     Parallel routines

   This run was terminated on:  12:53: 6  29Aug2025

   JOB DONE.
Note: The following floating-point exceptions are signalling: IEEE_UNDERFLOW_FLAG IEEE_DENORMAL
Note: The following floating-point exceptions are signalling: IEEE_UNDERFLOW_FLAG IEEE_DENORMAL
Note: The following floating-point exceptions are signalling: IEEE_UNDERFLOW_FLAG IEEE_DENORMAL
Note: The following floating-point exceptions are signalling: IEEE_UNDERFLOW_FLAG IEEE_DENORMAL
Note: The following floating-point exceptions are signalling: IEEE_UNDERFLOW_FLAG IEEE_DENORMAL
Note: The following floating-point exceptions are signalling: IEEE_UNDERFLOW_FLAG IEEE_DENORMAL
Note: The following floating-point exceptions are signalling: IEEE_UNDERFLOW_FLAG IEEE_DENORMAL
Note: The following floating-point exceptions are signalling: IEEE_UNDERFLOW_FLAG IEEE_DENORMAL
Note: The following floating-point exceptions are signalling: IEEE_UNDERFLOW_FLAG IEEE_DENORMAL
Note: The following floating-point exceptions are signalling: IEEE_UNDERFLOW_FLAG IEEE_DENORMAL
Note: The following floating-point exceptions are signalling: IEEE_UNDERFLOW_FLAG IEEE_DENORMAL
Note: The following floating-point exceptions are signalling: IEEE_UNDERFLOW_FLAG IEEE_DENORMAL
Note: The following floating-point exceptions are signalling: IEEE_UNDERFLOW_FLAG IEEE_DENORMAL
Note: The following floating-point exceptions are signalling: IEEE_UNDERFLOW_FLAG IEEE_DENORMAL
Note: The following floating-point exceptions are signalling: IEEE_UNDERFLOW_FLAG IEEE_DENORMAL
Note: The following floating-point exceptions are signalling: IEEE_UNDERFLOW_FLAG IEEE_DENORMAL
Note: The following floating-point exceptions are signalling: IEEE_UNDERFLOW_FLAG IEEE_DENORMAL
Note: The following floating-point exceptions are signalling: IEEE_UNDERFLOW_FLAG IEEE_DENORMAL
Note: The following floating-point exceptions are signalling: IEEE_UNDERFLOW_FLAG IEEE_DENORMAL
Note: The following floating-point exceptions are signalling: IEEE_UNDERFLOW_FLAG IEEE_DENORMAL
Note: The following floating-point exceptions are signalling: IEEE_UNDERFLOW_FLAG IEEE_DENORMAL
Note: The following floating-point exceptions are signalling: IEEE_UNDERFLOW_FLAG IEEE_DENORMAL
Note: The following floating-point exceptions are signalling: IEEE_UNDERFLOW_FLAG IEEE_DENORMAL
Note: The following floating-point exceptions are signalling: IEEE_UNDERFLOW_FLAG IEEE_DENORMAL
Note: The following floating-point exceptions are signalling: IEEE_UNDERFLOW_FLAG IEEE_DENORMAL
Note: The following floating-point exceptions are signalling: IEEE_UNDERFLOW_FLAG IEEE_DENORMAL
Note: The following floating-point exceptions are signalling: IEEE_UNDERFLOW_FLAG IEEE_DENORMAL
Note: The following floating-point exceptions are signalling: IEEE_UNDERFLOW_FLAG IEEE_DENORMAL
Note: The following floating-point exceptions are signalling: IEEE_UNDERFLOW_FLAG IEEE_DENORMAL
Note: The following floating-point exceptions are signalling: IEEE_UNDERFLOW_FLAG IEEE_DENORMAL
Note: The following floating-point exceptions are signalling: IEEE_UNDERFLOW_FLAG IEEE_DENORMAL
Note: The following floating-point exceptions are signalling: IEEE_UNDERFLOW_FLAG IEEE_DENORMAL