     Program PWSCF v.7.0 starts on 29Aug2025 at 11: 2: 7

     K-points division:     npool     =       8
     R & G space division:  proc/nbgrp/npool/nimage =       4

     Reading input from /home/jvc/QEspresso7.2/ZnO_database/scripts/cell212.in/ZnO-3.40-1.78-212.in
Warning: card &CELL ignored
Warning: card / ignored
Warning: card &FCP ignored
Warning: card / ignored
Warning: card &RISM ignored
Warning: card / ignored

     Current dimensions of program PWSCF are:
     Max number of different atomic species (ntypx) = 10
     Max number of k-points (npk) =  40000
     Max angular momentum in pseudopotentials (lmaxx) =  4
     file Zn.upf: wavefunction(s)  3D renormalized
     Found identity + (  0.0000  0.0000  0.5000) symmetry
     This is a supercell, fractional translations are disabled
     Message from routine setup:
     using ibrav=0 with symmetry is DISCOURAGED, use correct ibrav instead

     Using Slab Decomposition

     bravais-lattice index     =            0
     lattice parameter (alat)  =      12.8520  a.u.
     unit-cell volume          =    1632.3266 (a.u.)^3
     number of atoms/cell      =           16
     number of atomic types    =            2
     number of electrons       =       144.00
     number of Kohn-Sham states=           72
     kinetic-energy cutoff     =      50.0000  Ry
     charge density cutoff     =     400.0000  Ry
     scf convergence threshold =      1.0E-08
     mixing beta               =       0.3000
     number of iterations used =            8  plain     mixing
     Exchange-correlation= PBE
                           (   1   4   3   4   0   0   0)

     celldm(1)=  12.852016  celldm(2)=   0.000000  celldm(3)=   0.000000
     celldm(4)=   0.000000  celldm(5)=   0.000000  celldm(6)=   0.000000

     crystal axes: (cart. coord. in units of alat)
               a(1) = (   1.000000   0.000000   0.000000 )
               a(2) = (  -0.250000   0.433013   0.000000 )
               a(3) = (   0.000000   0.000000   1.775794 )

     reciprocal axes: (cart. coord. in units 2 pi/alat)
               b(1) = (  1.000000  0.577350 -0.000000 )
               b(2) = (  0.000000  2.309401  0.000000 )
               b(3) = (  0.000000 -0.000000  0.563128 )

     PseudoPot. # 1 for Zn read from file:
     /home/jvc/QEspresso7.2/ZnO_database/pseudos/Zn.upf
     MD5 check sum: 7f56cabf9682ed8c977c2f7d0c5985c5
     Pseudo is Ultrasoft + core correction, Zval = 12.0
     Generated using &quot;atomic&quot; code by A. Dal Corso  v.6.2.2
     Using radial grid of 1201 points,  6 beta functions with:
                l(1) =   0
                l(2) =   0
                l(3) =   1
                l(4) =   1
                l(5) =   2
                l(6) =   2
     Q(r) pseudized with 0 coefficients

     PseudoPot. # 2 for O  read from file:
     /home/jvc/QEspresso7.2/ZnO_database/pseudos/O.upf
     MD5 check sum: 91400c9766925bcf19f520983a725ff0
     Pseudo is Ultrasoft + core correction, Zval =  6.0
     Generated using &quot;atomic&quot; code by A. Dal Corso  v.6.3MaX
     Using radial grid of 1095 points,  4 beta functions with:
                l(1) =   0
                l(2) =   0
                l(3) =   1
                l(4) =   1
     Q(r) pseudized with 0 coefficients

     atomic species   valence    mass     pseudopotential
        Zn            12.00    65.38000     Zn( 1.00)
        O              6.00    15.99900     O ( 1.00)

      2 Sym. Ops. (no inversion) found

                                    s                        frac. trans.

      isym =  1     identity

 cryst.   s( 1) = (     1          0          0      )
                  (     0          1          0      )
                  (     0          0          1      )

 cart.    s( 1) = (  1.0000000  0.0000000  0.0000000 )
                  (  0.0000000  1.0000000  0.0000000 )
                  (  0.0000000  0.0000000  1.0000000 )

      isym =  2     inv. 180 deg rotation - cryst. axis [0,1,0]

 cryst.   s( 2) = (     1          2          0      )
                  (     0         -1          0      )
                  (     0          0          1      )

 cart.    s( 2) = (  0.5000000  0.8660254  0.0000000 )
                  (  0.8660254 -0.5000000  0.0000000 )
                  (  0.0000000  0.0000000  1.0000000 )

   Cartesian axes

     site n.     atom                  positions (alat units)
         1           Zn  tau(   1) = (   0.2500000   0.1443376   0.4445111  )
         2           Zn  tau(   2) = (  -0.0000000   0.2886751   0.0005626  )
         3           O   tau(   3) = (   0.2500000   0.1443376   0.7810621  )
         4           O   tau(   4) = (  -0.0000000   0.2886751   0.3371136  )
         5           Zn  tau(   5) = (   0.2500000   0.1443376   1.3324082  )
         6           Zn  tau(   6) = (  -0.0000000   0.2886751   0.8884597  )
         7           O   tau(   7) = (   0.2500000   0.1443376   1.6689592  )
         8           O   tau(   8) = (  -0.0000000   0.2886751   1.2250107  )
         9           Zn  tau(   9) = (   0.7500000   0.1443376   0.4445111  )
        10           Zn  tau(  10) = (   0.5000000   0.2886751   0.0005626  )
        11           O   tau(  11) = (   0.7500000   0.1443376   0.7810621  )
        12           O   tau(  12) = (   0.5000000   0.2886751   0.3371136  )
        13           Zn  tau(  13) = (   0.7500000   0.1443376   1.3324082  )
        14           Zn  tau(  14) = (   0.5000000   0.2886751   0.8884597  )
        15           O   tau(  15) = (   0.7500000   0.1443376   1.6689592  )
        16           O   tau(  16) = (   0.5000000   0.2886751   1.2250107  )

   Crystallographic axes

     site n.     atom                  positions (cryst. coord.)
         1           Zn  tau(   1) = (  0.3333333  0.3333333  0.2503168  )
         2           Zn  tau(   2) = (  0.1666667  0.6666667  0.0003168  )
         3           O   tau(   3) = (  0.3333333  0.3333333  0.4398382  )
         4           O   tau(   4) = (  0.1666667  0.6666667  0.1898382  )
         5           Zn  tau(   5) = (  0.3333333  0.3333333  0.7503168  )
         6           Zn  tau(   6) = (  0.1666667  0.6666667  0.5003168  )
         7           O   tau(   7) = (  0.3333333  0.3333333  0.9398382  )
         8           O   tau(   8) = (  0.1666667  0.6666667  0.6898382  )
         9           Zn  tau(   9) = (  0.8333333  0.3333333  0.2503168  )
        10           Zn  tau(  10) = (  0.6666667  0.6666667  0.0003168  )
        11           O   tau(  11) = (  0.8333333  0.3333333  0.4398382  )
        12           O   tau(  12) = (  0.6666667  0.6666667  0.1898382  )
        13           Zn  tau(  13) = (  0.8333333  0.3333333  0.7503168  )
        14           Zn  tau(  14) = (  0.6666667  0.6666667  0.5003168  )
        15           O   tau(  15) = (  0.8333333  0.3333333  0.9398382  )
        16           O   tau(  16) = (  0.6666667  0.6666667  0.6898382  )

     number of k points=    80
                       cart. coord. in units 2pi/alat
        k(    1) = (   0.0000000   0.0000000   0.0000000), wk =   0.0092593
        k(    2) = (   0.0000000   0.0000000   0.0938547), wk =   0.0185185
        k(    3) = (   0.0000000   0.0000000   0.1877094), wk =   0.0185185
        k(    4) = (   0.0000000   0.0000000  -0.2815642), wk =   0.0092593
        k(    5) = (   0.0000000   0.3849002   0.0000000), wk =   0.0370370
        k(    6) = (   0.0000000   0.3849002   0.0938547), wk =   0.0370370
        k(    7) = (   0.0000000   0.3849002   0.1877094), wk =   0.0370370
        k(    8) = (   0.0000000   0.3849002  -0.2815642), wk =   0.0370370
        k(    9) = (   0.0000000   0.7698004   0.0000000), wk =   0.0370370
        k(   10) = (   0.0000000   0.7698004   0.0938547), wk =   0.0370370
        k(   11) = (   0.0000000   0.7698004   0.1877094), wk =   0.0370370
        k(   12) = (   0.0000000   0.7698004  -0.2815642), wk =   0.0370370
        k(   13) = (   0.0000000  -1.1547005   0.0000000), wk =   0.0092593
        k(   14) = (   0.0000000  -1.1547005   0.0938547), wk =   0.0185185
        k(   15) = (   0.0000000  -1.1547005   0.1877094), wk =   0.0185185
        k(   16) = (   0.0000000  -1.1547005  -0.2815642), wk =   0.0092593
        k(   17) = (   0.1666667   0.0962250   0.0000000), wk =   0.0185185
        k(   18) = (   0.1666667   0.0962250   0.0938547), wk =   0.0185185
        k(   19) = (   0.1666667   0.0962250   0.1877094), wk =   0.0185185
        k(   20) = (   0.1666667   0.0962250  -0.2815642), wk =   0.0185185
        k(   21) = (   0.1666667   0.4811252   0.0000000), wk =   0.0370370
        k(   22) = (   0.1666667   0.4811252   0.0938547), wk =   0.0370370
        k(   23) = (   0.1666667   0.4811252   0.1877094), wk =   0.0370370
        k(   24) = (   0.1666667   0.4811252  -0.2815642), wk =   0.0370370
        k(   25) = (   0.1666667   0.8660254   0.0000000), wk =   0.0185185
        k(   26) = (   0.1666667   0.8660254   0.0938547), wk =   0.0370370
        k(   27) = (   0.1666667   0.8660254   0.1877094), wk =   0.0370370
        k(   28) = (   0.1666667   0.8660254  -0.2815642), wk =   0.0185185
        k(   29) = (   0.1666667  -1.0584755   0.0000000), wk =   0.0185185
        k(   30) = (   0.1666667  -1.0584755   0.0938547), wk =   0.0185185
        k(   31) = (   0.1666667  -1.0584755   0.1877094), wk =   0.0185185
        k(   32) = (   0.1666667  -1.0584755  -0.2815642), wk =   0.0185185
        k(   33) = (   0.1666667  -0.6735753   0.0000000), wk =   0.0370370
        k(   34) = (   0.1666667  -0.6735753   0.0938547), wk =   0.0370370
        k(   35) = (   0.1666667  -0.6735753   0.1877094), wk =   0.0370370
        k(   36) = (   0.1666667  -0.6735753  -0.2815642), wk =   0.0370370
        k(   37) = (   0.1666667  -0.2886751   0.0000000), wk =   0.0185185
        k(   38) = (   0.1666667  -0.2886751   0.0938547), wk =   0.0370370
        k(   39) = (   0.1666667  -0.2886751   0.1877094), wk =   0.0370370
        k(   40) = (   0.1666667  -0.2886751  -0.2815642), wk =   0.0185185
        k(   41) = (   0.3333333   0.1924501   0.0000000), wk =   0.0185185
        k(   42) = (   0.3333333   0.1924501   0.0938547), wk =   0.0185185
        k(   43) = (   0.3333333   0.1924501   0.1877094), wk =   0.0185185
        k(   44) = (   0.3333333   0.1924501  -0.2815642), wk =   0.0185185
        k(   45) = (   0.3333333   0.5773503   0.0000000), wk =   0.0185185
        k(   46) = (   0.3333333   0.5773503   0.0938547), wk =   0.0370370
        k(   47) = (   0.3333333   0.5773503   0.1877094), wk =   0.0370370
        k(   48) = (   0.3333333   0.5773503  -0.2815642), wk =   0.0185185
        k(   49) = (   0.3333333  -0.9622504   0.0000000), wk =   0.0185185
        k(   50) = (   0.3333333  -0.9622504   0.0938547), wk =   0.0185185
        k(   51) = (   0.3333333  -0.9622504   0.1877094), wk =   0.0185185
        k(   52) = (   0.3333333  -0.9622504  -0.2815642), wk =   0.0185185
        k(   53) = (   0.3333333  -0.5773503   0.0000000), wk =   0.0185185
        k(   54) = (   0.3333333  -0.5773503   0.0938547), wk =   0.0370370
        k(   55) = (   0.3333333  -0.5773503   0.1877094), wk =   0.0370370
[...]
        k(   76) = (  -0.5000000   0.3333333  -0.3333333), wk =   0.0370370
        k(   77) = (   0.3333333   0.0000000  -0.1666667), wk =   0.0185185
        k(   78) = (   0.3333333   0.0000000  -0.3333333), wk =   0.0185185
        k(   79) = (  -0.6666667   0.5000000  -0.1666667), wk =   0.0185185
        k(   80) = (  -0.6666667   0.5000000  -0.3333333), wk =   0.0185185

     Check: negative core charge=   -0.000002

     Initial potential from superposition of free atoms

     starting charge     143.9702, renormalised to     144.0000
     Starting wfcs are  104 randomized atomic wfcs

     Self-consistent Calculation

     iteration #  1     ecut=    50.00 Ry     beta= 0.30
     Davidson diagonalization with overlap

     ethr =  1.00E-02,  avg # of iterations =  1.5

     total energy              =   -1445.53943909 Ry
     estimated scf accuracy    <       3.23569936 Ry

[...]

     total energy              =   -1446.31779675 Ry
     estimated scf accuracy    <       0.00000003 Ry

     iteration # 42     ecut=    50.00 Ry     beta= 0.30
     Davidson diagonalization with overlap

     ethr =  1.87E-11,  avg # of iterations =  4.3

     End of self-consistent calculation

          k = 0.0000 0.0000 0.0000 (  9769 PWs)   bands (ev):

   -12.3852 -12.2262 -12.2262 -12.0611 -11.9529 -11.9029 -11.9029 -11.8555
    -0.8251  -0.8195  -0.8195  -0.8195  -0.8192  -0.7812  -0.7812  -0.7810
    -0.7810  -0.7689  -0.7475  -0.7475  -0.7315  -0.7313  -0.6443  -0.6283
    -0.5114  -0.5114  -0.3804  -0.3757  -0.3684  -0.2912  -0.2912  -0.1986
    -0.1646  -0.1645  -0.1205  -0.1205  -0.1204  -0.1204  -0.0835  -0.0835
    -0.0610  -0.0535  -0.0535  -0.0486  -0.0397  -0.0123  -0.0123   0.0144
     0.5194   0.7059   0.8144   0.8144   1.1560   1.9292   1.9292   2.1211
     2.8330   3.0229   3.0229   3.1943   3.1944   3.2119   3.5470   3.8277
     3.8284   3.9291   4.0230   4.0230   4.0237   4.0237   4.2172   4.2179

     occupation numbers
     1.0000   1.0000   1.0000   1.0000   1.0000   1.0000   1.0000   1.0000
     1.0000   1.0000   1.0000   1.0000   1.0000   1.0000   1.0000   1.0000
     1.0000   1.0000   1.0000   1.0000   1.0000   1.0000   1.0000   1.0000
     1.0000   1.0000   1.0000   1.0000   1.0000   1.0000   1.0000   1.0000
     1.0000   1.0000   1.0000   1.0000   1.0000   1.0000   1.0000   1.0000
     1.0000   1.0000   1.0000   1.0000   1.0000   1.0000   1.0000   1.0000
     1.0000   1.0000   1.0000   1.0000   1.0000   1.0000   1.0000   1.0000
     1.0000   1.0000   1.0000   1.0000   1.0000   1.0000   1.0000   1.0000
     1.0000   1.0000   1.0000   1.0000   1.0000   1.0000   1.0000   1.0000

[...]

          k =-0.5000-0.2887 0.0000 (  9726 PWs)   bands (ev):

[...]

          k = 0.3333 0.1925-0.1877 (  9740 PWs)   bands (ev):

[...]

          k =-0.6667 0.7698-0.1877 (  9748 PWs)   bands (ev):

   -11.9494 -11.9494 -11.9300 -11.9300 -11.8788 -11.8787 -11.8606 -11.8606
    -0.7803  -0.7803  -0.7653  -0.7653  -0.6757  -0.6757  -0.6202  -0.6202
    -0.5692  -0.5692  -0.5674  -0.5674  -0.4534  -0.4534  -0.4072  -0.4072
    -0.3753  -0.3753  -0.3543  -0.3543  -0.3540  -0.3540  -0.3161  -0.3161
    -0.1770  -0.1770  -0.1336  -0.1336  -0.0987  -0.0987  -0.0857  -0.0857
    -0.0140  -0.0140  -0.0076  -0.0076   0.0532   0.0532   0.0900   0.0900
     0.9408   0.9408   0.9671   0.9671   1.1728   1.1728   1.2742   1.2742
     2.2242   2.2242   2.4568   2.4568   2.5172   2.5172   2.7604   2.7604
     2.9926   2.9926   3.1244   3.1244   3.3023   3.3023   3.3238   3.3238

     occupation numbers
     1.0000   1.0000   1.0000   1.0000   1.0000   1.0000   1.0000   1.0000
     1.0000   1.0000   1.0000   1.0000   1.0000   1.0000   1.0000   1.0000
     1.0000   1.0000   1.0000   1.0000   1.0000   1.0000   1.0000   1.0000
     1.0000   1.0000   1.0000   1.0000   1.0000   1.0000   1.0000   1.0000
     1.0000   1.0000   1.0000   1.0000   1.0000   1.0000   1.0000   1.0000
     1.0000   1.0000   1.0000   1.0000   1.0000   1.0000   1.0000   1.0000
     1.0000   1.0000   1.0000   1.0000   1.0000   1.0000   1.0000   1.0000
     1.0000   1.0000   1.0000   1.0000   1.0000   1.0000   1.0000   1.0000
     1.0000   1.0000   1.0000   1.0000   1.0000   1.0000   1.0000   1.0000

     highest occupied level (ev):     4.2179

!    total energy              =   -1446.31779675 Ry
     estimated scf accuracy    <          2.8E-09 Ry

     The total energy is the sum of the following terms:
     one-electron contribution =    -715.71416384 Ry
     hartree contribution      =     508.89832299 Ry
     xc contribution           =    -436.66276580 Ry
     ewald contribution        =    -802.83919011 Ry

     convergence has been achieved in  42 iterations

     Forces acting on atoms (cartesian axes, Ry/au):

     atom    1 type  1   force =     0.00000265    0.00000153   -0.00741404
     atom    2 type  1   force =     0.00000625    0.00000361   -0.00742452
     atom    3 type  2   force =    -0.00000756   -0.00000436    0.00742153
     atom    4 type  2   force =     0.00000714    0.00000412    0.00741259
     atom    5 type  1   force =    -0.00001387   -0.00000801   -0.00742429
     atom    6 type  1   force =     0.00000362    0.00000209   -0.00741826
     atom    7 type  2   force =    -0.00000793   -0.00000458    0.00742306
     atom    8 type  2   force =     0.00000922    0.00000532    0.00742198
     atom    9 type  1   force =    -0.00001438   -0.00000830   -0.00741658
     atom   10 type  1   force =     0.00000544    0.00000314   -0.00741086
     atom   11 type  2   force =    -0.00000806   -0.00000465    0.00742329
     atom   12 type  2   force =     0.00000977    0.00000564    0.00741800
     atom   13 type  1   force =     0.00000112    0.00000064   -0.00742366
     atom   14 type  1   force =     0.00000704    0.00000406   -0.00742737
     atom   15 type  2   force =    -0.00000813   -0.00000469    0.00742135
     atom   16 type  2   force =     0.00000768    0.00000443    0.00741778
     The non-local contrib.  to forces
     atom    1 type  1   force =     0.00001096    0.00000633    0.22780978
     atom    2 type  1   force =    -0.00000256   -0.00000148    0.22779284
     atom    3 type  2   force =    -0.00019844   -0.00011457    0.25458340
     atom    4 type  2   force =     0.00020128    0.00011621    0.25457263
     atom    5 type  1   force =    -0.00000353   -0.00000204    0.22779639
     atom    6 type  1   force =    -0.00000429   -0.00000248    0.22780132
     atom    7 type  2   force =    -0.00019974   -0.00011532    0.25458409
     atom    8 type  2   force =     0.00019979    0.00011535    0.25459129
     atom    9 type  1   force =    -0.00000281   -0.00000162    0.22780810
     atom   10 type  1   force =    -0.00000301   -0.00000174    0.22780690
     atom   11 type  2   force =    -0.00020027   -0.00011562    0.25458944
     atom   12 type  2   force =     0.00019920    0.00011501    0.25458416
     atom   13 type  1   force =     0.00000974    0.00000562    0.22779838
     atom   14 type  1   force =    -0.00000147   -0.00000085    0.22779147
     atom   15 type  2   force =    -0.00020003   -0.00011549    0.25457809
     atom   16 type  2   force =     0.00020093    0.00011601    0.25458049
     The ionic contribution  to forces
     atom    1 type  1   force =    -0.00000000    0.00000000    1.76883793
     atom    2 type  1   force =     0.00000000   -0.00000000    1.76883793
     atom    3 type  2   force =    -0.00000000    0.00000000   -1.76883793
     atom    4 type  2   force =     0.00000000   -0.00000000   -1.76883793
     atom    5 type  1   force =    -0.00000000    0.00000000    1.76883793
     atom    6 type  1   force =     0.00000000   -0.00000000    1.76883793
     atom    7 type  2   force =    -0.00000000    0.00000000   -1.76883793
     atom    8 type  2   force =     0.00000000   -0.00000000   -1.76883793
     atom    9 type  1   force =    -0.00000000    0.00000000    1.76883793
     atom   10 type  1   force =     0.00000000   -0.00000000    1.76883793
     atom   11 type  2   force =    -0.00000000    0.00000000   -1.76883793
     atom   12 type  2   force =     0.00000000   -0.00000000   -1.76883793
     atom   13 type  1   force =    -0.00000000    0.00000000    1.76883793
     atom   14 type  1   force =     0.00000000   -0.00000000    1.76883793
     atom   15 type  2   force =    -0.00000000    0.00000000   -1.76883793
     atom   16 type  2   force =     0.00000000   -0.00000000   -1.76883793
     The local contribution  to forces
     atom    1 type  1   force =    -0.00002536   -0.00001464   -1.99045088
     atom    2 type  1   force =    -0.00000189   -0.00000120   -1.99042189
     atom    3 type  2   force =     0.00018864    0.00010891    1.52398706
     atom    4 type  2   force =    -0.00019257   -0.00011121    1.52397742
     atom    5 type  1   force =     0.00002191    0.00001265   -1.99042565
     atom    6 type  1   force =     0.00000450    0.00000249   -1.99043859
     atom    7 type  2   force =     0.00019055    0.00011001    1.52398855
     atom    8 type  2   force =    -0.00018480   -0.00010672    1.52397965
     atom    9 type  1   force =     0.00002151    0.00001242   -1.99044449
     atom   10 type  1   force =     0.00000309    0.00000168   -1.99045513
     atom   11 type  2   force =     0.00018982    0.00010959    1.52398308
     atom   12 type  2   force =    -0.00018367   -0.00010607    1.52397314
     atom   13 type  1   force =    -0.00002372   -0.00001369   -1.99043103
     atom   14 type  1   force =    -0.00000269   -0.00000165   -1.99041305
     atom   15 type  2   force =     0.00018942    0.00010936    1.52399027
     atom   16 type  2   force =    -0.00019222   -0.00011101    1.52398610
     The core correction contribution to forces
     atom    1 type  1   force =    -0.00000747   -0.00000428   -0.01362087
     atom    2 type  1   force =     0.00000839    0.00000481   -0.01361953
     atom    3 type  2   force =     0.00000224    0.00000130   -0.00230695
     atom    4 type  2   force =    -0.00000227   -0.00000131   -0.00230665
     atom    5 type  1   force =    -0.00000909   -0.00000522   -0.01362102
     atom    6 type  1   force =     0.00000816    0.00000467   -0.01361927
     atom    7 type  2   force =     0.00000226    0.00000131   -0.00230694
     atom    8 type  2   force =    -0.00000224   -0.00000129   -0.00230689
     atom    9 type  1   force =    -0.00000906   -0.00000519   -0.01362118
     atom   10 type  1   force =     0.00000802    0.00000458   -0.01361885
     atom   11 type  2   force =     0.00000225    0.00000130   -0.00230702
     atom   12 type  2   force =    -0.00000223   -0.00000130   -0.00230681
     atom   13 type  1   force =    -0.00000734   -0.00000420   -0.01362083
     atom   14 type  1   force =     0.00000829    0.00000473   -0.01362006
     atom   15 type  2   force =     0.00000225    0.00000130   -0.00230686
     atom   16 type  2   force =    -0.00000227   -0.00000132   -0.00230674
     The Hubbard contrib.    to forces
     atom    1 type  1   force =     0.00000000    0.00000000    0.00000000
     atom    2 type  1   force =     0.00000000    0.00000000    0.00000000
     atom    3 type  2   force =     0.00000000    0.00000000    0.00000000
     atom    4 type  2   force =     0.00000000    0.00000000    0.00000000
     atom    5 type  1   force =     0.00000000    0.00000000    0.00000000
     atom    6 type  1   force =     0.00000000    0.00000000    0.00000000
     atom    7 type  2   force =     0.00000000    0.00000000    0.00000000
     atom    8 type  2   force =     0.00000000    0.00000000    0.00000000
     atom    9 type  1   force =     0.00000000    0.00000000    0.00000000
     atom   10 type  1   force =     0.00000000    0.00000000    0.00000000
     atom   11 type  2   force =     0.00000000    0.00000000    0.00000000
     atom   12 type  2   force =     0.00000000    0.00000000    0.00000000
     atom   13 type  1   force =     0.00000000    0.00000000    0.00000000
     atom   14 type  1   force =     0.00000000    0.00000000    0.00000000
     atom   15 type  2   force =     0.00000000    0.00000000    0.00000000
     atom   16 type  2   force =     0.00000000    0.00000000    0.00000000
     The SCF correction term to forces
     atom    1 type  1   force =     0.00002491    0.00001438    0.00000987
     atom    2 type  1   force =     0.00000278    0.00000160   -0.00001400
     atom    3 type  2   force =     0.00000040    0.00000023   -0.00000417
     atom    4 type  2   force =     0.00000112    0.00000065    0.00000700
     atom    5 type  1   force =    -0.00002277   -0.00001315   -0.00001206
     atom    6 type  1   force =    -0.00000427   -0.00000246    0.00000021
     atom    7 type  2   force =    -0.00000059   -0.00000034   -0.00000483
     atom    8 type  2   force =    -0.00000312   -0.00000180   -0.00000427
     atom    9 type  1   force =    -0.00002364   -0.00001365    0.00000294
     atom   10 type  1   force =    -0.00000219   -0.00000127    0.00001817
     atom   11 type  2   force =     0.00000054    0.00000031   -0.00000441
     atom   12 type  2   force =    -0.00000312   -0.00000180    0.00000532
     atom   13 type  1   force =     0.00002282    0.00001318   -0.00000824
     atom   14 type  1   force =     0.00000337    0.00000195   -0.00002379
     atom   15 type  2   force =     0.00000065    0.00000037   -0.00000233
     atom   16 type  2   force =     0.00000166    0.00000096   -0.00000425

     Total force =     0.029680     Total SCF correction =     0.000068

     General routines

     Parallel routines

   This run was terminated on:  11:20:29  29Aug2025

   JOB DONE.
Note: The following floating-point exceptions are signalling: IEEE_UNDERFLOW_FLAG IEEE_DENORMAL
Note: The following floating-point exceptions are signalling: IEEE_UNDERFLOW_FLAG IEEE_DENORMAL
Note: The following floating-point exceptions are signalling: IEEE_UNDERFLOW_FLAG IEEE_DENORMAL
Note: The following floating-point exceptions are signalling: IEEE_UNDERFLOW_FLAG IEEE_DENORMAL
Note: The following floating-point exceptions are signalling: IEEE_UNDERFLOW_FLAG IEEE_DENORMAL
Note: The following floating-point exceptions are signalling: IEEE_UNDERFLOW_FLAG IEEE_DENORMAL
Note: The following floating-point exceptions are signalling: IEEE_UNDERFLOW_FLAG IEEE_DENORMAL
Note: The following floating-point exceptions are signalling: IEEE_UNDERFLOW_FLAG IEEE_DENORMAL
Note: The following floating-point exceptions are signalling: IEEE_UNDERFLOW_FLAG IEEE_DENORMAL
Note: The following floating-point exceptions are signalling: IEEE_UNDERFLOW_FLAG IEEE_DENORMAL
Note: The following floating-point exceptions are signalling: IEEE_UNDERFLOW_FLAG IEEE_DENORMAL
Note: The following floating-point exceptions are signalling: IEEE_UNDERFLOW_FLAG IEEE_DENORMAL
Note: The following floating-point exceptions are signalling: IEEE_UNDERFLOW_FLAG IEEE_DENORMAL
Note: The following floating-point exceptions are signalling: IEEE_UNDERFLOW_FLAG IEEE_DENORMAL
Note: The following floating-point exceptions are signalling: IEEE_UNDERFLOW_FLAG IEEE_DENORMAL
Note: The following floating-point exceptions are signalling: IEEE_UNDERFLOW_FLAG IEEE_DENORMAL
Note: The following floating-point exceptions are signalling: IEEE_UNDERFLOW_FLAG IEEE_DENORMAL
Note: The following floating-point exceptions are signalling: IEEE_UNDERFLOW_FLAG IEEE_DENORMAL
Note: The following floating-point exceptions are signalling: IEEE_UNDERFLOW_FLAG IEEE_DENORMAL
Note: The following floating-point exceptions are signalling: IEEE_UNDERFLOW_FLAG IEEE_DENORMAL
Note: The following floating-point exceptions are signalling: IEEE_UNDERFLOW_FLAG IEEE_DENORMAL
Note: The following floating-point exceptions are signalling: IEEE_UNDERFLOW_FLAG IEEE_DENORMAL
Note: The following floating-point exceptions are signalling: IEEE_UNDERFLOW_FLAG IEEE_DENORMAL
Note: The following floating-point exceptions are signalling: IEEE_UNDERFLOW_FLAG IEEE_DENORMAL
Note: The following floating-point exceptions are signalling: IEEE_UNDERFLOW_FLAG IEEE_DENORMAL
Note: The following floating-point exceptions are signalling: IEEE_UNDERFLOW_FLAG IEEE_DENORMAL
Note: The following floating-point exceptions are signalling: IEEE_UNDERFLOW_FLAG IEEE_DENORMAL
Note: The following floating-point exceptions are signalling: IEEE_UNDERFLOW_FLAG IEEE_DENORMAL
Note: The following floating-point exceptions are signalling: IEEE_UNDERFLOW_FLAG IEEE_DENORMAL
Note: The following floating-point exceptions are signalling: IEEE_UNDERFLOW_FLAG IEEE_DENORMAL
Note: The following floating-point exceptions are signalling: IEEE_UNDERFLOW_FLAG IEEE_DENORMAL
Note: The following floating-point exceptions are signalling: IEEE_UNDERFLOW_FLAG IEEE_DENORMAL