     Program PWSCF v.7.0 starts on 29Aug2025 at  5: 0: 9

     K-points division:     npool     =       8
     R & G space division:  proc/nbgrp/npool/nimage =       4

     Reading input from /home/jvc/QEspresso7.2/ZnO_database/scripts/cell212.in/ZnO-3.27-1.68-212.in
Warning: card &CELL ignored
Warning: card / ignored
Warning: card &FCP ignored
Warning: card / ignored
Warning: card &RISM ignored
Warning: card / ignored

     Current dimensions of program PWSCF are:
     Max number of different atomic species (ntypx) = 10
     Max number of k-points (npk) =  40000
     Max angular momentum in pseudopotentials (lmaxx) =  4
     file Zn.upf: wavefunction(s)  3D renormalized
     Found identity + (  0.0000  0.0000  0.5000) symmetry
     This is a supercell, fractional translations are disabled
     Message from routine setup:
     using ibrav=0 with symmetry is DISCOURAGED, use correct ibrav instead

     Using Slab Decomposition

     bravais-lattice index     =            0
     lattice parameter (alat)  =      12.3577  a.u.
     unit-cell volume          =    1371.9798 (a.u.)^3
     number of atoms/cell      =           16
     number of atomic types    =            2
     number of electrons       =       144.00
     number of Kohn-Sham states=           72
     kinetic-energy cutoff     =      50.0000  Ry
     charge density cutoff     =     400.0000  Ry
     scf convergence threshold =      1.0E-08
     mixing beta               =       0.3000
     number of iterations used =            8  plain     mixing
     Exchange-correlation= PBE
                           (   1   4   3   4   0   0   0)

     celldm(1)=  12.357708  celldm(2)=   0.000000  celldm(3)=   0.000000
     celldm(4)=   0.000000  celldm(5)=   0.000000  celldm(6)=   0.000000

     crystal axes: (cart. coord. in units of alat)
               a(1) = (   1.000000   0.000000   0.000000 )
               a(2) = (  -0.250000   0.433013   0.000000 )
               a(3) = (   0.000000   0.000000   1.678933 )

     reciprocal axes: (cart. coord. in units 2 pi/alat)
               b(1) = (  1.000000  0.577350 -0.000000 )
               b(2) = (  0.000000  2.309401  0.000000 )
               b(3) = (  0.000000 -0.000000  0.595616 )

     PseudoPot. # 1 for Zn read from file:
     /home/jvc/QEspresso7.2/ZnO_database/pseudos/Zn.upf
     MD5 check sum: 7f56cabf9682ed8c977c2f7d0c5985c5
     Pseudo is Ultrasoft + core correction, Zval = 12.0
     Generated using &quot;atomic&quot; code by A. Dal Corso  v.6.2.2
     Using radial grid of 1201 points,  6 beta functions with:
                l(1) =   0
                l(2) =   0
                l(3) =   1
                l(4) =   1
                l(5) =   2
                l(6) =   2
     Q(r) pseudized with 0 coefficients

     PseudoPot. # 2 for O  read from file:
     /home/jvc/QEspresso7.2/ZnO_database/pseudos/O.upf
     MD5 check sum: 91400c9766925bcf19f520983a725ff0
     Pseudo is Ultrasoft + core correction, Zval =  6.0
     Generated using &quot;atomic&quot; code by A. Dal Corso  v.6.3MaX
     Using radial grid of 1095 points,  4 beta functions with:
                l(1) =   0
                l(2) =   0
                l(3) =   1
                l(4) =   1
     Q(r) pseudized with 0 coefficients

     atomic species   valence    mass     pseudopotential
        Zn            12.00    65.38000     Zn( 1.00)
        O              6.00    15.99900     O ( 1.00)

      2 Sym. Ops. (no inversion) found

                                    s                        frac. trans.

      isym =  1     identity

 cryst.   s( 1) = (     1          0          0      )
                  (     0          1          0      )
                  (     0          0          1      )

 cart.    s( 1) = (  1.0000000  0.0000000  0.0000000 )
                  (  0.0000000  1.0000000  0.0000000 )
                  (  0.0000000  0.0000000  1.0000000 )

      isym =  2     inv. 180 deg rotation - cryst. axis [0,1,0]

 cryst.   s( 2) = (     1          2          0      )
                  (     0         -1          0      )
                  (     0          0          1      )

 cart.    s( 2) = (  0.5000000  0.8660254  0.0000000 )
                  (  0.8660254 -0.5000000  0.0000000 )
                  (  0.0000000  0.0000000  1.0000000 )

   Cartesian axes

     site n.     atom                  positions (alat units)
         1           Zn  tau(   1) = (   0.2500000   0.1443376   0.4202650  )
         2           Zn  tau(   2) = (  -0.0000000   0.2886751   0.0005319  )
         3           O   tau(   3) = (   0.2500000   0.1443376   0.7384587  )
         4           O   tau(   4) = (  -0.0000000   0.2886751   0.3187256  )
         5           Zn  tau(   5) = (   0.2500000   0.1443376   1.2597314  )
         6           Zn  tau(   6) = (  -0.0000000   0.2886751   0.8399982  )
         7           O   tau(   7) = (   0.2500000   0.1443376   1.5779251  )
         8           O   tau(   8) = (  -0.0000000   0.2886751   1.1581919  )
         9           Zn  tau(   9) = (   0.7500000   0.1443376   0.4202650  )
        10           Zn  tau(  10) = (   0.5000000   0.2886751   0.0005319  )
        11           O   tau(  11) = (   0.7500000   0.1443376   0.7384587  )
        12           O   tau(  12) = (   0.5000000   0.2886751   0.3187256  )
        13           Zn  tau(  13) = (   0.7500000   0.1443376   1.2597314  )
        14           Zn  tau(  14) = (   0.5000000   0.2886751   0.8399982  )
        15           O   tau(  15) = (   0.7500000   0.1443376   1.5779251  )
        16           O   tau(  16) = (   0.5000000   0.2886751   1.1581919  )

   Crystallographic axes

     site n.     atom                  positions (cryst. coord.)
         1           Zn  tau(   1) = (  0.3333333  0.3333333  0.2503168  )
         2           Zn  tau(   2) = (  0.1666667  0.6666667  0.0003168  )
         3           O   tau(   3) = (  0.3333333  0.3333333  0.4398382  )
         4           O   tau(   4) = (  0.1666667  0.6666667  0.1898382  )
         5           Zn  tau(   5) = (  0.3333333  0.3333333  0.7503168  )
         6           Zn  tau(   6) = (  0.1666667  0.6666667  0.5003168  )
         7           O   tau(   7) = (  0.3333333  0.3333333  0.9398382  )
         8           O   tau(   8) = (  0.1666667  0.6666667  0.6898382  )
         9           Zn  tau(   9) = (  0.8333333  0.3333333  0.2503168  )
        10           Zn  tau(  10) = (  0.6666667  0.6666667  0.0003168  )
        11           O   tau(  11) = (  0.8333333  0.3333333  0.4398382  )
        12           O   tau(  12) = (  0.6666667  0.6666667  0.1898382  )
        13           Zn  tau(  13) = (  0.8333333  0.3333333  0.7503168  )
        14           Zn  tau(  14) = (  0.6666667  0.6666667  0.5003168  )
        15           O   tau(  15) = (  0.8333333  0.3333333  0.9398382  )
        16           O   tau(  16) = (  0.6666667  0.6666667  0.6898382  )

     number of k points=    80
                       cart. coord. in units 2pi/alat
        k(    1) = (   0.0000000   0.0000000   0.0000000), wk =   0.0092593
        k(    2) = (   0.0000000   0.0000000   0.0992694), wk =   0.0185185
        k(    3) = (   0.0000000   0.0000000   0.1985388), wk =   0.0185185
        k(    4) = (   0.0000000   0.0000000  -0.2978082), wk =   0.0092593
        k(    5) = (   0.0000000   0.3849002   0.0000000), wk =   0.0370370
        k(    6) = (   0.0000000   0.3849002   0.0992694), wk =   0.0370370
        k(    7) = (   0.0000000   0.3849002   0.1985388), wk =   0.0370370
        k(    8) = (   0.0000000   0.3849002  -0.2978082), wk =   0.0370370
        k(    9) = (   0.0000000   0.7698004   0.0000000), wk =   0.0370370
        k(   10) = (   0.0000000   0.7698004   0.0992694), wk =   0.0370370
        k(   11) = (   0.0000000   0.7698004   0.1985388), wk =   0.0370370
        k(   12) = (   0.0000000   0.7698004  -0.2978082), wk =   0.0370370
        k(   13) = (   0.0000000  -1.1547005   0.0000000), wk =   0.0092593
        k(   14) = (   0.0000000  -1.1547005   0.0992694), wk =   0.0185185
        k(   15) = (   0.0000000  -1.1547005   0.1985388), wk =   0.0185185
        k(   16) = (   0.0000000  -1.1547005  -0.2978082), wk =   0.0092593
        k(   17) = (   0.1666667   0.0962250   0.0000000), wk =   0.0185185
        k(   18) = (   0.1666667   0.0962250   0.0992694), wk =   0.0185185
        k(   19) = (   0.1666667   0.0962250   0.1985388), wk =   0.0185185
        k(   20) = (   0.1666667   0.0962250  -0.2978082), wk =   0.0185185
        k(   21) = (   0.1666667   0.4811252   0.0000000), wk =   0.0370370
        k(   22) = (   0.1666667   0.4811252   0.0992694), wk =   0.0370370
        k(   23) = (   0.1666667   0.4811252   0.1985388), wk =   0.0370370
        k(   24) = (   0.1666667   0.4811252  -0.2978082), wk =   0.0370370
        k(   25) = (   0.1666667   0.8660254   0.0000000), wk =   0.0185185
        k(   26) = (   0.1666667   0.8660254   0.0992694), wk =   0.0370370
        k(   27) = (   0.1666667   0.8660254   0.1985388), wk =   0.0370370
        k(   28) = (   0.1666667   0.8660254  -0.2978082), wk =   0.0185185
        k(   29) = (   0.1666667  -1.0584755   0.0000000), wk =   0.0185185
        k(   30) = (   0.1666667  -1.0584755   0.0992694), wk =   0.0185185
        k(   31) = (   0.1666667  -1.0584755   0.1985388), wk =   0.0185185
        k(   32) = (   0.1666667  -1.0584755  -0.2978082), wk =   0.0185185
        k(   33) = (   0.1666667  -0.6735753   0.0000000), wk =   0.0370370
        k(   34) = (   0.1666667  -0.6735753   0.0992694), wk =   0.0370370
        k(   35) = (   0.1666667  -0.6735753   0.1985388), wk =   0.0370370
        k(   36) = (   0.1666667  -0.6735753  -0.2978082), wk =   0.0370370
        k(   37) = (   0.1666667  -0.2886751   0.0000000), wk =   0.0185185
        k(   38) = (   0.1666667  -0.2886751   0.0992694), wk =   0.0370370
        k(   39) = (   0.1666667  -0.2886751   0.1985388), wk =   0.0370370
        k(   40) = (   0.1666667  -0.2886751  -0.2978082), wk =   0.0185185
        k(   41) = (   0.3333333   0.1924501   0.0000000), wk =   0.0185185
        k(   42) = (   0.3333333   0.1924501   0.0992694), wk =   0.0185185
        k(   43) = (   0.3333333   0.1924501   0.1985388), wk =   0.0185185
        k(   44) = (   0.3333333   0.1924501  -0.2978082), wk =   0.0185185
        k(   45) = (   0.3333333   0.5773503   0.0000000), wk =   0.0185185
        k(   46) = (   0.3333333   0.5773503   0.0992694), wk =   0.0370370
        k(   47) = (   0.3333333   0.5773503   0.1985388), wk =   0.0370370
        k(   48) = (   0.3333333   0.5773503  -0.2978082), wk =   0.0185185
        k(   49) = (   0.3333333  -0.9622504   0.0000000), wk =   0.0185185
        k(   50) = (   0.3333333  -0.9622504   0.0992694), wk =   0.0185185
        k(   51) = (   0.3333333  -0.9622504   0.1985388), wk =   0.0185185
        k(   52) = (   0.3333333  -0.9622504  -0.2978082), wk =   0.0185185
        k(   53) = (   0.3333333  -0.5773503   0.0000000), wk =   0.0185185
        k(   54) = (   0.3333333  -0.5773503   0.0992694), wk =   0.0370370
        k(   55) = (   0.3333333  -0.5773503   0.1985388), wk =   0.0370370
[...]
        k(   79) = (  -0.6666667   0.5000000  -0.1666667), wk =   0.0185185
        k(   80) = (  -0.6666667   0.5000000  -0.3333333), wk =   0.0185185

     Check: negative core charge=   -0.000002

     Initial potential from superposition of free atoms

     starting charge     143.9702, renormalised to     144.0000
     Starting wfcs are  104 randomized atomic wfcs

     Self-consistent Calculation

     iteration #  1     ecut=    50.00 Ry     beta= 0.30
     Davidson diagonalization with overlap

     ethr =  1.00E-02,  avg # of iterations =  1.9

     total energy              =   -1445.88399190 Ry
     estimated scf accuracy    <       2.82718208 Ry

[...]

     c_bands:  1 eigenvalues not converged
     c_bands:  1 eigenvalues not converged
     ethr =  1.66E-04,  avg # of iterations = 12.2

[...]

     c_bands:  1 eigenvalues not converged
     ethr =  2.05E-08,  avg # of iterations =  9.1

[...]

     total energy              =   -1446.53517042 Ry
     estimated scf accuracy    <       0.00000002 Ry

     iteration # 29     ecut=    50.00 Ry     beta= 0.30
     Davidson diagonalization with overlap

     ethr =  1.66E-11,  avg # of iterations =  6.3

     End of self-consistent calculation

          k = 0.0000 0.0000 0.0000 (  8163 PWs)   bands (ev):

   -11.2720 -10.9950 -10.9950 -10.7028 -10.6580 -10.5669 -10.5668 -10.4851
     0.6402   0.6402   0.7416   0.7942   0.7942   0.8942   0.8944   0.9309
     0.9479   0.9561   0.9561   0.9563   0.9563   1.0481   1.0483   1.0730
     1.1436   1.3364   1.3364   1.4871   1.4871   1.5094   1.5770   1.6184
     1.9303   1.9304   1.9687   2.0208   2.0208   2.0208   2.0208   2.0770
     2.0865   2.0866   2.0941   2.0941   2.1334   2.1648   2.1648   2.2073
     2.3969   2.6321   2.6572   2.6572   2.9215   3.7203   4.0403   4.0403
     4.4048   4.9683   4.9683   5.0029   5.0029   5.1190   5.5529   5.7287
     5.7291   6.0477   6.0477   6.0481   6.0481   6.1922   6.3620   6.3625

     occupation numbers
     1.0000   1.0000   1.0000   1.0000   1.0000   1.0000   1.0000   1.0000
     1.0000   1.0000   1.0000   1.0000   1.0000   1.0000   1.0000   1.0000
     1.0000   1.0000   1.0000   1.0000   1.0000   1.0000   1.0000   1.0000
     1.0000   1.0000   1.0000   1.0000   1.0000   1.0000   1.0000   1.0000
     1.0000   1.0000   1.0000   1.0000   1.0000   1.0000   1.0000   1.0000
     1.0000   1.0000   1.0000   1.0000   1.0000   1.0000   1.0000   1.0000
     1.0000   1.0000   1.0000   1.0000   1.0000   1.0000   1.0000   1.0000
     1.0000   1.0000   1.0000   1.0000   1.0000   1.0000   1.0000   1.0000
     1.0000   1.0000   1.0000   1.0000   1.0000   1.0000   1.0000   1.0000

[...]

          k =-0.5000-0.2887 0.0000 (  8168 PWs)   bands (ev):

[...]

          k = 0.3333 0.1925-0.1985 (  8174 PWs)   bands (ev):

[...]

          k =-0.6667 0.7698-0.1985 (  8218 PWs)   bands (ev):

   -10.6513 -10.6513 -10.6157 -10.6157 -10.5242 -10.5241 -10.4930 -10.4930
     0.7725   0.7725   0.8121   0.8121   0.8679   0.8679   1.0044   1.0044
     1.1602   1.1603   1.1804   1.1804   1.3473   1.3473   1.3963   1.3963
     1.4526   1.4526   1.4779   1.4779   1.5392   1.5392   1.5560   1.5560
     1.9085   1.9085   1.9803   1.9803   2.0244   2.0244   2.0507   2.0507
     2.1513   2.1513   2.1606   2.1606   2.2696   2.2696   2.3312   2.3312
     2.6442   2.6442   2.7616   2.7616   3.0710   3.0710   3.1739   3.1739
     3.8232   3.8232   4.1253   4.1253   4.1690   4.1690   4.5544   4.5544
     4.8809   4.8809   5.0654   5.0654   5.2700   5.2700   5.2726   5.2726

     occupation numbers
     1.0000   1.0000   1.0000   1.0000   1.0000   1.0000   1.0000   1.0000
     1.0000   1.0000   1.0000   1.0000   1.0000   1.0000   1.0000   1.0000
     1.0000   1.0000   1.0000   1.0000   1.0000   1.0000   1.0000   1.0000
     1.0000   1.0000   1.0000   1.0000   1.0000   1.0000   1.0000   1.0000
     1.0000   1.0000   1.0000   1.0000   1.0000   1.0000   1.0000   1.0000
     1.0000   1.0000   1.0000   1.0000   1.0000   1.0000   1.0000   1.0000
     1.0000   1.0000   1.0000   1.0000   1.0000   1.0000   1.0000   1.0000
     1.0000   1.0000   1.0000   1.0000   1.0000   1.0000   1.0000   1.0000
     1.0000   1.0000   1.0000   1.0000   1.0000   1.0000   1.0000   1.0000

     highest occupied level (ev):     6.3625

!    total energy              =   -1446.53517043 Ry
     estimated scf accuracy    <          1.2E-09 Ry

     The total energy is the sum of the following terms:
     one-electron contribution =    -636.16507712 Ry
     hartree contribution      =     479.58667141 Ry
     xc contribution           =    -437.87182471 Ry
     ewald contribution        =    -852.08494001 Ry

     convergence has been achieved in  29 iterations

     Forces acting on atoms (cartesian axes, Ry/au):

     atom    1 type  1   force =     0.00001033    0.00000596    0.00742968
     atom    2 type  1   force =    -0.00000394   -0.00000227    0.00743441
     atom    3 type  2   force =    -0.00000314   -0.00000181   -0.00743246
     atom    4 type  2   force =     0.00000316    0.00000182   -0.00743436
     atom    5 type  1   force =     0.00000863    0.00000498    0.00744308
     atom    6 type  1   force =    -0.00000174   -0.00000101    0.00742669
     atom    7 type  2   force =    -0.00000314   -0.00000181   -0.00743524
     atom    8 type  2   force =     0.00000315    0.00000182   -0.00743349
     atom    9 type  1   force =    -0.00000201   -0.00000116    0.00742628
     atom   10 type  1   force =    -0.00000451   -0.00000260    0.00743899
     atom   11 type  2   force =    -0.00000306   -0.00000177   -0.00743265
     atom   12 type  2   force =     0.00000305    0.00000176   -0.00743396
     atom   13 type  1   force =    -0.00000025   -0.00000014    0.00744209
     atom   14 type  1   force =    -0.00000671   -0.00000388    0.00742967
     atom   15 type  2   force =    -0.00000282   -0.00000163   -0.00743537
     atom   16 type  2   force =     0.00000301    0.00000174   -0.00743335
     The non-local contrib.  to forces
     atom    1 type  1   force =    -0.00001464   -0.00000845    0.10314726
     atom    2 type  1   force =     0.00001763    0.00001018    0.10315671
     atom    3 type  2   force =    -0.00018575   -0.00010725    0.10325714
     atom    4 type  2   force =     0.00018545    0.00010707    0.10325577
     atom    5 type  1   force =    -0.00001535   -0.00000886    0.10315741
     atom    6 type  1   force =     0.00001840    0.00001063    0.10314337
     atom    7 type  2   force =    -0.00018599   -0.00010738    0.10325047
     atom    8 type  2   force =     0.00018514    0.00010689    0.10325177
     atom    9 type  1   force =    -0.00001982   -0.00001144    0.10314585
     atom   10 type  1   force =     0.00001709    0.00000987    0.10315805
     atom   11 type  2   force =    -0.00018438   -0.00010645    0.10325748
     atom   12 type  2   force =     0.00018497    0.00010679    0.10325644
     atom   13 type  1   force =    -0.00001922   -0.00001109    0.10315716
     atom   14 type  1   force =     0.00001608    0.00000928    0.10314392
     atom   15 type  2   force =    -0.00018404   -0.00010626    0.10324999
     atom   16 type  2   force =     0.00018489    0.00010674    0.10325147
     The ionic contribution  to forces
     atom    1 type  1   force =     0.00000000    0.00000001    0.85008146
     atom    2 type  1   force =     0.00000001    0.00000000    0.85008146
     atom    3 type  2   force =     0.00000000    0.00000001   -0.85008146
     atom    4 type  2   force =     0.00000001   -0.00000000   -0.85008146
     atom    5 type  1   force =     0.00000000    0.00000001    0.85008146
     atom    6 type  1   force =     0.00000001    0.00000000    0.85008146
     atom    7 type  2   force =     0.00000000    0.00000001   -0.85008146
     atom    8 type  2   force =     0.00000001   -0.00000000   -0.85008146
     atom    9 type  1   force =    -0.00000000   -0.00000000    0.85008146
     atom   10 type  1   force =    -0.00000001   -0.00000001    0.85008146
     atom   11 type  2   force =    -0.00000000   -0.00000000   -0.85008146
     atom   12 type  2   force =    -0.00000001   -0.00000000   -0.85008146
     atom   13 type  1   force =    -0.00000000   -0.00000000    0.85008146
     atom   14 type  1   force =    -0.00000001   -0.00000001    0.85008146
     atom   15 type  2   force =    -0.00000000   -0.00000000   -0.85008146
     atom   16 type  2   force =    -0.00000001   -0.00000000   -0.85008146
     The local contribution  to forces
     atom    1 type  1   force =     0.00001750    0.00001011   -0.93865905
     atom    2 type  1   force =    -0.00002750   -0.00001598   -0.93866943
     atom    3 type  2   force =     0.00017834    0.00010296    0.74025711
     atom    4 type  2   force =    -0.00018066   -0.00010433    0.74025865
     atom    5 type  1   force =     0.00002007    0.00001159   -0.93868673
     atom    6 type  1   force =    -0.00003068   -0.00001781   -0.93865668
     atom    7 type  2   force =     0.00017917    0.00010345    0.74025596
     atom    8 type  2   force =    -0.00017990   -0.00010389    0.74025343
     atom    9 type  1   force =     0.00003682    0.00002126   -0.93865346
     atom   10 type  1   force =    -0.00002694   -0.00001555   -0.93867632
     atom   11 type  2   force =     0.00018057    0.00010425    0.74025758
     atom   12 type  2   force =    -0.00017913   -0.00010342    0.74025725
     atom   13 type  1   force =     0.00003438    0.00001985   -0.93868526
     atom   14 type  1   force =    -0.00002357   -0.00001361   -0.93866141
     atom   15 type  2   force =     0.00017977    0.00010379    0.74025665
     atom   16 type  2   force =    -0.00017912   -0.00010341    0.74025350
     The core correction contribution to forces
     atom    1 type  1   force =    -0.00000596   -0.00000344   -0.00713026
     atom    2 type  1   force =     0.00000613    0.00000353   -0.00713329
     atom    3 type  2   force =     0.00000211    0.00000122   -0.00085941
     atom    4 type  2   force =    -0.00000211   -0.00000122   -0.00085993
     atom    5 type  1   force =    -0.00000600   -0.00000347   -0.00713311
     atom    6 type  1   force =     0.00000620    0.00000357   -0.00713064
     atom    7 type  2   force =     0.00000212    0.00000122   -0.00086154
     atom    8 type  2   force =    -0.00000210   -0.00000121   -0.00086101
     atom    9 type  1   force =    -0.00000636   -0.00000367   -0.00713040
     atom   10 type  1   force =     0.00000617    0.00000356   -0.00713307
     atom   11 type  2   force =     0.00000210    0.00000121   -0.00085941
     atom   12 type  2   force =    -0.00000210   -0.00000121   -0.00085994
     atom   13 type  1   force =    -0.00000630   -0.00000364   -0.00713314
     atom   14 type  1   force =     0.00000611    0.00000353   -0.00713044
     atom   15 type  2   force =     0.00000209    0.00000121   -0.00086153
     atom   16 type  2   force =    -0.00000210   -0.00000121   -0.00086100
     The Hubbard contrib.    to forces
     atom    1 type  1   force =     0.00000000    0.00000000    0.00000000
     atom    2 type  1   force =     0.00000000    0.00000000    0.00000000
     atom    3 type  2   force =     0.00000000    0.00000000    0.00000000
     atom    4 type  2   force =     0.00000000    0.00000000    0.00000000
     atom    5 type  1   force =     0.00000000    0.00000000    0.00000000
     atom    6 type  1   force =     0.00000000    0.00000000    0.00000000
     atom    7 type  2   force =     0.00000000    0.00000000    0.00000000
     atom    8 type  2   force =     0.00000000    0.00000000    0.00000000
     atom    9 type  1   force =     0.00000000    0.00000000    0.00000000
     atom   10 type  1   force =     0.00000000    0.00000000    0.00000000
     atom   11 type  2   force =     0.00000000    0.00000000    0.00000000
     atom   12 type  2   force =     0.00000000    0.00000000    0.00000000
     atom   13 type  1   force =     0.00000000    0.00000000    0.00000000
     atom   14 type  1   force =     0.00000000    0.00000000    0.00000000
     atom   15 type  2   force =     0.00000000    0.00000000    0.00000000
     atom   16 type  2   force =     0.00000000    0.00000000    0.00000000
     The SCF correction term to forces
     atom    1 type  1   force =     0.00001339    0.00000773   -0.00000868
     atom    2 type  1   force =    -0.00000019   -0.00000011    0.00000002
     atom    3 type  2   force =     0.00000213    0.00000123   -0.00000479
     atom    4 type  2   force =     0.00000045    0.00000026   -0.00000634
     atom    5 type  1   force =     0.00000988    0.00000571    0.00002510
     atom    6 type  1   force =     0.00000434    0.00000250   -0.00000977
     atom    7 type  2   force =     0.00000154    0.00000089    0.00000237
     atom    8 type  2   force =    -0.00000001   -0.00000000    0.00000483
     atom    9 type  1   force =    -0.00001268   -0.00000732   -0.00001612
     atom   10 type  1   force =    -0.00000085   -0.00000049    0.00000992
     atom   11 type  2   force =    -0.00000137   -0.00000079   -0.00000579
     atom   12 type  2   force =    -0.00000071   -0.00000041   -0.00000520
     atom   13 type  1   force =    -0.00000913   -0.00000527    0.00002292
     atom   14 type  1   force =    -0.00000535   -0.00000309   -0.00000280
     atom   15 type  2   force =    -0.00000066   -0.00000038    0.00000203
     atom   16 type  2   force =    -0.00000068   -0.00000039    0.00000519

     Total force =     0.029735     Total SCF correction =     0.000051

     General routines

     Parallel routines

   This run was terminated on:   5:12:48  29Aug2025

   JOB DONE.
Note: The following floating-point exceptions are signalling: IEEE_UNDERFLOW_FLAG IEEE_DENORMAL
Note: The following floating-point exceptions are signalling: IEEE_UNDERFLOW_FLAG IEEE_DENORMAL
Note: The following floating-point exceptions are signalling: IEEE_UNDERFLOW_FLAG IEEE_DENORMAL
Note: The following floating-point exceptions are signalling: IEEE_UNDERFLOW_FLAG IEEE_DENORMAL
Note: The following floating-point exceptions are signalling: IEEE_UNDERFLOW_FLAG IEEE_DENORMAL
Note: The following floating-point exceptions are signalling: IEEE_UNDERFLOW_FLAG IEEE_DENORMAL
Note: The following floating-point exceptions are signalling: IEEE_UNDERFLOW_FLAG IEEE_DENORMAL
Note: The following floating-point exceptions are signalling: IEEE_UNDERFLOW_FLAG IEEE_DENORMAL
Note: The following floating-point exceptions are signalling: IEEE_UNDERFLOW_FLAG IEEE_DENORMAL
Note: The following floating-point exceptions are signalling: IEEE_UNDERFLOW_FLAG IEEE_DENORMAL
Note: The following floating-point exceptions are signalling: IEEE_UNDERFLOW_FLAG IEEE_DENORMAL
Note: The following floating-point exceptions are signalling: IEEE_UNDERFLOW_FLAG IEEE_DENORMAL
Note: The following floating-point exceptions are signalling: IEEE_UNDERFLOW_FLAG IEEE_DENORMAL
Note: The following floating-point exceptions are signalling: IEEE_UNDERFLOW_FLAG IEEE_DENORMAL
Note: The following floating-point exceptions are signalling: IEEE_UNDERFLOW_FLAG IEEE_DENORMAL
Note: The following floating-point exceptions are signalling: IEEE_UNDERFLOW_FLAG IEEE_DENORMAL
Note: The following floating-point exceptions are signalling: IEEE_UNDERFLOW_FLAG IEEE_DENORMAL
Note: The following floating-point exceptions are signalling: IEEE_UNDERFLOW_FLAG IEEE_DENORMAL
Note: The following floating-point exceptions are signalling: IEEE_UNDERFLOW_FLAG IEEE_DENORMAL
Note: The following floating-point exceptions are signalling: IEEE_UNDERFLOW_FLAG IEEE_DENORMAL
Note: The following floating-point exceptions are signalling: IEEE_UNDERFLOW_FLAG IEEE_DENORMAL
Note: The following floating-point exceptions are signalling: IEEE_UNDERFLOW_FLAG IEEE_DENORMAL
Note: The following floating-point exceptions are signalling: IEEE_UNDERFLOW_FLAG IEEE_DENORMAL
Note: The following floating-point exceptions are signalling: IEEE_UNDERFLOW_FLAG IEEE_DENORMAL
Note: The following floating-point exceptions are signalling: IEEE_UNDERFLOW_FLAG IEEE_DENORMAL
Note: The following floating-point exceptions are signalling: IEEE_UNDERFLOW_FLAG IEEE_DENORMAL
Note: The following floating-point exceptions are signalling: IEEE_UNDERFLOW_FLAG IEEE_DENORMAL
Note: The following floating-point exceptions are signalling: IEEE_UNDERFLOW_FLAG IEEE_DENORMAL
Note: The following floating-point exceptions are signalling: IEEE_UNDERFLOW_FLAG IEEE_DENORMAL
Note: The following floating-point exceptions are signalling: IEEE_UNDERFLOW_FLAG IEEE_DENORMAL
Note: The following floating-point exceptions are signalling: IEEE_UNDERFLOW_FLAG IEEE_DENORMAL
Note: The following floating-point exceptions are signalling: IEEE_UNDERFLOW_FLAG IEEE_DENORMAL