     Program PWSCF v.7.0 starts on 29Aug2025 at 10:45:19

     K-points division:     npool     =       8
     R & G space division:  proc/nbgrp/npool/nimage =       4

     Reading input from /home/jvc/QEspresso7.2/ZnO_database/scripts/cell212.in/ZnO-3.40-1.74-212.in
Warning: card &CELL ignored
Warning: card / ignored
Warning: card &FCP ignored
Warning: card / ignored
Warning: card &RISM ignored
Warning: card / ignored

     Current dimensions of program PWSCF are:
     Max number of different atomic species (ntypx) = 10
     Max number of k-points (npk) =  40000
     Max angular momentum in pseudopotentials (lmaxx) =  4
     file Zn.upf: wavefunction(s)  3D renormalized
     Found identity + (  0.0000  0.0000  0.5000) symmetry
     This is a supercell, fractional translations are disabled
     Message from routine setup:
     using ibrav=0 with symmetry is DISCOURAGED, use correct ibrav instead

     Using Slab Decomposition

     bravais-lattice index     =            0
     lattice parameter (alat)  =      12.8520  a.u.
     unit-cell volume          =    1602.6480 (a.u.)^3
     number of atoms/cell      =           16
     number of atomic types    =            2
     number of electrons       =       144.00
     number of Kohn-Sham states=           72
     kinetic-energy cutoff     =      50.0000  Ry
     charge density cutoff     =     400.0000  Ry
     scf convergence threshold =      1.0E-08
     mixing beta               =       0.3000
     number of iterations used =            8  plain     mixing
     Exchange-correlation= PBE
                           (   1   4   3   4   0   0   0)

     celldm(1)=  12.852016  celldm(2)=   0.000000  celldm(3)=   0.000000
     celldm(4)=   0.000000  celldm(5)=   0.000000  celldm(6)=   0.000000

     crystal axes: (cart. coord. in units of alat)
               a(1) = (   1.000000   0.000000   0.000000 )
               a(2) = (  -0.250000   0.433013   0.000000 )
               a(3) = (   0.000000   0.000000   1.743507 )

     reciprocal axes: (cart. coord. in units 2 pi/alat)
               b(1) = (  1.000000  0.577350 -0.000000 )
               b(2) = (  0.000000  2.309401  0.000000 )
               b(3) = (  0.000000 -0.000000  0.573557 )

     PseudoPot. # 1 for Zn read from file:
     /home/jvc/QEspresso7.2/ZnO_database/pseudos/Zn.upf
     MD5 check sum: 7f56cabf9682ed8c977c2f7d0c5985c5
     Pseudo is Ultrasoft + core correction, Zval = 12.0
     Generated using &quot;atomic&quot; code by A. Dal Corso  v.6.2.2
     Using radial grid of 1201 points,  6 beta functions with:
                l(1) =   0
                l(2) =   0
                l(3) =   1
                l(4) =   1
                l(5) =   2
                l(6) =   2
     Q(r) pseudized with 0 coefficients

     PseudoPot. # 2 for O  read from file:
     /home/jvc/QEspresso7.2/ZnO_database/pseudos/O.upf
     MD5 check sum: 91400c9766925bcf19f520983a725ff0
     Pseudo is Ultrasoft + core correction, Zval =  6.0
     Generated using &quot;atomic&quot; code by A. Dal Corso  v.6.3MaX
     Using radial grid of 1095 points,  4 beta functions with:
                l(1) =   0
                l(2) =   0
                l(3) =   1
                l(4) =   1
     Q(r) pseudized with 0 coefficients

     atomic species   valence    mass     pseudopotential
        Zn            12.00    65.38000     Zn( 1.00)
        O              6.00    15.99900     O ( 1.00)

      2 Sym. Ops. (no inversion) found

                                    s                        frac. trans.

      isym =  1     identity

 cryst.   s( 1) = (     1          0          0      )
                  (     0          1          0      )
                  (     0          0          1      )

 cart.    s( 1) = (  1.0000000  0.0000000  0.0000000 )
                  (  0.0000000  1.0000000  0.0000000 )
                  (  0.0000000  0.0000000  1.0000000 )

      isym =  2     inv. 180 deg rotation - cryst. axis [0,1,0]

 cryst.   s( 2) = (     1          2          0      )
                  (     0         -1          0      )
                  (     0          0          1      )

 cart.    s( 2) = (  0.5000000  0.8660254  0.0000000 )
                  (  0.8660254 -0.5000000  0.0000000 )
                  (  0.0000000  0.0000000  1.0000000 )

   Cartesian axes

     site n.     atom                  positions (alat units)
         1           Zn  tau(   1) = (   0.2500000   0.1443376   0.4364291  )
         2           Zn  tau(   2) = (  -0.0000000   0.2886751   0.0005523  )
         3           O   tau(   3) = (   0.2500000   0.1443376   0.7668610  )
         4           O   tau(   4) = (  -0.0000000   0.2886751   0.3309842  )
         5           Zn  tau(   5) = (   0.2500000   0.1443376   1.3081826  )
         6           Zn  tau(   6) = (  -0.0000000   0.2886751   0.8723058  )
         7           O   tau(   7) = (   0.2500000   0.1443376   1.6386145  )
         8           O   tau(   8) = (  -0.0000000   0.2886751   1.2027378  )
         9           Zn  tau(   9) = (   0.7500000   0.1443376   0.4364291  )
        10           Zn  tau(  10) = (   0.5000000   0.2886751   0.0005523  )
        11           O   tau(  11) = (   0.7500000   0.1443376   0.7668610  )
        12           O   tau(  12) = (   0.5000000   0.2886751   0.3309842  )
        13           Zn  tau(  13) = (   0.7500000   0.1443376   1.3081826  )
        14           Zn  tau(  14) = (   0.5000000   0.2886751   0.8723058  )
        15           O   tau(  15) = (   0.7500000   0.1443376   1.6386145  )
        16           O   tau(  16) = (   0.5000000   0.2886751   1.2027378  )

   Crystallographic axes

     site n.     atom                  positions (cryst. coord.)
         1           Zn  tau(   1) = (  0.3333333  0.3333333  0.2503168  )
         2           Zn  tau(   2) = (  0.1666667  0.6666667  0.0003168  )
         3           O   tau(   3) = (  0.3333333  0.3333333  0.4398382  )
         4           O   tau(   4) = (  0.1666667  0.6666667  0.1898382  )
         5           Zn  tau(   5) = (  0.3333333  0.3333333  0.7503168  )
         6           Zn  tau(   6) = (  0.1666667  0.6666667  0.5003168  )
         7           O   tau(   7) = (  0.3333333  0.3333333  0.9398382  )
         8           O   tau(   8) = (  0.1666667  0.6666667  0.6898382  )
         9           Zn  tau(   9) = (  0.8333333  0.3333333  0.2503168  )
        10           Zn  tau(  10) = (  0.6666667  0.6666667  0.0003168  )
        11           O   tau(  11) = (  0.8333333  0.3333333  0.4398382  )
        12           O   tau(  12) = (  0.6666667  0.6666667  0.1898382  )
        13           Zn  tau(  13) = (  0.8333333  0.3333333  0.7503168  )
        14           Zn  tau(  14) = (  0.6666667  0.6666667  0.5003168  )
        15           O   tau(  15) = (  0.8333333  0.3333333  0.9398382  )
        16           O   tau(  16) = (  0.6666667  0.6666667  0.6898382  )

     number of k points=    80
                       cart. coord. in units 2pi/alat
        k(    1) = (   0.0000000   0.0000000   0.0000000), wk =   0.0092593
        k(    2) = (   0.0000000   0.0000000   0.0955928), wk =   0.0185185
        k(    3) = (   0.0000000   0.0000000   0.1911855), wk =   0.0185185
        k(    4) = (   0.0000000   0.0000000  -0.2867783), wk =   0.0092593
        k(    5) = (   0.0000000   0.3849002   0.0000000), wk =   0.0370370
        k(    6) = (   0.0000000   0.3849002   0.0955928), wk =   0.0370370
        k(    7) = (   0.0000000   0.3849002   0.1911855), wk =   0.0370370
        k(    8) = (   0.0000000   0.3849002  -0.2867783), wk =   0.0370370
        k(    9) = (   0.0000000   0.7698004   0.0000000), wk =   0.0370370
        k(   10) = (   0.0000000   0.7698004   0.0955928), wk =   0.0370370
        k(   11) = (   0.0000000   0.7698004   0.1911855), wk =   0.0370370
        k(   12) = (   0.0000000   0.7698004  -0.2867783), wk =   0.0370370
        k(   13) = (   0.0000000  -1.1547005   0.0000000), wk =   0.0092593
        k(   14) = (   0.0000000  -1.1547005   0.0955928), wk =   0.0185185
        k(   15) = (   0.0000000  -1.1547005   0.1911855), wk =   0.0185185
        k(   16) = (   0.0000000  -1.1547005  -0.2867783), wk =   0.0092593
        k(   17) = (   0.1666667   0.0962250   0.0000000), wk =   0.0185185
        k(   18) = (   0.1666667   0.0962250   0.0955928), wk =   0.0185185
        k(   19) = (   0.1666667   0.0962250   0.1911855), wk =   0.0185185
        k(   20) = (   0.1666667   0.0962250  -0.2867783), wk =   0.0185185
        k(   21) = (   0.1666667   0.4811252   0.0000000), wk =   0.0370370
        k(   22) = (   0.1666667   0.4811252   0.0955928), wk =   0.0370370
        k(   23) = (   0.1666667   0.4811252   0.1911855), wk =   0.0370370
        k(   24) = (   0.1666667   0.4811252  -0.2867783), wk =   0.0370370
        k(   25) = (   0.1666667   0.8660254   0.0000000), wk =   0.0185185
        k(   26) = (   0.1666667   0.8660254   0.0955928), wk =   0.0370370
        k(   27) = (   0.1666667   0.8660254   0.1911855), wk =   0.0370370
        k(   28) = (   0.1666667   0.8660254  -0.2867783), wk =   0.0185185
        k(   29) = (   0.1666667  -1.0584755   0.0000000), wk =   0.0185185
        k(   30) = (   0.1666667  -1.0584755   0.0955928), wk =   0.0185185
        k(   31) = (   0.1666667  -1.0584755   0.1911855), wk =   0.0185185
        k(   32) = (   0.1666667  -1.0584755  -0.2867783), wk =   0.0185185
        k(   33) = (   0.1666667  -0.6735753   0.0000000), wk =   0.0370370
        k(   34) = (   0.1666667  -0.6735753   0.0955928), wk =   0.0370370
        k(   35) = (   0.1666667  -0.6735753   0.1911855), wk =   0.0370370
        k(   36) = (   0.1666667  -0.6735753  -0.2867783), wk =   0.0370370
        k(   37) = (   0.1666667  -0.2886751   0.0000000), wk =   0.0185185
        k(   38) = (   0.1666667  -0.2886751   0.0955928), wk =   0.0370370
        k(   39) = (   0.1666667  -0.2886751   0.1911855), wk =   0.0370370
        k(   40) = (   0.1666667  -0.2886751  -0.2867783), wk =   0.0185185
        k(   41) = (   0.3333333   0.1924501   0.0000000), wk =   0.0185185
        k(   42) = (   0.3333333   0.1924501   0.0955928), wk =   0.0185185
        k(   43) = (   0.3333333   0.1924501   0.1911855), wk =   0.0185185
        k(   44) = (   0.3333333   0.1924501  -0.2867783), wk =   0.0185185
        k(   45) = (   0.3333333   0.5773503   0.0000000), wk =   0.0185185
        k(   46) = (   0.3333333   0.5773503   0.0955928), wk =   0.0370370
        k(   47) = (   0.3333333   0.5773503   0.1911855), wk =   0.0370370
        k(   48) = (   0.3333333   0.5773503  -0.2867783), wk =   0.0185185
        k(   49) = (   0.3333333  -0.9622504   0.0000000), wk =   0.0185185
        k(   50) = (   0.3333333  -0.9622504   0.0955928), wk =   0.0185185
        k(   51) = (   0.3333333  -0.9622504   0.1911855), wk =   0.0185185
        k(   52) = (   0.3333333  -0.9622504  -0.2867783), wk =   0.0185185
        k(   53) = (   0.3333333  -0.5773503   0.0000000), wk =   0.0185185
        k(   54) = (   0.3333333  -0.5773503   0.0955928), wk =   0.0370370
        k(   55) = (   0.3333333  -0.5773503   0.1911855), wk =   0.0370370
[...]

     Initial potential from superposition of free atoms

     starting charge     143.9702, renormalised to     144.0000
     Starting wfcs are  104 randomized atomic wfcs

     Self-consistent Calculation

     iteration #  1     ecut=    50.00 Ry     beta= 0.30
     Davidson diagonalization with overlap

     ethr =  1.00E-02,  avg # of iterations =  1.5

     total energy              =   -1445.59980435 Ry
     estimated scf accuracy    <       3.17063816 Ry

[...]

     c_bands:  1 eigenvalues not converged
     c_bands:  1 eigenvalues not converged
     c_bands:  1 eigenvalues not converged
     c_bands:  2 eigenvalues not converged
     c_bands:  2 eigenvalues not converged
     c_bands:  1 eigenvalues not converged
     ethr =  2.91E-08,  avg # of iterations = 15.8

[...]

     c_bands:  1 eigenvalues not converged
     ethr =  2.70E-10,  avg # of iterations = 11.2

[...]

     total energy              =   -1446.35814182 Ry
     estimated scf accuracy    <       0.00000006 Ry

     iteration # 35     ecut=    50.00 Ry     beta= 0.30
     Davidson diagonalization with overlap

     ethr =  3.62E-11,  avg # of iterations =  4.7

     End of self-consistent calculation

          k = 0.0000 0.0000 0.0000 (  9597 PWs)   bands (ev):

   -12.2669 -12.0917 -12.0917 -11.9096 -11.8228 -11.7672 -11.7672 -11.7150
    -0.6555  -0.6555  -0.6523  -0.6357  -0.6354  -0.5938  -0.5938  -0.5936
    -0.5936  -0.5877  -0.5808  -0.5808  -0.5377  -0.5375  -0.4548  -0.4423
    -0.3140  -0.3140  -0.1751  -0.1747  -0.1678  -0.1065  -0.1065  -0.0015
     0.0459   0.0459   0.0972   0.0972   0.0972   0.0972   0.1380   0.1380
     0.1523   0.1523   0.1611   0.1611   0.1789   0.2085   0.2085   0.2348
     0.6634   0.8809   0.9856   0.9856   1.3400   2.1452   2.1452   2.2547
     2.9547   3.2214   3.2214   3.3536   3.3536   3.3939   3.7396   3.9801
     3.9807   4.1819   4.1963   4.1963   4.1970   4.1970   4.4107   4.4114

     occupation numbers
     1.0000   1.0000   1.0000   1.0000   1.0000   1.0000   1.0000   1.0000
     1.0000   1.0000   1.0000   1.0000   1.0000   1.0000   1.0000   1.0000
     1.0000   1.0000   1.0000   1.0000   1.0000   1.0000   1.0000   1.0000
     1.0000   1.0000   1.0000   1.0000   1.0000   1.0000   1.0000   1.0000
     1.0000   1.0000   1.0000   1.0000   1.0000   1.0000   1.0000   1.0000
     1.0000   1.0000   1.0000   1.0000   1.0000   1.0000   1.0000   1.0000
     1.0000   1.0000   1.0000   1.0000   1.0000   1.0000   1.0000   1.0000
     1.0000   1.0000   1.0000   1.0000   1.0000   1.0000   1.0000   1.0000
     1.0000   1.0000   1.0000   1.0000   1.0000   1.0000   1.0000   1.0000

[...]

          k =-0.5000-0.2887 0.0000 (  9534 PWs)   bands (ev):

[...]

          k = 0.3333 0.1925-0.1912 (  9573 PWs)   bands (ev):

[...]

          k =-0.6667 0.7698-0.1912 (  9582 PWs)   bands (ev):

   -11.8188 -11.8188 -11.7972 -11.7972 -11.7404 -11.7404 -11.7205 -11.7205
    -0.6042  -0.6042  -0.5941  -0.5941  -0.5021  -0.5021  -0.4411  -0.4411
    -0.3839  -0.3839  -0.3796  -0.3796  -0.2514  -0.2514  -0.2038  -0.2038
    -0.1928  -0.1928  -0.1648  -0.1648  -0.1623  -0.1623  -0.1208  -0.1208
     0.0362   0.0362   0.0822   0.0822   0.1148   0.1148   0.1296   0.1296
     0.2027   0.2027   0.2103   0.2103   0.2781   0.2781   0.3172   0.3172
     1.0944   1.0944   1.1275   1.1275   1.3503   1.3503   1.4569   1.4569
     2.3639   2.3640   2.6048   2.6049   2.6611   2.6611   2.9363   2.9363
     3.1714   3.1714   3.3161   3.3161   3.4999   3.4999   3.5097   3.5097

     occupation numbers
     1.0000   1.0000   1.0000   1.0000   1.0000   1.0000   1.0000   1.0000
     1.0000   1.0000   1.0000   1.0000   1.0000   1.0000   1.0000   1.0000
     1.0000   1.0000   1.0000   1.0000   1.0000   1.0000   1.0000   1.0000
     1.0000   1.0000   1.0000   1.0000   1.0000   1.0000   1.0000   1.0000
     1.0000   1.0000   1.0000   1.0000   1.0000   1.0000   1.0000   1.0000
     1.0000   1.0000   1.0000   1.0000   1.0000   1.0000   1.0000   1.0000
     1.0000   1.0000   1.0000   1.0000   1.0000   1.0000   1.0000   1.0000
     1.0000   1.0000   1.0000   1.0000   1.0000   1.0000   1.0000   1.0000
     1.0000   1.0000   1.0000   1.0000   1.0000   1.0000   1.0000   1.0000

     highest occupied level (ev):     4.4114

!    total energy              =   -1446.35814183 Ry
     estimated scf accuracy    <          3.6E-09 Ry

     The total energy is the sum of the following terms:
     one-electron contribution =    -706.66120830 Ry
     hartree contribution      =     505.41708335 Ry
     xc contribution           =    -436.77239477 Ry
     ewald contribution        =    -808.34162211 Ry

     convergence has been achieved in  35 iterations

     Forces acting on atoms (cartesian axes, Ry/au):

     atom    1 type  1   force =    -0.00000982   -0.00000567   -0.00387336
     atom    2 type  1   force =    -0.00000041   -0.00000024   -0.00385489
     atom    3 type  2   force =    -0.00000586   -0.00000338    0.00385473
     atom    4 type  2   force =     0.00000752    0.00000434    0.00386405
     atom    5 type  1   force =    -0.00000196   -0.00000113   -0.00385167
     atom    6 type  1   force =     0.00000542    0.00000313   -0.00385261
     atom    7 type  2   force =    -0.00000654   -0.00000377    0.00385635
     atom    8 type  2   force =     0.00000643    0.00000371    0.00385345
     atom    9 type  1   force =     0.00000174    0.00000100   -0.00387382
     atom   10 type  1   force =     0.00000960    0.00000554   -0.00386273
     atom   11 type  2   force =    -0.00000745   -0.00000430    0.00385329
     atom   12 type  2   force =     0.00000479    0.00000276    0.00386548
     atom   13 type  1   force =    -0.00000701   -0.00000405   -0.00384604
     atom   14 type  1   force =     0.00000384    0.00000222   -0.00384687
     atom   15 type  2   force =    -0.00000713   -0.00000412    0.00385987
     atom   16 type  2   force =     0.00000683    0.00000394    0.00385475
     The non-local contrib.  to forces
     atom    1 type  1   force =    -0.00000586   -0.00000338    0.18667219
     atom    2 type  1   force =    -0.00000381   -0.00000220    0.18669553
     atom    3 type  2   force =    -0.00019832   -0.00011450    0.20608112
     atom    4 type  2   force =     0.00019928    0.00011505    0.20609924
     atom    5 type  1   force =     0.00000113    0.00000065    0.18670021
     atom    6 type  1   force =     0.00000089    0.00000051    0.18669650
     atom    7 type  2   force =    -0.00019884   -0.00011480    0.20607734
     atom    8 type  2   force =     0.00019982    0.00011537    0.20607095
     atom    9 type  1   force =     0.00000545    0.00000315    0.18667086
     atom   10 type  1   force =     0.00000456    0.00000264    0.18668817
     atom   11 type  2   force =    -0.00019921   -0.00011502    0.20607677
     atom   12 type  2   force =     0.00019697    0.00011372    0.20610172
     atom   13 type  1   force =    -0.00000213   -0.00000123    0.18670473
     atom   14 type  1   force =    -0.00000017   -0.00000010    0.18670173
     atom   15 type  2   force =    -0.00019943   -0.00011514    0.20608900
     atom   16 type  2   force =     0.00019708    0.00011379    0.20607326
     The ionic contribution  to forces
     atom    1 type  1   force =    -0.00000000    0.00000000    1.45440787
     atom    2 type  1   force =     0.00000000   -0.00000000    1.45440787
     atom    3 type  2   force =    -0.00000000    0.00000000   -1.45440787
     atom    4 type  2   force =     0.00000000   -0.00000000   -1.45440787
     atom    5 type  1   force =    -0.00000000    0.00000000    1.45440787
     atom    6 type  1   force =     0.00000000   -0.00000000    1.45440787
     atom    7 type  2   force =    -0.00000000    0.00000000   -1.45440787
     atom    8 type  2   force =     0.00000000   -0.00000000   -1.45440787
     atom    9 type  1   force =    -0.00000000    0.00000000    1.45440787
     atom   10 type  1   force =     0.00000000   -0.00000000    1.45440787
     atom   11 type  2   force =    -0.00000000    0.00000000   -1.45440787
     atom   12 type  2   force =     0.00000000   -0.00000000   -1.45440787
     atom   13 type  1   force =    -0.00000000    0.00000000    1.45440787
     atom   14 type  1   force =     0.00000000   -0.00000000    1.45440787
     atom   15 type  2   force =    -0.00000000    0.00000000   -1.45440787
     atom   16 type  2   force =     0.00000000   -0.00000000   -1.45440787
     The local contribution  to forces
     atom    1 type  1   force =     0.00001952    0.00001127   -1.63357572
     atom    2 type  1   force =     0.00000918    0.00000519   -1.63362435
     atom    3 type  2   force =     0.00019174    0.00011070    1.25402657
     atom    4 type  2   force =    -0.00018833   -0.00010876    1.25403792
     atom    5 type  1   force =    -0.00000246   -0.00000142   -1.63363124
     atom    6 type  1   force =    -0.00000619   -0.00000368   -1.63362834
     atom    7 type  2   force =     0.00019061    0.00011005    1.25403595
     atom    8 type  2   force =    -0.00019214   -0.00011096    1.25402779
     atom    9 type  1   force =    -0.00001247   -0.00000720   -1.63357394
     atom   10 type  1   force =    -0.00001699   -0.00000991   -1.63360411
     atom   11 type  2   force =     0.00018889    0.00010906    1.25402764
     atom   12 type  2   force =    -0.00019195   -0.00011085    1.25403853
     atom   13 type  1   force =     0.00001050    0.00000606   -1.63364228
     atom   14 type  1   force =    -0.00000158   -0.00000102   -1.63364133
     atom   15 type  2   force =     0.00018953    0.00010942    1.25402977
     atom   16 type  2   force =    -0.00018796   -0.00010854    1.25402625
     The core correction contribution to forces
     atom    1 type  1   force =    -0.00000800   -0.00000459   -0.01134844
     atom    2 type  1   force =     0.00000730    0.00000417   -0.01134807
     atom    3 type  2   force =     0.00000225    0.00000130   -0.00185336
     atom    4 type  2   force =    -0.00000224   -0.00000129   -0.00185359
     atom    5 type  1   force =    -0.00000740   -0.00000425   -0.01134822
     atom    6 type  1   force =     0.00000778    0.00000444   -0.01134799
     atom    7 type  2   force =     0.00000225    0.00000130   -0.00185330
     atom    8 type  2   force =    -0.00000225   -0.00000130   -0.00185323
     atom    9 type  1   force =    -0.00000732   -0.00000420   -0.01134838
     atom   10 type  1   force =     0.00000802    0.00000459   -0.01134853
     atom   11 type  2   force =     0.00000224    0.00000129   -0.00185331
     atom   12 type  2   force =    -0.00000223   -0.00000129   -0.00185363
     atom   13 type  1   force =    -0.00000791   -0.00000453   -0.01134804
     atom   14 type  1   force =     0.00000754    0.00000431   -0.01134772
     atom   15 type  2   force =     0.00000224    0.00000130   -0.00185345
     atom   16 type  2   force =    -0.00000223   -0.00000129   -0.00185326
     The Hubbard contrib.    to forces
     atom    1 type  1   force =     0.00000000    0.00000000    0.00000000
     atom    2 type  1   force =     0.00000000    0.00000000    0.00000000
     atom    3 type  2   force =     0.00000000    0.00000000    0.00000000
     atom    4 type  2   force =     0.00000000    0.00000000    0.00000000
     atom    5 type  1   force =     0.00000000    0.00000000    0.00000000
     atom    6 type  1   force =     0.00000000    0.00000000    0.00000000
     atom    7 type  2   force =     0.00000000    0.00000000    0.00000000
     atom    8 type  2   force =     0.00000000    0.00000000    0.00000000
     atom    9 type  1   force =     0.00000000    0.00000000    0.00000000
     atom   10 type  1   force =     0.00000000    0.00000000    0.00000000
     atom   11 type  2   force =     0.00000000    0.00000000    0.00000000
     atom   12 type  2   force =     0.00000000    0.00000000    0.00000000
     atom   13 type  1   force =     0.00000000    0.00000000    0.00000000
     atom   14 type  1   force =     0.00000000    0.00000000    0.00000000
     atom   15 type  2   force =     0.00000000    0.00000000    0.00000000
     atom   16 type  2   force =     0.00000000    0.00000000    0.00000000
     The SCF correction term to forces
     atom    1 type  1   force =    -0.00001556   -0.00000899   -0.00003149
     atom    2 type  1   force =    -0.00001308   -0.00000755    0.00001190
     atom    3 type  2   force =    -0.00000160   -0.00000092    0.00000605
     atom    4 type  2   force =    -0.00000124   -0.00000072   -0.00001388
     atom    5 type  1   force =     0.00000669    0.00000386    0.00001748
     atom    6 type  1   force =     0.00000294    0.00000170    0.00001713
     atom    7 type  2   force =    -0.00000063   -0.00000037    0.00000201
     atom    8 type  2   force =     0.00000094    0.00000054    0.00001358
     atom    9 type  1   force =     0.00001599    0.00000923   -0.00003244
     atom   10 type  1   force =     0.00001400    0.00000808   -0.00000835
     atom   11 type  2   force =     0.00000056    0.00000032    0.00000783
     atom   12 type  2   force =     0.00000194    0.00000112   -0.00001549
     atom   13 type  1   force =    -0.00000756   -0.00000436    0.00002946
     atom   14 type  1   force =    -0.00000196   -0.00000113    0.00003035
     atom   15 type  2   force =     0.00000046    0.00000027    0.00000020
     atom   16 type  2   force =    -0.00000013   -0.00000008    0.00001414

     Total force =     0.015431     Total SCF correction =     0.000083

     General routines

     Parallel routines

   This run was terminated on:  11: 2: 6  29Aug2025

   JOB DONE.
Note: The following floating-point exceptions are signalling: IEEE_UNDERFLOW_FLAG IEEE_DENORMAL
Note: The following floating-point exceptions are signalling: IEEE_UNDERFLOW_FLAG IEEE_DENORMAL
Note: The following floating-point exceptions are signalling: IEEE_UNDERFLOW_FLAG IEEE_DENORMAL
Note: The following floating-point exceptions are signalling: IEEE_UNDERFLOW_FLAG IEEE_DENORMAL
Note: The following floating-point exceptions are signalling: IEEE_UNDERFLOW_FLAG IEEE_DENORMAL
Note: The following floating-point exceptions are signalling: IEEE_UNDERFLOW_FLAG IEEE_DENORMAL
Note: The following floating-point exceptions are signalling: IEEE_UNDERFLOW_FLAG IEEE_DENORMAL
Note: The following floating-point exceptions are signalling: IEEE_UNDERFLOW_FLAG IEEE_DENORMAL
Note: The following floating-point exceptions are signalling: IEEE_UNDERFLOW_FLAG IEEE_DENORMAL
Note: The following floating-point exceptions are signalling: IEEE_UNDERFLOW_FLAG IEEE_DENORMAL
Note: The following floating-point exceptions are signalling: IEEE_UNDERFLOW_FLAG IEEE_DENORMAL
Note: The following floating-point exceptions are signalling: IEEE_UNDERFLOW_FLAG IEEE_DENORMAL
Note: The following floating-point exceptions are signalling: IEEE_UNDERFLOW_FLAG IEEE_DENORMAL
Note: The following floating-point exceptions are signalling: IEEE_UNDERFLOW_FLAG IEEE_DENORMAL
Note: The following floating-point exceptions are signalling: IEEE_UNDERFLOW_FLAG IEEE_DENORMAL
Note: The following floating-point exceptions are signalling: IEEE_UNDERFLOW_FLAG IEEE_DENORMAL
Note: The following floating-point exceptions are signalling: IEEE_UNDERFLOW_FLAG IEEE_DENORMAL
Note: The following floating-point exceptions are signalling: IEEE_UNDERFLOW_FLAG IEEE_DENORMAL
Note: The following floating-point exceptions are signalling: IEEE_UNDERFLOW_FLAG IEEE_DENORMAL
Note: The following floating-point exceptions are signalling: IEEE_UNDERFLOW_FLAG IEEE_DENORMAL
Note: The following floating-point exceptions are signalling: IEEE_UNDERFLOW_FLAG IEEE_DENORMAL
Note: The following floating-point exceptions are signalling: IEEE_UNDERFLOW_FLAG IEEE_DENORMAL
Note: The following floating-point exceptions are signalling: IEEE_UNDERFLOW_FLAG IEEE_DENORMAL
Note: The following floating-point exceptions are signalling: IEEE_UNDERFLOW_FLAG IEEE_DENORMAL
Note: The following floating-point exceptions are signalling: IEEE_UNDERFLOW_FLAG IEEE_DENORMAL
Note: The following floating-point exceptions are signalling: IEEE_UNDERFLOW_FLAG IEEE_DENORMAL
Note: The following floating-point exceptions are signalling: IEEE_UNDERFLOW_FLAG IEEE_DENORMAL
Note: The following floating-point exceptions are signalling: IEEE_UNDERFLOW_FLAG IEEE_DENORMAL
Note: The following floating-point exceptions are signalling: IEEE_UNDERFLOW_FLAG IEEE_DENORMAL
Note: The following floating-point exceptions are signalling: IEEE_UNDERFLOW_FLAG IEEE_DENORMAL
Note: The following floating-point exceptions are signalling: IEEE_UNDERFLOW_FLAG IEEE_DENORMAL
Note: The following floating-point exceptions are signalling: IEEE_UNDERFLOW_FLAG IEEE_DENORMAL