     Program PWSCF v.7.0 starts on 28Aug2025 at 22:57:12

     K-points division:     npool     =       8
     R & G space division:  proc/nbgrp/npool/nimage =       4

     Reading input from /home/jvc/QEspresso7.2/ZnO_database/scripts/cell212.in/ZnO-3.07-1.74-212.in
Warning: card &CELL ignored
Warning: card / ignored
Warning: card &FCP ignored
Warning: card / ignored
Warning: card &RISM ignored
Warning: card / ignored

     Current dimensions of program PWSCF are:
     Max number of different atomic species (ntypx) = 10
     Max number of k-points (npk) =  40000
     Max angular momentum in pseudopotentials (lmaxx) =  4
     file Zn.upf: wavefunction(s)  3D renormalized
     Found identity + (  0.0000  0.0000  0.5000) symmetry
     This is a supercell, fractional translations are disabled
     Message from routine setup:
     using ibrav=0 with symmetry is DISCOURAGED, use correct ibrav instead

     Using Slab Decomposition

     bravais-lattice index     =            0
     lattice parameter (alat)  =      11.6162  a.u.
     unit-cell volume          =    1183.3731 (a.u.)^3
     number of atoms/cell      =           16
     number of atomic types    =            2
     number of electrons       =       144.00
     number of Kohn-Sham states=           72
     kinetic-energy cutoff     =      50.0000  Ry
     charge density cutoff     =     400.0000  Ry
     scf convergence threshold =      1.0E-08
     mixing beta               =       0.3000
     number of iterations used =            8  plain     mixing
     Exchange-correlation= PBE
                           (   1   4   3   4   0   0   0)

     celldm(1)=  11.616245  celldm(2)=   0.000000  celldm(3)=   0.000000
     celldm(4)=   0.000000  celldm(5)=   0.000000  celldm(6)=   0.000000

     crystal axes: (cart. coord. in units of alat)
               a(1) = (   1.000000   0.000000   0.000000 )
               a(2) = (  -0.250000   0.433013   0.000000 )
               a(3) = (   0.000000   0.000000   1.743507 )

     reciprocal axes: (cart. coord. in units 2 pi/alat)
               b(1) = (  1.000000  0.577350 -0.000000 )
               b(2) = (  0.000000  2.309401  0.000000 )
               b(3) = (  0.000000 -0.000000  0.573557 )

     PseudoPot. # 1 for Zn read from file:
     /home/jvc/QEspresso7.2/ZnO_database/pseudos/Zn.upf
     MD5 check sum: 7f56cabf9682ed8c977c2f7d0c5985c5
     Pseudo is Ultrasoft + core correction, Zval = 12.0
     Generated using &quot;atomic&quot; code by A. Dal Corso  v.6.2.2
     Using radial grid of 1201 points,  6 beta functions with:
                l(1) =   0
                l(2) =   0
                l(3) =   1
                l(4) =   1
                l(5) =   2
                l(6) =   2
     Q(r) pseudized with 0 coefficients

     PseudoPot. # 2 for O  read from file:
     /home/jvc/QEspresso7.2/ZnO_database/pseudos/O.upf
     MD5 check sum: 91400c9766925bcf19f520983a725ff0
     Pseudo is Ultrasoft + core correction, Zval =  6.0
     Generated using &quot;atomic&quot; code by A. Dal Corso  v.6.3MaX
     Using radial grid of 1095 points,  4 beta functions with:
                l(1) =   0
                l(2) =   0
                l(3) =   1
                l(4) =   1
     Q(r) pseudized with 0 coefficients

     atomic species   valence    mass     pseudopotential
        Zn            12.00    65.38000     Zn( 1.00)
        O              6.00    15.99900     O ( 1.00)

      2 Sym. Ops. (no inversion) found

                                    s                        frac. trans.

      isym =  1     identity

 cryst.   s( 1) = (     1          0          0      )
                  (     0          1          0      )
                  (     0          0          1      )

 cart.    s( 1) = (  1.0000000  0.0000000  0.0000000 )
                  (  0.0000000  1.0000000  0.0000000 )
                  (  0.0000000  0.0000000  1.0000000 )

      isym =  2     inv. 180 deg rotation - cryst. axis [0,1,0]

 cryst.   s( 2) = (     1          2          0      )
                  (     0         -1          0      )
                  (     0          0          1      )

 cart.    s( 2) = (  0.5000000  0.8660254  0.0000000 )
                  (  0.8660254 -0.5000000  0.0000000 )
                  (  0.0000000  0.0000000  1.0000000 )

   Cartesian axes

     site n.     atom                  positions (alat units)
         1           Zn  tau(   1) = (   0.2500000   0.1443376   0.4364291  )
         2           Zn  tau(   2) = (  -0.0000000   0.2886751   0.0005523  )
         3           O   tau(   3) = (   0.2500000   0.1443376   0.7668610  )
         4           O   tau(   4) = (  -0.0000000   0.2886751   0.3309842  )
         5           Zn  tau(   5) = (   0.2500000   0.1443376   1.3081826  )
         6           Zn  tau(   6) = (  -0.0000000   0.2886751   0.8723058  )
         7           O   tau(   7) = (   0.2500000   0.1443376   1.6386145  )
         8           O   tau(   8) = (  -0.0000000   0.2886751   1.2027378  )
         9           Zn  tau(   9) = (   0.7500000   0.1443376   0.4364291  )
        10           Zn  tau(  10) = (   0.5000000   0.2886751   0.0005523  )
        11           O   tau(  11) = (   0.7500000   0.1443376   0.7668610  )
        12           O   tau(  12) = (   0.5000000   0.2886751   0.3309842  )
        13           Zn  tau(  13) = (   0.7500000   0.1443376   1.3081826  )
        14           Zn  tau(  14) = (   0.5000000   0.2886751   0.8723058  )
        15           O   tau(  15) = (   0.7500000   0.1443376   1.6386145  )
        16           O   tau(  16) = (   0.5000000   0.2886751   1.2027378  )

   Crystallographic axes

     site n.     atom                  positions (cryst. coord.)
         1           Zn  tau(   1) = (  0.3333333  0.3333333  0.2503168  )
         2           Zn  tau(   2) = (  0.1666667  0.6666667  0.0003168  )
         3           O   tau(   3) = (  0.3333333  0.3333333  0.4398382  )
         4           O   tau(   4) = (  0.1666667  0.6666667  0.1898382  )
         5           Zn  tau(   5) = (  0.3333333  0.3333333  0.7503168  )
         6           Zn  tau(   6) = (  0.1666667  0.6666667  0.5003168  )
         7           O   tau(   7) = (  0.3333333  0.3333333  0.9398382  )
         8           O   tau(   8) = (  0.1666667  0.6666667  0.6898382  )
         9           Zn  tau(   9) = (  0.8333333  0.3333333  0.2503168  )
        10           Zn  tau(  10) = (  0.6666667  0.6666667  0.0003168  )
        11           O   tau(  11) = (  0.8333333  0.3333333  0.4398382  )
        12           O   tau(  12) = (  0.6666667  0.6666667  0.1898382  )
        13           Zn  tau(  13) = (  0.8333333  0.3333333  0.7503168  )
        14           Zn  tau(  14) = (  0.6666667  0.6666667  0.5003168  )
        15           O   tau(  15) = (  0.8333333  0.3333333  0.9398382  )
        16           O   tau(  16) = (  0.6666667  0.6666667  0.6898382  )

     number of k points=    80
                       cart. coord. in units 2pi/alat
        k(    1) = (   0.0000000   0.0000000   0.0000000), wk =   0.0092593
        k(    2) = (   0.0000000   0.0000000   0.0955928), wk =   0.0185185
        k(    3) = (   0.0000000   0.0000000   0.1911855), wk =   0.0185185
        k(    4) = (   0.0000000   0.0000000  -0.2867783), wk =   0.0092593
        k(    5) = (   0.0000000   0.3849002   0.0000000), wk =   0.0370370
        k(    6) = (   0.0000000   0.3849002   0.0955928), wk =   0.0370370
        k(    7) = (   0.0000000   0.3849002   0.1911855), wk =   0.0370370
        k(    8) = (   0.0000000   0.3849002  -0.2867783), wk =   0.0370370
        k(    9) = (   0.0000000   0.7698004   0.0000000), wk =   0.0370370
        k(   10) = (   0.0000000   0.7698004   0.0955928), wk =   0.0370370
        k(   11) = (   0.0000000   0.7698004   0.1911855), wk =   0.0370370
        k(   12) = (   0.0000000   0.7698004  -0.2867783), wk =   0.0370370
        k(   13) = (   0.0000000  -1.1547005   0.0000000), wk =   0.0092593
        k(   14) = (   0.0000000  -1.1547005   0.0955928), wk =   0.0185185
        k(   15) = (   0.0000000  -1.1547005   0.1911855), wk =   0.0185185
        k(   16) = (   0.0000000  -1.1547005  -0.2867783), wk =   0.0092593
        k(   17) = (   0.1666667   0.0962250   0.0000000), wk =   0.0185185
        k(   18) = (   0.1666667   0.0962250   0.0955928), wk =   0.0185185
        k(   19) = (   0.1666667   0.0962250   0.1911855), wk =   0.0185185
        k(   20) = (   0.1666667   0.0962250  -0.2867783), wk =   0.0185185
        k(   21) = (   0.1666667   0.4811252   0.0000000), wk =   0.0370370
        k(   22) = (   0.1666667   0.4811252   0.0955928), wk =   0.0370370
        k(   23) = (   0.1666667   0.4811252   0.1911855), wk =   0.0370370
        k(   24) = (   0.1666667   0.4811252  -0.2867783), wk =   0.0370370
        k(   25) = (   0.1666667   0.8660254   0.0000000), wk =   0.0185185
        k(   26) = (   0.1666667   0.8660254   0.0955928), wk =   0.0370370
        k(   27) = (   0.1666667   0.8660254   0.1911855), wk =   0.0370370
        k(   28) = (   0.1666667   0.8660254  -0.2867783), wk =   0.0185185
        k(   29) = (   0.1666667  -1.0584755   0.0000000), wk =   0.0185185
        k(   30) = (   0.1666667  -1.0584755   0.0955928), wk =   0.0185185
        k(   31) = (   0.1666667  -1.0584755   0.1911855), wk =   0.0185185
        k(   32) = (   0.1666667  -1.0584755  -0.2867783), wk =   0.0185185
        k(   33) = (   0.1666667  -0.6735753   0.0000000), wk =   0.0370370
        k(   34) = (   0.1666667  -0.6735753   0.0955928), wk =   0.0370370
        k(   35) = (   0.1666667  -0.6735753   0.1911855), wk =   0.0370370
        k(   36) = (   0.1666667  -0.6735753  -0.2867783), wk =   0.0370370
        k(   37) = (   0.1666667  -0.2886751   0.0000000), wk =   0.0185185
        k(   38) = (   0.1666667  -0.2886751   0.0955928), wk =   0.0370370
        k(   39) = (   0.1666667  -0.2886751   0.1911855), wk =   0.0370370
        k(   40) = (   0.1666667  -0.2886751  -0.2867783), wk =   0.0185185
        k(   41) = (   0.3333333   0.1924501   0.0000000), wk =   0.0185185
        k(   42) = (   0.3333333   0.1924501   0.0955928), wk =   0.0185185
        k(   43) = (   0.3333333   0.1924501   0.1911855), wk =   0.0185185
        k(   44) = (   0.3333333   0.1924501  -0.2867783), wk =   0.0185185
        k(   45) = (   0.3333333   0.5773503   0.0000000), wk =   0.0185185
        k(   46) = (   0.3333333   0.5773503   0.0955928), wk =   0.0370370
        k(   47) = (   0.3333333   0.5773503   0.1911855), wk =   0.0370370
        k(   48) = (   0.3333333   0.5773503  -0.2867783), wk =   0.0185185
        k(   49) = (   0.3333333  -0.9622504   0.0000000), wk =   0.0185185
        k(   50) = (   0.3333333  -0.9622504   0.0955928), wk =   0.0185185
        k(   51) = (   0.3333333  -0.9622504   0.1911855), wk =   0.0185185
        k(   52) = (   0.3333333  -0.9622504  -0.2867783), wk =   0.0185185
        k(   53) = (   0.3333333  -0.5773503   0.0000000), wk =   0.0185185
        k(   54) = (   0.3333333  -0.5773503   0.0955928), wk =   0.0370370
        k(   55) = (   0.3333333  -0.5773503   0.1911855), wk =   0.0370370
[...]
        k(   76) = (  -0.5000000   0.3333333  -0.3333333), wk =   0.0370370
        k(   77) = (   0.3333333   0.0000000  -0.1666667), wk =   0.0185185
        k(   78) = (   0.3333333   0.0000000  -0.3333333), wk =   0.0185185
        k(   79) = (  -0.6666667   0.5000000  -0.1666667), wk =   0.0185185
        k(   80) = (  -0.6666667   0.5000000  -0.3333333), wk =   0.0185185

     Check: negative core charge=   -0.000002

     Initial potential from superposition of free atoms

     starting charge     143.9702, renormalised to     144.0000
     Starting wfcs are  104 randomized atomic wfcs

     Self-consistent Calculation

     iteration #  1     ecut=    50.00 Ry     beta= 0.30
     Davidson diagonalization with overlap

     ethr =  1.00E-02,  avg # of iterations =  2.0

     total energy              =   -1445.82552018 Ry
     estimated scf accuracy    <       2.71132201 Ry

[...]

     total energy              =   -1446.41053781 Ry
     estimated scf accuracy    <       0.00000004 Ry

     iteration # 26     ecut=    50.00 Ry     beta= 0.30
     Davidson diagonalization with overlap

     ethr =  2.60E-11,  avg # of iterations =  5.0

     End of self-consistent calculation

          k = 0.0000 0.0000 0.0000 (  7127 PWs)   bands (ev):

   -10.2457  -9.9021  -9.9020  -9.5323  -9.3836  -9.2712  -9.2712  -9.1701
     1.8570   1.8570   2.0296   2.0772   2.0934   2.1347   2.1347   2.3710
     2.3712   2.4451   2.4451   2.4453   2.4454   2.4482   2.5463   2.5465
     2.7157   2.9417   2.9417   3.1114   3.1114   3.1899   3.1982   3.2256
     3.9086   3.9087   3.9158   4.0179   4.0179   4.0179   4.0180   4.1028
     4.1028   4.1124   4.1346   4.1346   4.1787   4.1952   4.1952   4.2802
     4.4890   4.5652   4.5652   4.6287   4.6300   5.5733   6.0642   6.0643
     6.3554   6.8299   6.8299   7.0185   7.0185   7.0808   7.6243   7.9828
     7.9832   8.3163   8.3330   8.3330   8.3334   8.3334   8.6824   8.6828

     occupation numbers
     1.0000   1.0000   1.0000   1.0000   1.0000   1.0000   1.0000   1.0000
     1.0000   1.0000   1.0000   1.0000   1.0000   1.0000   1.0000   1.0000
     1.0000   1.0000   1.0000   1.0000   1.0000   1.0000   1.0000   1.0000
     1.0000   1.0000   1.0000   1.0000   1.0000   1.0000   1.0000   1.0000
     1.0000   1.0000   1.0000   1.0000   1.0000   1.0000   1.0000   1.0000
     1.0000   1.0000   1.0000   1.0000   1.0000   1.0000   1.0000   1.0000
     1.0000   1.0000   1.0000   1.0000   1.0000   1.0000   1.0000   1.0000
     1.0000   1.0000   1.0000   1.0000   1.0000   1.0000   1.0000   1.0000
     1.0000   1.0000   1.0000   1.0000   1.0000   1.0000   1.0000   1.0000

[...]

          k =-0.5000-0.2887 0.0000 (  7046 PWs)   bands (ev):

[...]

          k = 0.3333 0.1925-0.1912 (  7084 PWs)   bands (ev):

[...]

          k =-0.6667 0.7698-0.1912 (  7032 PWs)   bands (ev):

    -9.3778  -9.3778  -9.3335  -9.3335  -9.2192  -9.2192  -9.1802  -9.1802
     2.0549   2.0549   2.1132   2.1132   2.1433   2.1433   2.2897   2.2897
     2.6935   2.6935   2.7139   2.7139   2.8794   2.8794   2.9649   2.9649
     3.1114   3.1114   3.1342   3.1342   3.1773   3.1773   3.1968   3.1969
     3.8335   3.8335   3.9373   3.9373   4.0195   4.0195   4.0632   4.0632
     4.2008   4.2008   4.2067   4.2067   4.3413   4.3413   4.4475   4.4475
     4.5025   4.5025   4.6885   4.6885   5.0543   5.0543   5.1332   5.1332
     5.6365   5.6366   5.9862   5.9862   6.0276   6.0276   6.3546   6.3546
     6.8627   6.8627   7.0210   7.0210   7.2090   7.2091   7.2856   7.2856

     occupation numbers
     1.0000   1.0000   1.0000   1.0000   1.0000   1.0000   1.0000   1.0000
     1.0000   1.0000   1.0000   1.0000   1.0000   1.0000   1.0000   1.0000
     1.0000   1.0000   1.0000   1.0000   1.0000   1.0000   1.0000   1.0000
     1.0000   1.0000   1.0000   1.0000   1.0000   1.0000   1.0000   1.0000
     1.0000   1.0000   1.0000   1.0000   1.0000   1.0000   1.0000   1.0000
     1.0000   1.0000   1.0000   1.0000   1.0000   1.0000   1.0000   1.0000
     1.0000   1.0000   1.0000   1.0000   1.0000   1.0000   1.0000   1.0000
     1.0000   1.0000   1.0000   1.0000   1.0000   1.0000   1.0000   1.0000
     1.0000   1.0000   1.0000   1.0000   1.0000   1.0000   1.0000   1.0000

     highest occupied level (ev):     8.6828

!    total energy              =   -1446.41053783 Ry
     estimated scf accuracy    <          1.1E-09 Ry

     The total energy is the sum of the following terms:
     one-electron contribution =    -569.01505254 Ry
     hartree contribution      =     456.08840006 Ry
     xc contribution           =    -439.14847364 Ry
     ewald contribution        =    -894.33541170 Ry

     convergence has been achieved in  26 iterations

     Forces acting on atoms (cartesian axes, Ry/au):

     atom    1 type  1   force =     0.00001064    0.00000614    0.03510709
     atom    2 type  1   force =    -0.00001126   -0.00000650    0.03511785
     atom    3 type  2   force =    -0.00000321   -0.00000185   -0.03509560
     atom    4 type  2   force =     0.00000300    0.00000173   -0.03509797
     atom    5 type  1   force =     0.00001478    0.00000853    0.03508390
     atom    6 type  1   force =    -0.00000565   -0.00000326    0.03507716
     atom    7 type  2   force =    -0.00000281   -0.00000162   -0.03509894
     atom    8 type  2   force =     0.00000281    0.00000162   -0.03509638
     atom    9 type  1   force =     0.00000442    0.00000255    0.03510248
     atom   10 type  1   force =    -0.00000380   -0.00000219    0.03511892
     atom   11 type  2   force =    -0.00000316   -0.00000182   -0.03509547
     atom   12 type  2   force =     0.00000304    0.00000175   -0.03509720
     atom   13 type  1   force =     0.00000079    0.00000046    0.03508504
     atom   14 type  1   force =    -0.00000958   -0.00000553    0.03508384
     atom   15 type  2   force =    -0.00000307   -0.00000177   -0.03509886
     atom   16 type  2   force =     0.00000305    0.00000176   -0.03509586
     The non-local contrib.  to forces
     atom    1 type  1   force =    -0.00002564   -0.00001480    0.22012247
     atom    2 type  1   force =     0.00002457    0.00001419    0.22012951
     atom    3 type  2   force =    -0.00017630   -0.00010179    0.18792581
     atom    4 type  2   force =     0.00017647    0.00010188    0.18791407
     atom    5 type  1   force =    -0.00002444   -0.00001411    0.22010563
     atom    6 type  1   force =     0.00002671    0.00001542    0.22010132
     atom    7 type  2   force =    -0.00017589   -0.00010155    0.18791221
     atom    8 type  2   force =     0.00017638    0.00010183    0.18792357
     atom    9 type  1   force =    -0.00002643   -0.00001526    0.22012103
     atom   10 type  1   force =     0.00002763    0.00001596    0.22012943
     atom   11 type  2   force =    -0.00017542   -0.00010128    0.18792654
     atom   12 type  2   force =     0.00017474    0.00010089    0.18791481
     atom   13 type  1   force =    -0.00002816   -0.00001626    0.22010581
     atom   14 type  1   force =     0.00002520    0.00001455    0.22010227
     atom   15 type  2   force =    -0.00017631   -0.00010179    0.18791237
     atom   16 type  2   force =     0.00017543    0.00010128    0.18792297
     The ionic contribution  to forces
     atom    1 type  1   force =     0.00000000    0.00000001    1.78031637
     atom    2 type  1   force =     0.00000001    0.00000000    1.78031638
     atom    3 type  2   force =     0.00000000    0.00000001   -1.78031637
     atom    4 type  2   force =     0.00000001   -0.00000000   -1.78031638
     atom    5 type  1   force =     0.00000000    0.00000001    1.78031637
     atom    6 type  1   force =     0.00000001    0.00000000    1.78031638
     atom    7 type  2   force =     0.00000000    0.00000001   -1.78031637
     atom    8 type  2   force =     0.00000001   -0.00000000   -1.78031638
     atom    9 type  1   force =    -0.00000000   -0.00000000    1.78031638
     atom   10 type  1   force =    -0.00000001   -0.00000001    1.78031638
     atom   11 type  2   force =    -0.00000000   -0.00000000   -1.78031638
     atom   12 type  2   force =    -0.00000001   -0.00000000   -1.78031638
     atom   13 type  1   force =    -0.00000000   -0.00000000    1.78031638
     atom   14 type  1   force =    -0.00000001   -0.00000001    1.78031638
     atom   15 type  2   force =    -0.00000000   -0.00000000   -1.78031638
     atom   16 type  2   force =    -0.00000001   -0.00000000   -1.78031638
     The local contribution  to forces
     atom    1 type  1   force =     0.00003626    0.00002094   -1.94810491
     atom    2 type  1   force =    -0.00003400   -0.00001972   -1.94812998
     atom    3 type  2   force =     0.00016987    0.00009808    1.55871428
     atom    4 type  2   force =    -0.00016919   -0.00009771    1.55869567
     atom    5 type  1   force =     0.00003081    0.00001779   -1.94808167
     atom    6 type  1   force =    -0.00004282   -0.00002481   -1.94806444
     atom    7 type  2   force =     0.00017305    0.00009991    1.55868568
     atom    8 type  2   force =    -0.00017165   -0.00009912    1.55870869
     atom    9 type  1   force =     0.00004433    0.00002560   -1.94809932
     atom   10 type  1   force =    -0.00004656   -0.00002688   -1.94813106
     atom   11 type  2   force =     0.00016999    0.00009814    1.55871317
     atom   12 type  2   force =    -0.00017080   -0.00009861    1.55869461
     atom   13 type  1   force =     0.00005024    0.00002900   -1.94808278
     atom   14 type  1   force =    -0.00003747   -0.00002163   -1.94807254
     atom   15 type  2   force =     0.00016912    0.00009764    1.55868538
     atom   16 type  2   force =    -0.00016926   -0.00009772    1.55870931
     The core correction contribution to forces
     atom    1 type  1   force =    -0.00000680   -0.00000393   -0.01723429
     atom    2 type  1   force =     0.00000699    0.00000397   -0.01723658
     atom    3 type  2   force =     0.00000200    0.00000115   -0.00140413
     atom    4 type  2   force =    -0.00000197   -0.00000114   -0.00140297
     atom    5 type  1   force =    -0.00000670   -0.00000387   -0.01723527
     atom    6 type  1   force =     0.00000714    0.00000406   -0.01723303
     atom    7 type  2   force =     0.00000200    0.00000115   -0.00140398
     atom    8 type  2   force =    -0.00000198   -0.00000114   -0.00140512
     atom    9 type  1   force =    -0.00000721   -0.00000411   -0.01723439
     atom   10 type  1   force =     0.00000704    0.00000407   -0.01723649
     atom   11 type  2   force =     0.00000196    0.00000113   -0.00140414
     atom   12 type  2   force =    -0.00000198   -0.00000114   -0.00140299
     atom   13 type  1   force =    -0.00000730   -0.00000416   -0.01723524
     atom   14 type  1   force =     0.00000689    0.00000399   -0.01723273
     atom   15 type  2   force =     0.00000197    0.00000114   -0.00140398
     atom   16 type  2   force =    -0.00000198   -0.00000115   -0.00140512
     The Hubbard contrib.    to forces
     atom    1 type  1   force =     0.00000000    0.00000000    0.00000000
     atom    2 type  1   force =     0.00000000    0.00000000    0.00000000
     atom    3 type  2   force =     0.00000000    0.00000000    0.00000000
     atom    4 type  2   force =     0.00000000    0.00000000    0.00000000
     atom    5 type  1   force =     0.00000000    0.00000000    0.00000000
     atom    6 type  1   force =     0.00000000    0.00000000    0.00000000
     atom    7 type  2   force =     0.00000000    0.00000000    0.00000000
     atom    8 type  2   force =     0.00000000    0.00000000    0.00000000
     atom    9 type  1   force =     0.00000000    0.00000000    0.00000000
     atom   10 type  1   force =     0.00000000    0.00000000    0.00000000
     atom   11 type  2   force =     0.00000000    0.00000000    0.00000000
     atom   12 type  2   force =     0.00000000    0.00000000    0.00000000
     atom   13 type  1   force =     0.00000000    0.00000000    0.00000000
     atom   14 type  1   force =     0.00000000    0.00000000    0.00000000
     atom   15 type  2   force =     0.00000000    0.00000000    0.00000000
     atom   16 type  2   force =     0.00000000    0.00000000    0.00000000
     The SCF correction term to forces
     atom    1 type  1   force =     0.00000679    0.00000392    0.00000763
     atom    2 type  1   force =    -0.00000877   -0.00000507    0.00003871
     atom    3 type  2   force =     0.00000121    0.00000070   -0.00001499
     atom    4 type  2   force =    -0.00000231   -0.00000134    0.00001184
     atom    5 type  1   force =     0.00001509    0.00000871   -0.00002098
     atom    6 type  1   force =     0.00000336    0.00000194   -0.00004287
     atom    7 type  2   force =    -0.00000200   -0.00000115    0.00002371
     atom    8 type  2   force =     0.00000004    0.00000003   -0.00000694
     atom    9 type  1   force =    -0.00000631   -0.00000364   -0.00000103
     atom   10 type  1   force =     0.00000809    0.00000467    0.00004086
     atom   11 type  2   force =     0.00000030    0.00000017   -0.00001447
     atom   12 type  2   force =     0.00000107    0.00000062    0.00001293
     atom   13 type  1   force =    -0.00001403   -0.00000810   -0.00001894
     atom   14 type  1   force =    -0.00000421   -0.00000243   -0.00002935
     atom   15 type  2   force =     0.00000213    0.00000123    0.00002394
     atom   16 type  2   force =    -0.00000114   -0.00000066   -0.00000646

     Total force =     0.140388     Total SCF correction =     0.000098

     General routines

     Parallel routines

   This run was terminated on:  23: 6: 3  28Aug2025

   JOB DONE.
Note: The following floating-point exceptions are signalling: IEEE_UNDERFLOW_FLAG IEEE_DENORMAL
Note: The following floating-point exceptions are signalling: IEEE_UNDERFLOW_FLAG IEEE_DENORMAL
Note: The following floating-point exceptions are signalling: IEEE_UNDERFLOW_FLAG IEEE_DENORMAL
Note: The following floating-point exceptions are signalling: IEEE_UNDERFLOW_FLAG IEEE_DENORMAL
Note: The following floating-point exceptions are signalling: IEEE_UNDERFLOW_FLAG IEEE_DENORMAL
Note: The following floating-point exceptions are signalling: IEEE_UNDERFLOW_FLAG IEEE_DENORMAL
Note: The following floating-point exceptions are signalling: IEEE_UNDERFLOW_FLAG IEEE_DENORMAL
Note: The following floating-point exceptions are signalling: IEEE_UNDERFLOW_FLAG IEEE_DENORMAL
Note: The following floating-point exceptions are signalling: IEEE_UNDERFLOW_FLAG IEEE_DENORMAL
Note: The following floating-point exceptions are signalling: IEEE_UNDERFLOW_FLAG IEEE_DENORMAL
Note: The following floating-point exceptions are signalling: IEEE_UNDERFLOW_FLAG IEEE_DENORMAL
Note: The following floating-point exceptions are signalling: IEEE_UNDERFLOW_FLAG IEEE_DENORMAL
Note: The following floating-point exceptions are signalling: IEEE_UNDERFLOW_FLAG IEEE_DENORMAL
Note: The following floating-point exceptions are signalling: IEEE_UNDERFLOW_FLAG IEEE_DENORMAL
Note: The following floating-point exceptions are signalling: IEEE_UNDERFLOW_FLAG IEEE_DENORMAL
Note: The following floating-point exceptions are signalling: IEEE_UNDERFLOW_FLAG IEEE_DENORMAL
Note: The following floating-point exceptions are signalling: IEEE_UNDERFLOW_FLAG IEEE_DENORMAL
Note: The following floating-point exceptions are signalling: IEEE_UNDERFLOW_FLAG IEEE_DENORMAL
Note: The following floating-point exceptions are signalling: IEEE_UNDERFLOW_FLAG IEEE_DENORMAL
Note: The following floating-point exceptions are signalling: IEEE_UNDERFLOW_FLAG IEEE_DENORMAL
Note: The following floating-point exceptions are signalling: IEEE_UNDERFLOW_FLAG IEEE_DENORMAL
Note: The following floating-point exceptions are signalling: IEEE_UNDERFLOW_FLAG IEEE_DENORMAL
Note: The following floating-point exceptions are signalling: IEEE_UNDERFLOW_FLAG IEEE_DENORMAL
Note: The following floating-point exceptions are signalling: IEEE_UNDERFLOW_FLAG IEEE_DENORMAL
Note: The following floating-point exceptions are signalling: IEEE_UNDERFLOW_FLAG IEEE_DENORMAL
Note: The following floating-point exceptions are signalling: IEEE_UNDERFLOW_FLAG IEEE_DENORMAL
Note: The following floating-point exceptions are signalling: IEEE_UNDERFLOW_FLAG IEEE_DENORMAL
Note: The following floating-point exceptions are signalling: IEEE_UNDERFLOW_FLAG IEEE_DENORMAL
Note: The following floating-point exceptions are signalling: IEEE_UNDERFLOW_FLAG IEEE_DENORMAL
Note: The following floating-point exceptions are signalling: IEEE_UNDERFLOW_FLAG IEEE_DENORMAL
Note: The following floating-point exceptions are signalling: IEEE_UNDERFLOW_FLAG IEEE_DENORMAL
Note: The following floating-point exceptions are signalling: IEEE_UNDERFLOW_FLAG IEEE_DENORMAL