     Program PWSCF v.7.0 starts on 28Aug2025 at 21: 0:36

     K-points division:     npool     =       8
     R & G space division:  proc/nbgrp/npool/nimage =       4

     Reading input from /home/jvc/QEspresso7.2/ZnO_database/scripts/cell212.in/ZnO-3.01-1.71-212.in
Warning: card &CELL ignored
Warning: card / ignored
Warning: card &FCP ignored
Warning: card / ignored
Warning: card &RISM ignored
Warning: card / ignored

     Current dimensions of program PWSCF are:
     Max number of different atomic species (ntypx) = 10
     Max number of k-points (npk) =  40000
     Max angular momentum in pseudopotentials (lmaxx) =  4
     file Zn.upf: wavefunction(s)  3D renormalized
     Found identity + (  0.0000  0.0000  0.5000) symmetry
     This is a supercell, fractional translations are disabled
     Message from routine setup:
     using ibrav=0 with symmetry is DISCOURAGED, use correct ibrav instead

     Using Slab Decomposition

     bravais-lattice index     =            0
     lattice parameter (alat)  =      11.3691  a.u.
     unit-cell volume          =    1088.8893 (a.u.)^3
     number of atoms/cell      =           16
     number of atomic types    =            2
     number of electrons       =       144.00
     number of Kohn-Sham states=           72
     kinetic-energy cutoff     =      50.0000  Ry
     charge density cutoff     =     400.0000  Ry
     scf convergence threshold =      1.0E-08
     mixing beta               =       0.3000
     number of iterations used =            8  plain     mixing
     Exchange-correlation= PBE
                           (   1   4   3   4   0   0   0)

     celldm(1)=  11.369091  celldm(2)=   0.000000  celldm(3)=   0.000000
     celldm(4)=   0.000000  celldm(5)=   0.000000  celldm(6)=   0.000000

     crystal axes: (cart. coord. in units of alat)
               a(1) = (   1.000000   0.000000   0.000000 )
               a(2) = (  -0.250000   0.433013   0.000000 )
               a(3) = (   0.000000   0.000000   1.711220 )

     reciprocal axes: (cart. coord. in units 2 pi/alat)
               b(1) = (  1.000000  0.577350 -0.000000 )
               b(2) = (  0.000000  2.309401  0.000000 )
               b(3) = (  0.000000 -0.000000  0.584378 )

     PseudoPot. # 1 for Zn read from file:
     /home/jvc/QEspresso7.2/ZnO_database/pseudos/Zn.upf
     MD5 check sum: 7f56cabf9682ed8c977c2f7d0c5985c5
     Pseudo is Ultrasoft + core correction, Zval = 12.0
     Generated using &quot;atomic&quot; code by A. Dal Corso  v.6.2.2
     Using radial grid of 1201 points,  6 beta functions with:
                l(1) =   0
                l(2) =   0
                l(3) =   1
                l(4) =   1
                l(5) =   2
                l(6) =   2
     Q(r) pseudized with 0 coefficients

     PseudoPot. # 2 for O  read from file:
     /home/jvc/QEspresso7.2/ZnO_database/pseudos/O.upf
     MD5 check sum: 91400c9766925bcf19f520983a725ff0
     Pseudo is Ultrasoft + core correction, Zval =  6.0
     Generated using &quot;atomic&quot; code by A. Dal Corso  v.6.3MaX
     Using radial grid of 1095 points,  4 beta functions with:
                l(1) =   0
                l(2) =   0
                l(3) =   1
                l(4) =   1
     Q(r) pseudized with 0 coefficients

     atomic species   valence    mass     pseudopotential
        Zn            12.00    65.38000     Zn( 1.00)
        O              6.00    15.99900     O ( 1.00)

      2 Sym. Ops. (no inversion) found

                                    s                        frac. trans.

      isym =  1     identity

 cryst.   s( 1) = (     1          0          0      )
                  (     0          1          0      )
                  (     0          0          1      )

 cart.    s( 1) = (  1.0000000  0.0000000  0.0000000 )
                  (  0.0000000  1.0000000  0.0000000 )
                  (  0.0000000  0.0000000  1.0000000 )

      isym =  2     inv. 180 deg rotation - cryst. axis [0,1,0]

 cryst.   s( 2) = (     1          2          0      )
                  (     0         -1          0      )
                  (     0          0          1      )

 cart.    s( 2) = (  0.5000000  0.8660254  0.0000000 )
                  (  0.8660254 -0.5000000  0.0000000 )
                  (  0.0000000  0.0000000  1.0000000 )

   Cartesian axes

     site n.     atom                  positions (alat units)
         1           Zn  tau(   1) = (   0.2500000   0.1443376   0.4283471  )
         2           Zn  tau(   2) = (  -0.0000000   0.2886751   0.0005421  )
         3           O   tau(   3) = (   0.2500000   0.1443376   0.7526599  )
         4           O   tau(   4) = (  -0.0000000   0.2886751   0.3248549  )
         5           Zn  tau(   5) = (   0.2500000   0.1443376   1.2839570  )
         6           Zn  tau(   6) = (  -0.0000000   0.2886751   0.8561520  )
         7           O   tau(   7) = (   0.2500000   0.1443376   1.6082698  )
         8           O   tau(   8) = (  -0.0000000   0.2886751   1.1804648  )
         9           Zn  tau(   9) = (   0.7500000   0.1443376   0.4283471  )
        10           Zn  tau(  10) = (   0.5000000   0.2886751   0.0005421  )
        11           O   tau(  11) = (   0.7500000   0.1443376   0.7526599  )
        12           O   tau(  12) = (   0.5000000   0.2886751   0.3248549  )
        13           Zn  tau(  13) = (   0.7500000   0.1443376   1.2839570  )
        14           Zn  tau(  14) = (   0.5000000   0.2886751   0.8561520  )
        15           O   tau(  15) = (   0.7500000   0.1443376   1.6082698  )
        16           O   tau(  16) = (   0.5000000   0.2886751   1.1804648  )

   Crystallographic axes

     site n.     atom                  positions (cryst. coord.)
         1           Zn  tau(   1) = (  0.3333333  0.3333333  0.2503168  )
         2           Zn  tau(   2) = (  0.1666667  0.6666667  0.0003168  )
         3           O   tau(   3) = (  0.3333333  0.3333333  0.4398382  )
         4           O   tau(   4) = (  0.1666667  0.6666667  0.1898382  )
         5           Zn  tau(   5) = (  0.3333333  0.3333333  0.7503168  )
         6           Zn  tau(   6) = (  0.1666667  0.6666667  0.5003168  )
         7           O   tau(   7) = (  0.3333333  0.3333333  0.9398382  )
         8           O   tau(   8) = (  0.1666667  0.6666667  0.6898382  )
         9           Zn  tau(   9) = (  0.8333333  0.3333333  0.2503168  )
        10           Zn  tau(  10) = (  0.6666667  0.6666667  0.0003168  )
        11           O   tau(  11) = (  0.8333333  0.3333333  0.4398382  )
        12           O   tau(  12) = (  0.6666667  0.6666667  0.1898382  )
        13           Zn  tau(  13) = (  0.8333333  0.3333333  0.7503168  )
        14           Zn  tau(  14) = (  0.6666667  0.6666667  0.5003168  )
        15           O   tau(  15) = (  0.8333333  0.3333333  0.9398382  )
        16           O   tau(  16) = (  0.6666667  0.6666667  0.6898382  )

     number of k points=    80
                       cart. coord. in units 2pi/alat
        k(    1) = (   0.0000000   0.0000000   0.0000000), wk =   0.0092593
        k(    2) = (   0.0000000   0.0000000   0.0973964), wk =   0.0185185
        k(    3) = (   0.0000000   0.0000000   0.1947928), wk =   0.0185185
        k(    4) = (   0.0000000   0.0000000  -0.2921892), wk =   0.0092593
        k(    5) = (   0.0000000   0.3849002   0.0000000), wk =   0.0370370
        k(    6) = (   0.0000000   0.3849002   0.0973964), wk =   0.0370370
        k(    7) = (   0.0000000   0.3849002   0.1947928), wk =   0.0370370
        k(    8) = (   0.0000000   0.3849002  -0.2921892), wk =   0.0370370
        k(    9) = (   0.0000000   0.7698004   0.0000000), wk =   0.0370370
        k(   10) = (   0.0000000   0.7698004   0.0973964), wk =   0.0370370
        k(   11) = (   0.0000000   0.7698004   0.1947928), wk =   0.0370370
        k(   12) = (   0.0000000   0.7698004  -0.2921892), wk =   0.0370370
        k(   13) = (   0.0000000  -1.1547005   0.0000000), wk =   0.0092593
        k(   14) = (   0.0000000  -1.1547005   0.0973964), wk =   0.0185185
        k(   15) = (   0.0000000  -1.1547005   0.1947928), wk =   0.0185185
        k(   16) = (   0.0000000  -1.1547005  -0.2921892), wk =   0.0092593
        k(   17) = (   0.1666667   0.0962250   0.0000000), wk =   0.0185185
        k(   18) = (   0.1666667   0.0962250   0.0973964), wk =   0.0185185
        k(   19) = (   0.1666667   0.0962250   0.1947928), wk =   0.0185185
        k(   20) = (   0.1666667   0.0962250  -0.2921892), wk =   0.0185185
        k(   21) = (   0.1666667   0.4811252   0.0000000), wk =   0.0370370
        k(   22) = (   0.1666667   0.4811252   0.0973964), wk =   0.0370370
        k(   23) = (   0.1666667   0.4811252   0.1947928), wk =   0.0370370
        k(   24) = (   0.1666667   0.4811252  -0.2921892), wk =   0.0370370
        k(   25) = (   0.1666667   0.8660254   0.0000000), wk =   0.0185185
        k(   26) = (   0.1666667   0.8660254   0.0973964), wk =   0.0370370
        k(   27) = (   0.1666667   0.8660254   0.1947928), wk =   0.0370370
        k(   28) = (   0.1666667   0.8660254  -0.2921892), wk =   0.0185185
        k(   29) = (   0.1666667  -1.0584755   0.0000000), wk =   0.0185185
        k(   30) = (   0.1666667  -1.0584755   0.0973964), wk =   0.0185185
        k(   31) = (   0.1666667  -1.0584755   0.1947928), wk =   0.0185185
        k(   32) = (   0.1666667  -1.0584755  -0.2921892), wk =   0.0185185
        k(   33) = (   0.1666667  -0.6735753   0.0000000), wk =   0.0370370
        k(   34) = (   0.1666667  -0.6735753   0.0973964), wk =   0.0370370
        k(   35) = (   0.1666667  -0.6735753   0.1947928), wk =   0.0370370
        k(   36) = (   0.1666667  -0.6735753  -0.2921892), wk =   0.0370370
        k(   37) = (   0.1666667  -0.2886751   0.0000000), wk =   0.0185185
        k(   38) = (   0.1666667  -0.2886751   0.0973964), wk =   0.0370370
        k(   39) = (   0.1666667  -0.2886751   0.1947928), wk =   0.0370370
        k(   40) = (   0.1666667  -0.2886751  -0.2921892), wk =   0.0185185
        k(   41) = (   0.3333333   0.1924501   0.0000000), wk =   0.0185185
        k(   42) = (   0.3333333   0.1924501   0.0973964), wk =   0.0185185
        k(   43) = (   0.3333333   0.1924501   0.1947928), wk =   0.0185185
        k(   44) = (   0.3333333   0.1924501  -0.2921892), wk =   0.0185185
        k(   45) = (   0.3333333   0.5773503   0.0000000), wk =   0.0185185
        k(   46) = (   0.3333333   0.5773503   0.0973964), wk =   0.0370370
        k(   47) = (   0.3333333   0.5773503   0.1947928), wk =   0.0370370
        k(   48) = (   0.3333333   0.5773503  -0.2921892), wk =   0.0185185
        k(   49) = (   0.3333333  -0.9622504   0.0000000), wk =   0.0185185
        k(   50) = (   0.3333333  -0.9622504   0.0973964), wk =   0.0185185
        k(   51) = (   0.3333333  -0.9622504   0.1947928), wk =   0.0185185
        k(   52) = (   0.3333333  -0.9622504  -0.2921892), wk =   0.0185185
        k(   53) = (   0.3333333  -0.5773503   0.0000000), wk =   0.0185185
        k(   54) = (   0.3333333  -0.5773503   0.0973964), wk =   0.0370370
        k(   55) = (   0.3333333  -0.5773503   0.1947928), wk =   0.0370370
[...]
        k(   76) = (  -0.5000000   0.3333333  -0.3333333), wk =   0.0370370
        k(   77) = (   0.3333333   0.0000000  -0.1666667), wk =   0.0185185
        k(   78) = (   0.3333333   0.0000000  -0.3333333), wk =   0.0185185
        k(   79) = (  -0.6666667   0.5000000  -0.1666667), wk =   0.0185185
        k(   80) = (  -0.6666667   0.5000000  -0.3333333), wk =   0.0185185

     Check: negative core charge=   -0.000002

     Initial potential from superposition of free atoms

     starting charge     143.9702, renormalised to     144.0000
     Starting wfcs are  104 randomized atomic wfcs

     Self-consistent Calculation

     iteration #  1     ecut=    50.00 Ry     beta= 0.30
     Davidson diagonalization with overlap

     ethr =  1.00E-02,  avg # of iterations =  2.0

     total energy              =   -1445.68297256 Ry
     estimated scf accuracy    <       2.69637961 Ry

[...]

     total energy              =   -1446.23290600 Ry
     estimated scf accuracy    <       0.00000011 Ry

     iteration # 25     ecut=    50.00 Ry     beta= 0.30
     Davidson diagonalization with overlap

     ethr =  7.30E-11,  avg # of iterations =  5.8

     End of self-consistent calculation

          k = 0.0000 0.0000 0.0000 (  6505 PWs)   bands (ev):

    -9.5917  -9.1684  -9.1684  -8.7083  -8.5920  -8.4503  -8.4502  -8.3267
     2.5893   2.5893   2.7955   2.8336   2.8629   2.9360   2.9360   3.2875
     3.2877   3.3656   3.3739   3.3739   3.3741   3.3741   3.4991   3.4992
     3.6641   3.9279   3.9279   4.0301   4.0301   4.0512   4.1834   4.2722
     5.1061   5.1061   5.1062   5.2502   5.2502   5.2503   5.2503   5.3493
     5.3582   5.3582   5.3782   5.3782   5.4409   5.4454   5.4454   5.5515
     5.7696   5.7783   5.8284   5.8284   5.9714   6.7459   7.4565   7.4729
     7.4729   8.1368   8.1368   8.2492   8.2492   8.3925   8.9574   9.2766
     9.2769   9.6964   9.6964   9.6967   9.6967   9.7690  10.1165  10.1168

     occupation numbers
     1.0000   1.0000   1.0000   1.0000   1.0000   1.0000   1.0000   1.0000
     1.0000   1.0000   1.0000   1.0000   1.0000   1.0000   1.0000   1.0000
     1.0000   1.0000   1.0000   1.0000   1.0000   1.0000   1.0000   1.0000
     1.0000   1.0000   1.0000   1.0000   1.0000   1.0000   1.0000   1.0000
     1.0000   1.0000   1.0000   1.0000   1.0000   1.0000   1.0000   1.0000
     1.0000   1.0000   1.0000   1.0000   1.0000   1.0000   1.0000   1.0000
     1.0000   1.0000   1.0000   1.0000   1.0000   1.0000   1.0000   1.0000
     1.0000   1.0000   1.0000   1.0000   1.0000   1.0000   1.0000   1.0000
     1.0000   1.0000   1.0000   1.0000   1.0000   1.0000   1.0000   1.0000

[...]

          k =-0.5000-0.2887 0.0000 (  6542 PWs)   bands (ev):

[...]

          k = 0.3333 0.1925-0.1948 (  6529 PWs)   bands (ev):

[...]

          k =-0.6667 0.7698-0.1948 (  6480 PWs)   bands (ev):

    -8.5847  -8.5846  -8.5285  -8.5284  -8.3859  -8.3858  -8.3383  -8.3382
     2.8214   2.8214   2.9078   2.9078   2.9097   2.9098   3.0907   3.0907
     3.6099   3.6099   3.6270   3.6271   3.7804   3.7804   3.8611   3.8611
     4.1014   4.1014   4.1289   4.1289   4.1643   4.1643   4.2105   4.2105
     5.0143   5.0143   5.1408   5.1408   5.2371   5.2371   5.2939   5.2939
     5.4577   5.4577   5.4631   5.4631   5.6226   5.6226   5.6860   5.6860
     5.7555   5.7555   5.9222   5.9222   6.3377   6.3377   6.4176   6.4176
     6.7633   6.7634   7.1584   7.1585   7.2354   7.2354   7.5870   7.5870
     8.1410   8.1410   8.3149   8.3150   8.5288   8.5289   8.6062   8.6063

     occupation numbers
     1.0000   1.0000   1.0000   1.0000   1.0000   1.0000   1.0000   1.0000
     1.0000   1.0000   1.0000   1.0000   1.0000   1.0000   1.0000   1.0000
     1.0000   1.0000   1.0000   1.0000   1.0000   1.0000   1.0000   1.0000
     1.0000   1.0000   1.0000   1.0000   1.0000   1.0000   1.0000   1.0000
     1.0000   1.0000   1.0000   1.0000   1.0000   1.0000   1.0000   1.0000
     1.0000   1.0000   1.0000   1.0000   1.0000   1.0000   1.0000   1.0000
     1.0000   1.0000   1.0000   1.0000   1.0000   1.0000   1.0000   1.0000
     1.0000   1.0000   1.0000   1.0000   1.0000   1.0000   1.0000   1.0000
     1.0000   1.0000   1.0000   1.0000   1.0000   1.0000   1.0000   1.0000

     highest occupied level (ev):    10.1168

!    total energy              =   -1446.23290607 Ry
     estimated scf accuracy    <          7.4E-09 Ry

     The total energy is the sum of the following terms:
     one-electron contribution =    -528.34824515 Ry
     hartree contribution      =     442.05182267 Ry
     xc contribution           =    -439.95004984 Ry
     ewald contribution        =    -919.98643375 Ry

     convergence has been achieved in  25 iterations

     Forces acting on atoms (cartesian axes, Ry/au):

     atom    1 type  1   force =     0.00004522    0.00002610    0.04144066
     atom    2 type  1   force =    -0.00000702   -0.00000405    0.04145005
     atom    3 type  2   force =    -0.00000092   -0.00000053   -0.04143606
     atom    4 type  2   force =     0.00000053    0.00000031   -0.04143516
     atom    5 type  1   force =     0.00000633    0.00000366    0.04142507
     atom    6 type  1   force =     0.00000761    0.00000439    0.04142991
     atom    7 type  2   force =    -0.00000144   -0.00000083   -0.04143449
     atom    8 type  2   force =     0.00000180    0.00000104   -0.04143447
     atom    9 type  1   force =    -0.00002207   -0.00001274    0.04141812
     atom   10 type  1   force =    -0.00001430   -0.00000826    0.04148607
     atom   11 type  2   force =    -0.00000212   -0.00000122   -0.04143712
     atom   12 type  2   force =     0.00000187    0.00000108   -0.04143349
     atom   13 type  1   force =     0.00001666    0.00000962    0.04141817
     atom   14 type  1   force =    -0.00003193   -0.00001844    0.04141389
     atom   15 type  2   force =    -0.00000120   -0.00000069   -0.04143471
     atom   16 type  2   force =     0.00000098    0.00000057   -0.04143645
     The non-local contrib.  to forces
     atom    1 type  1   force =    -0.00001461   -0.00000843    0.17347101
     atom    2 type  1   force =     0.00003109    0.00001795    0.17348310
     atom    3 type  2   force =    -0.00016570   -0.00009567    0.13553466
     atom    4 type  2   force =     0.00016249    0.00009382    0.13552832
     atom    5 type  1   force =    -0.00002865   -0.00001654    0.17347048
     atom    6 type  1   force =     0.00003672    0.00002120    0.17347263
     atom    7 type  2   force =    -0.00016757   -0.00009675    0.13552645
     atom    8 type  2   force =     0.00016348    0.00009438    0.13554109
     atom    9 type  1   force =    -0.00004203   -0.00002426    0.17346311
     atom   10 type  1   force =     0.00002597    0.00001499    0.17349458
     atom   11 type  2   force =    -0.00016305   -0.00009414    0.13554103
     atom   12 type  2   force =     0.00016720    0.00009653    0.13553125
     atom   13 type  1   force =    -0.00002760   -0.00001593    0.17347172
     atom   14 type  1   force =     0.00001985    0.00001146    0.17346592
     atom   15 type  2   force =    -0.00016216   -0.00009362    0.13551884
     atom   16 type  2   force =     0.00016742    0.00009666    0.13553766
     The ionic contribution  to forces
     atom    1 type  1   force =     0.00000000    0.00000001    1.44028868
     atom    2 type  1   force =     0.00000001    0.00000000    1.44028868
     atom    3 type  2   force =     0.00000000    0.00000001   -1.44028868
     atom    4 type  2   force =     0.00000001   -0.00000000   -1.44028868
     atom    5 type  1   force =     0.00000000    0.00000001    1.44028868
     atom    6 type  1   force =     0.00000001    0.00000000    1.44028868
     atom    7 type  2   force =     0.00000000    0.00000001   -1.44028868
     atom    8 type  2   force =     0.00000001   -0.00000000   -1.44028868
     atom    9 type  1   force =    -0.00000000   -0.00000000    1.44028868
     atom   10 type  1   force =    -0.00000001   -0.00000001    1.44028868
     atom   11 type  2   force =    -0.00000000   -0.00000000   -1.44028868
     atom   12 type  2   force =    -0.00000001   -0.00000000   -1.44028868
     atom   13 type  1   force =    -0.00000000   -0.00000000    1.44028868
     atom   14 type  1   force =    -0.00000001   -0.00000001    1.44028868
     atom   15 type  2   force =    -0.00000000   -0.00000000   -1.44028868
     atom   16 type  2   force =    -0.00000001   -0.00000000   -1.44028868
     The local contribution  to forces
     atom    1 type  1   force =    -0.00001116   -0.00000644   -1.55775532
     atom    2 type  1   force =    -0.00005403   -0.00003128   -1.55778843
     atom    3 type  2   force =     0.00015616    0.00009016    1.26425822
     atom    4 type  2   force =    -0.00016144   -0.00009323    1.26423619
     atom    5 type  1   force =     0.00005446    0.00003144   -1.55774736
     atom    6 type  1   force =    -0.00007503   -0.00004341   -1.55773988
     atom    7 type  2   force =     0.00015743    0.00009089    1.26422505
     atom    8 type  2   force =    -0.00016853   -0.00009732    1.26425977
     atom    9 type  1   force =     0.00010237    0.00005910   -1.55771688
     atom   10 type  1   force =    -0.00003814   -0.00002202   -1.55784406
     atom   11 type  2   force =     0.00016699    0.00009641    1.26426218
     atom   12 type  2   force =    -0.00016295   -0.00009408    1.26423996
     atom   13 type  1   force =     0.00003604    0.00002081   -1.55774800
     atom   14 type  1   force =    -0.00001611   -0.00000930   -1.55771963
     atom   15 type  2   force =     0.00016114    0.00009303    1.26421499
     atom   16 type  2   force =    -0.00015545   -0.00008975    1.26425986
     The core correction contribution to forces
     atom    1 type  1   force =    -0.00000489   -0.00000280   -0.01456810
     atom    2 type  1   force =     0.00000615    0.00000355   -0.01456750
     atom    3 type  2   force =     0.00000188    0.00000108   -0.00092369
     atom    4 type  2   force =    -0.00000182   -0.00000105   -0.00092240
     atom    5 type  1   force =    -0.00000643   -0.00000369   -0.01457151
     atom    6 type  1   force =     0.00000647    0.00000374   -0.01457253
     atom    7 type  2   force =     0.00000190    0.00000109   -0.00092467
     atom    8 type  2   force =    -0.00000185   -0.00000107   -0.00092608
     atom    9 type  1   force =    -0.00000724   -0.00000419   -0.01456915
     atom   10 type  1   force =     0.00000585    0.00000335   -0.01456620
     atom   11 type  2   force =     0.00000184    0.00000106   -0.00092377
     atom   12 type  2   force =    -0.00000192   -0.00000111   -0.00092241
     atom   13 type  1   force =    -0.00000569   -0.00000330   -0.01457137
     atom   14 type  1   force =     0.00000565    0.00000324   -0.01457267
     atom   15 type  2   force =     0.00000182    0.00000105   -0.00092462
     atom   16 type  2   force =    -0.00000190   -0.00000109   -0.00092604
     The Hubbard contrib.    to forces
     atom    1 type  1   force =     0.00000000    0.00000000    0.00000000
     atom    2 type  1   force =     0.00000000    0.00000000    0.00000000
     atom    3 type  2   force =     0.00000000    0.00000000    0.00000000
     atom    4 type  2   force =     0.00000000    0.00000000    0.00000000
     atom    5 type  1   force =     0.00000000    0.00000000    0.00000000
     atom    6 type  1   force =     0.00000000    0.00000000    0.00000000
     atom    7 type  2   force =     0.00000000    0.00000000    0.00000000
     atom    8 type  2   force =     0.00000000    0.00000000    0.00000000
     atom    9 type  1   force =     0.00000000    0.00000000    0.00000000
     atom   10 type  1   force =     0.00000000    0.00000000    0.00000000
     atom   11 type  2   force =     0.00000000    0.00000000    0.00000000
     atom   12 type  2   force =     0.00000000    0.00000000    0.00000000
     atom   13 type  1   force =     0.00000000    0.00000000    0.00000000
     atom   14 type  1   force =     0.00000000    0.00000000    0.00000000
     atom   15 type  2   force =     0.00000000    0.00000000    0.00000000
     atom   16 type  2   force =     0.00000000    0.00000000    0.00000000
     The SCF correction term to forces
     atom    1 type  1   force =     0.00007603    0.00004390    0.00000666
     atom    2 type  1   force =     0.00000997    0.00000576    0.00003647
     atom    3 type  2   force =     0.00000692    0.00000399   -0.00001430
     atom    4 type  2   force =     0.00000148    0.00000086    0.00001368
     atom    5 type  1   force =    -0.00001288   -0.00000744   -0.00001294
     atom    6 type  1   force =     0.00003965    0.00002289   -0.00001673
     atom    7 type  2   force =     0.00000697    0.00000403    0.00002962
     atom    8 type  2   force =     0.00000888    0.00000513   -0.00001832
     atom    9 type  1   force =    -0.00007498   -0.00004329   -0.00004538
     atom   10 type  1   force =    -0.00000778   -0.00000449    0.00011533
     atom   11 type  2   force =    -0.00000772   -0.00000446   -0.00002562
     atom   12 type  2   force =    -0.00000028   -0.00000016    0.00000866
     atom   13 type  1   force =     0.00001409    0.00000813   -0.00002060
     atom   14 type  1   force =    -0.00004112   -0.00002374   -0.00004614
     atom   15 type  2   force =    -0.00000181   -0.00000105    0.00004703
     atom   16 type  2   force =    -0.00000891   -0.00000515   -0.00001698

     Total force =     0.165741     Total SCF correction =     0.000213

     General routines

     Parallel routines

   This run was terminated on:  21: 9:14  28Aug2025

   JOB DONE.
Note: The following floating-point exceptions are signalling: IEEE_UNDERFLOW_FLAG IEEE_DENORMAL
Note: The following floating-point exceptions are signalling: IEEE_UNDERFLOW_FLAG IEEE_DENORMAL
Note: The following floating-point exceptions are signalling: IEEE_UNDERFLOW_FLAG IEEE_DENORMAL
Note: The following floating-point exceptions are signalling: IEEE_UNDERFLOW_FLAG IEEE_DENORMAL
Note: The following floating-point exceptions are signalling: IEEE_UNDERFLOW_FLAG IEEE_DENORMAL
Note: The following floating-point exceptions are signalling: IEEE_UNDERFLOW_FLAG IEEE_DENORMAL
Note: The following floating-point exceptions are signalling: IEEE_UNDERFLOW_FLAG IEEE_DENORMAL
Note: The following floating-point exceptions are signalling: IEEE_UNDERFLOW_FLAG IEEE_DENORMAL
Note: The following floating-point exceptions are signalling: IEEE_UNDERFLOW_FLAG IEEE_DENORMAL
Note: The following floating-point exceptions are signalling: IEEE_UNDERFLOW_FLAG IEEE_DENORMAL
Note: The following floating-point exceptions are signalling: IEEE_UNDERFLOW_FLAG IEEE_DENORMAL
Note: The following floating-point exceptions are signalling: IEEE_UNDERFLOW_FLAG IEEE_DENORMAL
Note: The following floating-point exceptions are signalling: IEEE_UNDERFLOW_FLAG IEEE_DENORMAL
Note: The following floating-point exceptions are signalling: IEEE_UNDERFLOW_FLAG IEEE_DENORMAL
Note: The following floating-point exceptions are signalling: IEEE_UNDERFLOW_FLAG IEEE_DENORMAL
Note: The following floating-point exceptions are signalling: IEEE_UNDERFLOW_FLAG IEEE_DENORMAL
Note: The following floating-point exceptions are signalling: IEEE_UNDERFLOW_FLAG IEEE_DENORMAL
Note: The following floating-point exceptions are signalling: IEEE_UNDERFLOW_FLAG IEEE_DENORMAL
Note: The following floating-point exceptions are signalling: IEEE_UNDERFLOW_FLAG IEEE_DENORMAL
Note: The following floating-point exceptions are signalling: IEEE_UNDERFLOW_FLAG IEEE_DENORMAL
Note: The following floating-point exceptions are signalling: IEEE_UNDERFLOW_FLAG IEEE_DENORMAL
Note: The following floating-point exceptions are signalling: IEEE_UNDERFLOW_FLAG IEEE_DENORMAL
Note: The following floating-point exceptions are signalling: IEEE_UNDERFLOW_FLAG IEEE_DENORMAL
Note: The following floating-point exceptions are signalling: IEEE_UNDERFLOW_FLAG IEEE_DENORMAL
Note: The following floating-point exceptions are signalling: IEEE_UNDERFLOW_FLAG IEEE_DENORMAL
Note: The following floating-point exceptions are signalling: IEEE_UNDERFLOW_FLAG IEEE_DENORMAL
Note: The following floating-point exceptions are signalling: IEEE_UNDERFLOW_FLAG IEEE_DENORMAL
Note: The following floating-point exceptions are signalling: IEEE_UNDERFLOW_FLAG IEEE_DENORMAL
Note: The following floating-point exceptions are signalling: IEEE_UNDERFLOW_FLAG IEEE_DENORMAL
Note: The following floating-point exceptions are signalling: IEEE_UNDERFLOW_FLAG IEEE_DENORMAL
Note: The following floating-point exceptions are signalling: IEEE_UNDERFLOW_FLAG IEEE_DENORMAL
Note: The following floating-point exceptions are signalling: IEEE_UNDERFLOW_FLAG IEEE_DENORMAL