     Program PWSCF v.7.0 starts on 28Aug2025 at 18:42: 8

     K-points division:     npool     =       8
     R & G space division:  proc/nbgrp/npool/nimage =       4

     Reading input from /home/jvc/QEspresso7.2/ZnO_database/scripts/cell212.in/ZnO-2.94-1.49-212.in
Warning: card &CELL ignored
Warning: card / ignored
Warning: card &FCP ignored
Warning: card / ignored
Warning: card &RISM ignored
Warning: card / ignored

     Current dimensions of program PWSCF are:
     Max number of different atomic species (ntypx) = 10
     Max number of k-points (npk) =  40000
     Max angular momentum in pseudopotentials (lmaxx) =  4
     file Zn.upf: wavefunction(s)  3D renormalized
     Found identity + (  0.0000  0.0000  0.5000) symmetry
     This is a supercell, fractional translations are disabled
     Message from routine setup:
     using ibrav=0 with symmetry is DISCOURAGED, use correct ibrav instead

     Using Slab Decomposition

     bravais-lattice index     =            0
     lattice parameter (alat)  =      11.1219  a.u.
     unit-cell volume          =     884.7686 (a.u.)^3
     number of atoms/cell      =           16
     number of atomic types    =            2
     number of electrons       =       144.00
     number of Kohn-Sham states=           72
     kinetic-energy cutoff     =      50.0000  Ry
     charge density cutoff     =     400.0000  Ry
     scf convergence threshold =      1.0E-08
     mixing beta               =       0.3000
     number of iterations used =            8  plain     mixing
     Exchange-correlation= PBE
                           (   1   4   3   4   0   0   0)

     celldm(1)=  11.121937  celldm(2)=   0.000000  celldm(3)=   0.000000
     celldm(4)=   0.000000  celldm(5)=   0.000000  celldm(6)=   0.000000

     crystal axes: (cart. coord. in units of alat)
               a(1) = (   1.000000   0.000000   0.000000 )
               a(2) = (  -0.250000   0.433013   0.000000 )
               a(3) = (   0.000000   0.000000   1.485210 )

     reciprocal axes: (cart. coord. in units 2 pi/alat)
               b(1) = (  1.000000  0.577350 -0.000000 )
               b(2) = (  0.000000  2.309401  0.000000 )
               b(3) = (  0.000000 -0.000000  0.673306 )

     PseudoPot. # 1 for Zn read from file:
     /home/jvc/QEspresso7.2/ZnO_database/pseudos/Zn.upf
     MD5 check sum: 7f56cabf9682ed8c977c2f7d0c5985c5
     Pseudo is Ultrasoft + core correction, Zval = 12.0
     Generated using &quot;atomic&quot; code by A. Dal Corso  v.6.2.2
     Using radial grid of 1201 points,  6 beta functions with:
                l(1) =   0
                l(2) =   0
                l(3) =   1
                l(4) =   1
                l(5) =   2
                l(6) =   2
     Q(r) pseudized with 0 coefficients

     PseudoPot. # 2 for O  read from file:
     /home/jvc/QEspresso7.2/ZnO_database/pseudos/O.upf
     MD5 check sum: 91400c9766925bcf19f520983a725ff0
     Pseudo is Ultrasoft + core correction, Zval =  6.0
     Generated using &quot;atomic&quot; code by A. Dal Corso  v.6.3MaX
     Using radial grid of 1095 points,  4 beta functions with:
                l(1) =   0
                l(2) =   0
                l(3) =   1
                l(4) =   1
     Q(r) pseudized with 0 coefficients

     atomic species   valence    mass     pseudopotential
        Zn            12.00    65.38000     Zn( 1.00)
        O              6.00    15.99900     O ( 1.00)

      2 Sym. Ops. (no inversion) found

                                    s                        frac. trans.

      isym =  1     identity

 cryst.   s( 1) = (     1          0          0      )
                  (     0          1          0      )
                  (     0          0          1      )

 cart.    s( 1) = (  1.0000000  0.0000000  0.0000000 )
                  (  0.0000000  1.0000000  0.0000000 )
                  (  0.0000000  0.0000000  1.0000000 )

      isym =  2     inv. 180 deg rotation - cryst. axis [0,1,0]

 cryst.   s( 2) = (     1          2          0      )
                  (     0         -1          0      )
                  (     0          0          1      )

 cart.    s( 2) = (  0.5000000  0.8660254  0.0000000 )
                  (  0.8660254 -0.5000000  0.0000000 )
                  (  0.0000000  0.0000000  1.0000000 )

   Cartesian axes

     site n.     atom                  positions (alat units)
         1           Zn  tau(   1) = (   0.2500000   0.1443376   0.3717729  )
         2           Zn  tau(   2) = (  -0.0000000   0.2886751   0.0004705  )
         3           O   tau(   3) = (   0.2500000   0.1443376   0.6532520  )
         4           O   tau(   4) = (  -0.0000000   0.2886751   0.2819495  )
         5           Zn  tau(   5) = (   0.2500000   0.1443376   1.1143778  )
         6           Zn  tau(   6) = (  -0.0000000   0.2886751   0.7430753  )
         7           O   tau(   7) = (   0.2500000   0.1443376   1.3958568  )
         8           O   tau(   8) = (  -0.0000000   0.2886751   1.0245544  )
         9           Zn  tau(   9) = (   0.7500000   0.1443376   0.3717729  )
        10           Zn  tau(  10) = (   0.5000000   0.2886751   0.0004705  )
        11           O   tau(  11) = (   0.7500000   0.1443376   0.6532520  )
        12           O   tau(  12) = (   0.5000000   0.2886751   0.2819495  )
        13           Zn  tau(  13) = (   0.7500000   0.1443376   1.1143778  )
        14           Zn  tau(  14) = (   0.5000000   0.2886751   0.7430753  )
        15           O   tau(  15) = (   0.7500000   0.1443376   1.3958568  )
        16           O   tau(  16) = (   0.5000000   0.2886751   1.0245544  )

   Crystallographic axes

     site n.     atom                  positions (cryst. coord.)
         1           Zn  tau(   1) = (  0.3333333  0.3333333  0.2503168  )
         2           Zn  tau(   2) = (  0.1666667  0.6666667  0.0003168  )
         3           O   tau(   3) = (  0.3333333  0.3333333  0.4398382  )
         4           O   tau(   4) = (  0.1666667  0.6666667  0.1898382  )
         5           Zn  tau(   5) = (  0.3333333  0.3333333  0.7503168  )
         6           Zn  tau(   6) = (  0.1666667  0.6666667  0.5003168  )
         7           O   tau(   7) = (  0.3333333  0.3333333  0.9398382  )
         8           O   tau(   8) = (  0.1666667  0.6666667  0.6898382  )
         9           Zn  tau(   9) = (  0.8333333  0.3333333  0.2503168  )
        10           Zn  tau(  10) = (  0.6666667  0.6666667  0.0003168  )
        11           O   tau(  11) = (  0.8333333  0.3333333  0.4398382  )
        12           O   tau(  12) = (  0.6666667  0.6666667  0.1898382  )
        13           Zn  tau(  13) = (  0.8333333  0.3333333  0.7503168  )
        14           Zn  tau(  14) = (  0.6666667  0.6666667  0.5003168  )
        15           O   tau(  15) = (  0.8333333  0.3333333  0.9398382  )
        16           O   tau(  16) = (  0.6666667  0.6666667  0.6898382  )

     number of k points=    80
                       cart. coord. in units 2pi/alat
        k(    1) = (   0.0000000   0.0000000   0.0000000), wk =   0.0092593
        k(    2) = (   0.0000000   0.0000000   0.1122176), wk =   0.0185185
        k(    3) = (   0.0000000   0.0000000   0.2244352), wk =   0.0185185
        k(    4) = (   0.0000000   0.0000000  -0.3366528), wk =   0.0092593
        k(    5) = (   0.0000000   0.3849002   0.0000000), wk =   0.0370370
        k(    6) = (   0.0000000   0.3849002   0.1122176), wk =   0.0370370
        k(    7) = (   0.0000000   0.3849002   0.2244352), wk =   0.0370370
        k(    8) = (   0.0000000   0.3849002  -0.3366528), wk =   0.0370370
        k(    9) = (   0.0000000   0.7698004   0.0000000), wk =   0.0370370
        k(   10) = (   0.0000000   0.7698004   0.1122176), wk =   0.0370370
        k(   11) = (   0.0000000   0.7698004   0.2244352), wk =   0.0370370
        k(   12) = (   0.0000000   0.7698004  -0.3366528), wk =   0.0370370
        k(   13) = (   0.0000000  -1.1547005   0.0000000), wk =   0.0092593
        k(   14) = (   0.0000000  -1.1547005   0.1122176), wk =   0.0185185
        k(   15) = (   0.0000000  -1.1547005   0.2244352), wk =   0.0185185
        k(   16) = (   0.0000000  -1.1547005  -0.3366528), wk =   0.0092593
        k(   17) = (   0.1666667   0.0962250   0.0000000), wk =   0.0185185
        k(   18) = (   0.1666667   0.0962250   0.1122176), wk =   0.0185185
        k(   19) = (   0.1666667   0.0962250   0.2244352), wk =   0.0185185
        k(   20) = (   0.1666667   0.0962250  -0.3366528), wk =   0.0185185
        k(   21) = (   0.1666667   0.4811252   0.0000000), wk =   0.0370370
        k(   22) = (   0.1666667   0.4811252   0.1122176), wk =   0.0370370
        k(   23) = (   0.1666667   0.4811252   0.2244352), wk =   0.0370370
        k(   24) = (   0.1666667   0.4811252  -0.3366528), wk =   0.0370370
        k(   25) = (   0.1666667   0.8660254   0.0000000), wk =   0.0185185
        k(   26) = (   0.1666667   0.8660254   0.1122176), wk =   0.0370370
        k(   27) = (   0.1666667   0.8660254   0.2244352), wk =   0.0370370
        k(   28) = (   0.1666667   0.8660254  -0.3366528), wk =   0.0185185
        k(   29) = (   0.1666667  -1.0584755   0.0000000), wk =   0.0185185
        k(   30) = (   0.1666667  -1.0584755   0.1122176), wk =   0.0185185
        k(   31) = (   0.1666667  -1.0584755   0.2244352), wk =   0.0185185
        k(   32) = (   0.1666667  -1.0584755  -0.3366528), wk =   0.0185185
        k(   33) = (   0.1666667  -0.6735753   0.0000000), wk =   0.0370370
        k(   34) = (   0.1666667  -0.6735753   0.1122176), wk =   0.0370370
        k(   35) = (   0.1666667  -0.6735753   0.2244352), wk =   0.0370370
        k(   36) = (   0.1666667  -0.6735753  -0.3366528), wk =   0.0370370
        k(   37) = (   0.1666667  -0.2886751   0.0000000), wk =   0.0185185
        k(   38) = (   0.1666667  -0.2886751   0.1122176), wk =   0.0370370
        k(   39) = (   0.1666667  -0.2886751   0.2244352), wk =   0.0370370
        k(   40) = (   0.1666667  -0.2886751  -0.3366528), wk =   0.0185185
        k(   41) = (   0.3333333   0.1924501   0.0000000), wk =   0.0185185
        k(   42) = (   0.3333333   0.1924501   0.1122176), wk =   0.0185185
        k(   43) = (   0.3333333   0.1924501   0.2244352), wk =   0.0185185
        k(   44) = (   0.3333333   0.1924501  -0.3366528), wk =   0.0185185
        k(   45) = (   0.3333333   0.5773503   0.0000000), wk =   0.0185185
        k(   46) = (   0.3333333   0.5773503   0.1122176), wk =   0.0370370
        k(   47) = (   0.3333333   0.5773503   0.2244352), wk =   0.0370370
        k(   48) = (   0.3333333   0.5773503  -0.3366528), wk =   0.0185185
        k(   49) = (   0.3333333  -0.9622504   0.0000000), wk =   0.0185185
        k(   50) = (   0.3333333  -0.9622504   0.1122176), wk =   0.0185185
        k(   51) = (   0.3333333  -0.9622504   0.2244352), wk =   0.0185185
        k(   52) = (   0.3333333  -0.9622504  -0.3366528), wk =   0.0185185
        k(   53) = (   0.3333333  -0.5773503   0.0000000), wk =   0.0185185
        k(   54) = (   0.3333333  -0.5773503   0.1122176), wk =   0.0370370
        k(   55) = (   0.3333333  -0.5773503   0.2244352), wk =   0.0370370
[...]
        k(   77) = (   0.3333333   0.0000000  -0.1666667), wk =   0.0185185
        k(   78) = (   0.3333333   0.0000000  -0.3333333), wk =   0.0185185
        k(   79) = (  -0.6666667   0.5000000  -0.1666667), wk =   0.0185185
        k(   80) = (  -0.6666667   0.5000000  -0.3333333), wk =   0.0185185

     Initial potential from superposition of free atoms

     starting charge     143.9702, renormalised to     144.0000
     Starting wfcs are  104 randomized atomic wfcs

     Self-consistent Calculation

     iteration #  1     ecut=    50.00 Ry     beta= 0.30
     Davidson diagonalization with overlap

     ethr =  1.00E-02,  avg # of iterations =  2.5

     total energy              =   -1444.54796308 Ry
     estimated scf accuracy    <       2.87852206 Ry

[...]

     c_bands:  1 eigenvalues not converged
     c_bands:  1 eigenvalues not converged
     ethr =  1.64E-07,  avg # of iterations = 14.1

[...]

     total energy              =   -1445.04839575 Ry
     estimated scf accuracy    <       0.00000002 Ry

     iteration # 18     ecut=    50.00 Ry     beta= 0.30
     Davidson diagonalization with overlap

     ethr =  1.67E-11,  avg # of iterations =  4.0

     End of self-consistent calculation

          k = 0.0000 0.0000 0.0000 (  5321 PWs)   bands (ev):

    -7.7744  -6.9608  -6.9608  -6.4630  -6.1444  -6.1444  -6.0941  -5.9437
     4.5002   4.5002   5.0813   5.0813   5.0854   5.1063   5.2187   5.8201
     5.8203   5.9134   5.9266   5.9266   5.9268   5.9268   6.1743   6.2221
     6.2222   6.2939   6.3630   6.3630   6.5575   6.5575   6.9406   7.2028
     8.2678   8.2678   8.3636   8.6674   8.6674   8.6674   8.6674   8.7036
     8.7764   8.7764   8.8499   8.8499   8.9087   8.9087   8.9825   9.0237
     9.2558   9.3297   9.5615   9.5615   9.7775  10.1448  10.3583  11.6973
    11.6973  11.9697  11.9697  12.4688  12.5208  12.5208  12.5438  12.5439
    12.8787  13.3492  13.3492  13.3494  13.3494  14.1310  14.1501  14.1503

     occupation numbers
     1.0000   1.0000   1.0000   1.0000   1.0000   1.0000   1.0000   1.0000
     1.0000   1.0000   1.0000   1.0000   1.0000   1.0000   1.0000   1.0000
     1.0000   1.0000   1.0000   1.0000   1.0000   1.0000   1.0000   1.0000
     1.0000   1.0000   1.0000   1.0000   1.0000   1.0000   1.0000   1.0000
     1.0000   1.0000   1.0000   1.0000   1.0000   1.0000   1.0000   1.0000
     1.0000   1.0000   1.0000   1.0000   1.0000   1.0000   1.0000   1.0000
     1.0000   1.0000   1.0000   1.0000   1.0000   1.0000   1.0000   1.0000
     1.0000   1.0000   1.0000   1.0000   1.0000   1.0000   1.0000   1.0000
     1.0000   1.0000   1.0000   1.0000   1.0000   1.0000   1.0000   1.0000

[...]

          k =-0.5000-0.2887 0.0000 (  5294 PWs)   bands (ev):

[...]

          k = 0.3333 0.1925-0.2244 (  5279 PWs)   bands (ev):

[...]

          k =-0.6667 0.7698-0.2244 (  5292 PWs)   bands (ev):

    -6.4346  -6.4346  -6.3056  -6.3056  -6.0239  -6.0239  -5.9522  -5.9522
     4.8267   4.8267   4.8937   4.8937   5.0800   5.0800   5.2730   5.2730
     6.0206   6.0206   6.0280   6.0280   6.1165   6.1165   6.1884   6.1884
     6.6897   6.6897   6.8098   6.8098   6.8535   6.8535   7.0265   7.0265
     8.2493   8.2493   8.4391   8.4391   8.5814   8.5814   8.6567   8.6567
     8.9435   8.9435   8.9547   8.9547   9.0561   9.0561   9.1573   9.1573
     9.3152   9.3152   9.5166   9.5166   9.8195   9.8195  10.0429  10.0429
    10.3468  10.3468  10.5501  10.5501  10.9732  10.9732  11.6066  11.6066
    11.9626  11.9626  12.2486  12.2486  12.6399  12.6399  12.8184  12.8184

     occupation numbers
     1.0000   1.0000   1.0000   1.0000   1.0000   1.0000   1.0000   1.0000
     1.0000   1.0000   1.0000   1.0000   1.0000   1.0000   1.0000   1.0000
     1.0000   1.0000   1.0000   1.0000   1.0000   1.0000   1.0000   1.0000
     1.0000   1.0000   1.0000   1.0000   1.0000   1.0000   1.0000   1.0000
     1.0000   1.0000   1.0000   1.0000   1.0000   1.0000   1.0000   1.0000
     1.0000   1.0000   1.0000   1.0000   1.0000   1.0000   1.0000   1.0000
     1.0000   1.0000   1.0000   1.0000   1.0000   1.0000   1.0000   1.0000
     1.0000   1.0000   1.0000   1.0000   1.0000   1.0000   1.0000   1.0000
     1.0000   1.0000   1.0000   1.0000   1.0000   1.0000   1.0000   1.0000

     highest occupied level (ev):    14.1503

!    total energy              =   -1445.04839575 Ry
     estimated scf accuracy    <          1.1E-09 Ry

     The total energy is the sum of the following terms:
     one-electron contribution =    -428.70958843 Ry
     hartree contribution      =     410.13226649 Ry
     xc contribution           =    -442.44315995 Ry
     ewald contribution        =    -984.02791386 Ry

     convergence has been achieved in  18 iterations

     Forces acting on atoms (cartesian axes, Ry/au):

     atom    1 type  1   force =     0.00000954    0.00000551   -0.15380784
     atom    2 type  1   force =    -0.00001663   -0.00000960   -0.15379475
     atom    3 type  2   force =    -0.00000164   -0.00000095    0.15379867
     atom    4 type  2   force =     0.00000226    0.00000131    0.15379823
     atom    5 type  1   force =     0.00001930    0.00001115   -0.15379578
     atom    6 type  1   force =    -0.00002801   -0.00001617   -0.15379459
     atom    7 type  2   force =    -0.00000195   -0.00000113    0.15379883
     atom    8 type  2   force =     0.00000205    0.00000118    0.15379827
     atom    9 type  1   force =     0.00002604    0.00001503   -0.15379906
     atom   10 type  1   force =    -0.00001956   -0.00001130   -0.15380286
     atom   11 type  2   force =    -0.00000182   -0.00000105    0.15379830
     atom   12 type  2   force =     0.00000170    0.00000098    0.15379819
     atom   13 type  1   force =     0.00001787    0.00001032   -0.15380292
     atom   14 type  1   force =    -0.00000861   -0.00000497   -0.15378987
     atom   15 type  2   force =    -0.00000241   -0.00000139    0.15379901
     atom   16 type  2   force =     0.00000188    0.00000109    0.15379818
     The non-local contrib.  to forces
     atom    1 type  1   force =    -0.00002810   -0.00001622   -0.30119607
     atom    2 type  1   force =     0.00002389    0.00001380   -0.30118947
     atom    3 type  2   force =    -0.00012613   -0.00007282   -0.15046172
     atom    4 type  2   force =     0.00012911    0.00007454   -0.15045857
     atom    5 type  1   force =    -0.00002294   -0.00001324   -0.30118879
     atom    6 type  1   force =     0.00001798    0.00001038   -0.30118975
     atom    7 type  2   force =    -0.00012780   -0.00007379   -0.15046001
     atom    8 type  2   force =     0.00012880    0.00007437   -0.15046085
     atom    9 type  1   force =    -0.00001886   -0.00001089   -0.30119132
     atom   10 type  1   force =     0.00002269    0.00001310   -0.30119449
     atom   11 type  2   force =    -0.00012922   -0.00007460   -0.15046224
     atom   12 type  2   force =     0.00012707    0.00007337   -0.15046046
     atom   13 type  1   force =    -0.00002403   -0.00001387   -0.30119340
     atom   14 type  1   force =     0.00002876    0.00001660   -0.30118574
     atom   15 type  2   force =    -0.00012820   -0.00007402   -0.15045944
     atom   16 type  2   force =     0.00012734    0.00007352   -0.15046015
     The ionic contribution  to forces
     atom    1 type  1   force =    -0.00000000    0.00000000   -2.15847727
     atom    2 type  1   force =     0.00000000   -0.00000000   -2.15847727
     atom    3 type  2   force =    -0.00000000    0.00000000    2.15847727
     atom    4 type  2   force =     0.00000000   -0.00000000    2.15847727
     atom    5 type  1   force =    -0.00000000    0.00000000   -2.15847727
     atom    6 type  1   force =     0.00000000   -0.00000000   -2.15847727
     atom    7 type  2   force =    -0.00000000    0.00000000    2.15847727
     atom    8 type  2   force =     0.00000000   -0.00000000    2.15847727
     atom    9 type  1   force =    -0.00000000    0.00000000   -2.15847727
     atom   10 type  1   force =     0.00000000   -0.00000000   -2.15847727
     atom   11 type  2   force =    -0.00000000    0.00000000    2.15847727
     atom   12 type  2   force =     0.00000000   -0.00000000    2.15847727
     atom   13 type  1   force =    -0.00000000    0.00000000   -2.15847727
     atom   14 type  1   force =     0.00000000   -0.00000000   -2.15847727
     atom   15 type  2   force =    -0.00000000    0.00000000    2.15847727
     atom   16 type  2   force =     0.00000000   -0.00000000    2.15847727
     The local contribution  to forces
     atom    1 type  1   force =     0.00005537    0.00003197    2.27264087
     atom    2 type  1   force =    -0.00004399   -0.00002548    2.27261824
     atom    3 type  2   force =     0.00012285    0.00007093   -1.85474763
     atom    4 type  2   force =    -0.00011857   -0.00006848   -1.85474431
     atom    5 type  1   force =     0.00003774    0.00002179    2.27261939
     atom    6 type  1   force =    -0.00002358   -0.00001370    2.27261959
     atom    7 type  2   force =     0.00012250    0.00007072   -1.85474518
     atom    8 type  2   force =    -0.00011952   -0.00006903   -1.85474814
     atom    9 type  1   force =     0.00002626    0.00001516    2.27262148
     atom   10 type  1   force =    -0.00003716   -0.00002154    2.27263332
     atom   11 type  2   force =     0.00011815    0.00006822   -1.85474959
     atom   12 type  2   force =    -0.00012283   -0.00007094   -1.85474169
     atom   13 type  1   force =     0.00004354    0.00002514    2.27263362
     atom   14 type  1   force =    -0.00005730   -0.00003317    2.27261038
     atom   15 type  2   force =     0.00012016    0.00006937   -1.85474415
     atom   16 type  2   force =    -0.00012234   -0.00007065   -1.85474889
     The core correction contribution to forces
     atom    1 type  1   force =    -0.00000173   -0.00000100    0.03325053
     atom    2 type  1   force =     0.00000171    0.00000098    0.03325081
     atom    3 type  2   force =     0.00000139    0.00000080    0.00053278
     atom    4 type  2   force =    -0.00000143   -0.00000083    0.00053273
     atom    5 type  1   force =    -0.00000146   -0.00000084    0.03325073
     atom    6 type  1   force =     0.00000137    0.00000078    0.03325076
     atom    7 type  2   force =     0.00000142    0.00000082    0.00053275
     atom    8 type  2   force =    -0.00000143   -0.00000082    0.00053275
     atom    9 type  1   force =    -0.00000138   -0.00000079    0.03325097
     atom   10 type  1   force =     0.00000143    0.00000082    0.03325065
     atom   11 type  2   force =     0.00000144    0.00000083    0.00053278
     atom   12 type  2   force =    -0.00000141   -0.00000081    0.00053276
     atom   13 type  1   force =    -0.00000168   -0.00000097    0.03325053
     atom   14 type  1   force =     0.00000178    0.00000101    0.03325077
     atom   15 type  2   force =     0.00000142    0.00000082    0.00053275
     atom   16 type  2   force =    -0.00000141   -0.00000081    0.00053275
     The Hubbard contrib.    to forces
     atom    1 type  1   force =     0.00000000    0.00000000    0.00000000
     atom    2 type  1   force =     0.00000000    0.00000000    0.00000000
     atom    3 type  2   force =     0.00000000    0.00000000    0.00000000
     atom    4 type  2   force =     0.00000000    0.00000000    0.00000000
     atom    5 type  1   force =     0.00000000    0.00000000    0.00000000
     atom    6 type  1   force =     0.00000000    0.00000000    0.00000000
     atom    7 type  2   force =     0.00000000    0.00000000    0.00000000
     atom    8 type  2   force =     0.00000000    0.00000000    0.00000000
     atom    9 type  1   force =     0.00000000    0.00000000    0.00000000
     atom   10 type  1   force =     0.00000000    0.00000000    0.00000000
     atom   11 type  2   force =     0.00000000    0.00000000    0.00000000
     atom   12 type  2   force =     0.00000000    0.00000000    0.00000000
     atom   13 type  1   force =     0.00000000    0.00000000    0.00000000
     atom   14 type  1   force =     0.00000000    0.00000000    0.00000000
     atom   15 type  2   force =     0.00000000    0.00000000    0.00000000
     atom   16 type  2   force =     0.00000000    0.00000000    0.00000000
     The SCF correction term to forces
     atom    1 type  1   force =    -0.00001604   -0.00000926   -0.00002452
     atom    2 type  1   force =     0.00000175    0.00000101    0.00000433
     atom    3 type  2   force =     0.00000022    0.00000012   -0.00000065
     atom    4 type  2   force =    -0.00000687   -0.00000397   -0.00000752
     atom    5 type  1   force =     0.00000593    0.00000342    0.00000153
     atom    6 type  1   force =    -0.00002377   -0.00001372    0.00000347
     atom    7 type  2   force =     0.00000190    0.00000110   -0.00000464
     atom    8 type  2   force =    -0.00000583   -0.00000337   -0.00000138
     atom    9 type  1   force =     0.00001999    0.00001154   -0.00000153
     atom   10 type  1   force =    -0.00000652   -0.00000377   -0.00001369
     atom   11 type  2   force =     0.00000778    0.00000449    0.00000145
     atom   12 type  2   force =    -0.00000116   -0.00000067   -0.00000831
     atom   13 type  1   force =     0.00000002    0.00000001   -0.00001502
     atom   14 type  1   force =     0.00001816    0.00001048    0.00001338
     atom   15 type  2   force =     0.00000418    0.00000242   -0.00000604
     atom   16 type  2   force =    -0.00000174   -0.00000100   -0.00000142

     Total force =     0.615194     Total SCF correction =     0.000062

     General routines

     Parallel routines

   This run was terminated on:  18:47:30  28Aug2025

   JOB DONE.
Note: The following floating-point exceptions are signalling: IEEE_UNDERFLOW_FLAG IEEE_DENORMAL
Note: The following floating-point exceptions are signalling: IEEE_UNDERFLOW_FLAG IEEE_DENORMAL
Note: The following floating-point exceptions are signalling: IEEE_UNDERFLOW_FLAG IEEE_DENORMAL
Note: The following floating-point exceptions are signalling: IEEE_UNDERFLOW_FLAG IEEE_DENORMAL
Note: The following floating-point exceptions are signalling: IEEE_UNDERFLOW_FLAG IEEE_DENORMAL
Note: The following floating-point exceptions are signalling: IEEE_UNDERFLOW_FLAG IEEE_DENORMAL
Note: The following floating-point exceptions are signalling: IEEE_UNDERFLOW_FLAG IEEE_DENORMAL
Note: The following floating-point exceptions are signalling: IEEE_UNDERFLOW_FLAG IEEE_DENORMAL
Note: The following floating-point exceptions are signalling: IEEE_UNDERFLOW_FLAG IEEE_DENORMAL
Note: The following floating-point exceptions are signalling: IEEE_UNDERFLOW_FLAG IEEE_DENORMAL
Note: The following floating-point exceptions are signalling: IEEE_UNDERFLOW_FLAG IEEE_DENORMAL
Note: The following floating-point exceptions are signalling: IEEE_UNDERFLOW_FLAG IEEE_DENORMAL
Note: The following floating-point exceptions are signalling: IEEE_UNDERFLOW_FLAG IEEE_DENORMAL
Note: The following floating-point exceptions are signalling: IEEE_UNDERFLOW_FLAG IEEE_DENORMAL
Note: The following floating-point exceptions are signalling: IEEE_UNDERFLOW_FLAG IEEE_DENORMAL
Note: The following floating-point exceptions are signalling: IEEE_UNDERFLOW_FLAG IEEE_DENORMAL
Note: The following floating-point exceptions are signalling: IEEE_UNDERFLOW_FLAG IEEE_DENORMAL
Note: The following floating-point exceptions are signalling: IEEE_UNDERFLOW_FLAG IEEE_DENORMAL
Note: The following floating-point exceptions are signalling: IEEE_UNDERFLOW_FLAG IEEE_DENORMAL
Note: The following floating-point exceptions are signalling: IEEE_UNDERFLOW_FLAG IEEE_DENORMAL
Note: The following floating-point exceptions are signalling: IEEE_UNDERFLOW_FLAG IEEE_DENORMAL
Note: The following floating-point exceptions are signalling: IEEE_UNDERFLOW_FLAG IEEE_DENORMAL
Note: The following floating-point exceptions are signalling: IEEE_UNDERFLOW_FLAG IEEE_DENORMAL
Note: The following floating-point exceptions are signalling: IEEE_UNDERFLOW_FLAG IEEE_DENORMAL
Note: The following floating-point exceptions are signalling: IEEE_UNDERFLOW_FLAG IEEE_DENORMAL
Note: The following floating-point exceptions are signalling: IEEE_UNDERFLOW_FLAG IEEE_DENORMAL
Note: The following floating-point exceptions are signalling: IEEE_UNDERFLOW_FLAG IEEE_DENORMAL
Note: The following floating-point exceptions are signalling: IEEE_UNDERFLOW_FLAG IEEE_DENORMAL
Note: The following floating-point exceptions are signalling: IEEE_UNDERFLOW_FLAG IEEE_DENORMAL
Note: The following floating-point exceptions are signalling: IEEE_UNDERFLOW_FLAG IEEE_DENORMAL
Note: The following floating-point exceptions are signalling: IEEE_UNDERFLOW_FLAG IEEE_DENORMAL
Note: The following floating-point exceptions are signalling: IEEE_UNDERFLOW_FLAG IEEE_DENORMAL