     Program PWSCF v.7.0 starts on 29Aug2025 at 20:10:28

     K-points division:     npool     =       8
     R & G space division:  proc/nbgrp/npool/nimage =       4

     Reading input from /home/jvc/QEspresso7.2/ZnO_database/scripts/cell212.in/ZnO-3.60-1.74-212.in
Warning: card &CELL ignored
Warning: card / ignored
Warning: card &FCP ignored
Warning: card / ignored
Warning: card &RISM ignored
Warning: card / ignored

     Current dimensions of program PWSCF are:
     Max number of different atomic species (ntypx) = 10
     Max number of k-points (npk) =  40000
     Max angular momentum in pseudopotentials (lmaxx) =  4
     file Zn.upf: wavefunction(s)  3D renormalized
     Found identity + (  0.0000  0.0000 -0.5000) symmetry
     This is a supercell, fractional translations are disabled
     Message from routine setup:
     using ibrav=0 with symmetry is DISCOURAGED, use correct ibrav instead

     Using Slab Decomposition

     bravais-lattice index     =            0
     lattice parameter (alat)  =      13.5935  a.u.
     unit-cell volume          =    1896.3399 (a.u.)^3
     number of atoms/cell      =           16
     number of atomic types    =            2
     number of electrons       =       144.00
     number of Kohn-Sham states=           72
     kinetic-energy cutoff     =      50.0000  Ry
     charge density cutoff     =     400.0000  Ry
     scf convergence threshold =      1.0E-08
     mixing beta               =       0.3000
     number of iterations used =            8  plain     mixing
     Exchange-correlation= PBE
                           (   1   4   3   4   0   0   0)

     celldm(1)=  13.593479  celldm(2)=   0.000000  celldm(3)=   0.000000
     celldm(4)=   0.000000  celldm(5)=   0.000000  celldm(6)=   0.000000

     crystal axes: (cart. coord. in units of alat)
               a(1) = (   1.000000   0.000000   0.000000 )
               a(2) = (  -0.250000   0.433013   0.000000 )
               a(3) = (   0.000000   0.000000   1.743507 )

     reciprocal axes: (cart. coord. in units 2 pi/alat)
               b(1) = (  1.000000  0.577350 -0.000000 )
               b(2) = (  0.000000  2.309401  0.000000 )
               b(3) = (  0.000000 -0.000000  0.573557 )

     PseudoPot. # 1 for Zn read from file:
     /home/jvc/QEspresso7.2/ZnO_database/pseudos/Zn.upf
     MD5 check sum: 7f56cabf9682ed8c977c2f7d0c5985c5
     Pseudo is Ultrasoft + core correction, Zval = 12.0
     Generated using &quot;atomic&quot; code by A. Dal Corso  v.6.2.2
     Using radial grid of 1201 points,  6 beta functions with:
                l(1) =   0
                l(2) =   0
                l(3) =   1
                l(4) =   1
                l(5) =   2
                l(6) =   2
     Q(r) pseudized with 0 coefficients

     PseudoPot. # 2 for O  read from file:
     /home/jvc/QEspresso7.2/ZnO_database/pseudos/O.upf
     MD5 check sum: 91400c9766925bcf19f520983a725ff0
     Pseudo is Ultrasoft + core correction, Zval =  6.0
     Generated using &quot;atomic&quot; code by A. Dal Corso  v.6.3MaX
     Using radial grid of 1095 points,  4 beta functions with:
                l(1) =   0
                l(2) =   0
                l(3) =   1
                l(4) =   1
     Q(r) pseudized with 0 coefficients

     atomic species   valence    mass     pseudopotential
        Zn            12.00    65.38000     Zn( 1.00)
        O              6.00    15.99900     O ( 1.00)

      2 Sym. Ops. (no inversion) found

                                    s                        frac. trans.

      isym =  1     identity

 cryst.   s( 1) = (     1          0          0      )
                  (     0          1          0      )
                  (     0          0          1      )

 cart.    s( 1) = (  1.0000000  0.0000000  0.0000000 )
                  (  0.0000000  1.0000000  0.0000000 )
                  (  0.0000000  0.0000000  1.0000000 )

      isym =  2     inv. 180 deg rotation - cryst. axis [0,1,0]

 cryst.   s( 2) = (     1          2          0      )
                  (     0         -1          0      )
                  (     0          0          1      )

 cart.    s( 2) = (  0.5000000  0.8660254  0.0000000 )
                  (  0.8660254 -0.5000000  0.0000000 )
                  (  0.0000000  0.0000000  1.0000000 )

   Cartesian axes

     site n.     atom                  positions (alat units)
         1           Zn  tau(   1) = (   0.2500000   0.1443376   0.4364291  )
         2           Zn  tau(   2) = (  -0.0000000   0.2886751   0.0005523  )
         3           O   tau(   3) = (   0.2500000   0.1443376   0.7668610  )
         4           O   tau(   4) = (  -0.0000000   0.2886751   0.3309842  )
         5           Zn  tau(   5) = (   0.2500000   0.1443376   1.3081826  )
         6           Zn  tau(   6) = (  -0.0000000   0.2886751   0.8723058  )
         7           O   tau(   7) = (   0.2500000   0.1443376   1.6386145  )
         8           O   tau(   8) = (  -0.0000000   0.2886751   1.2027378  )
         9           Zn  tau(   9) = (   0.7500000   0.1443376   0.4364291  )
        10           Zn  tau(  10) = (   0.5000000   0.2886751   0.0005523  )
        11           O   tau(  11) = (   0.7500000   0.1443376   0.7668610  )
        12           O   tau(  12) = (   0.5000000   0.2886751   0.3309842  )
        13           Zn  tau(  13) = (   0.7500000   0.1443376   1.3081826  )
        14           Zn  tau(  14) = (   0.5000000   0.2886751   0.8723058  )
        15           O   tau(  15) = (   0.7500000   0.1443376   1.6386145  )
        16           O   tau(  16) = (   0.5000000   0.2886751   1.2027378  )

   Crystallographic axes

     site n.     atom                  positions (cryst. coord.)
         1           Zn  tau(   1) = (  0.3333333  0.3333333  0.2503168  )
         2           Zn  tau(   2) = (  0.1666667  0.6666667  0.0003168  )
         3           O   tau(   3) = (  0.3333333  0.3333333  0.4398382  )
         4           O   tau(   4) = (  0.1666667  0.6666667  0.1898382  )
         5           Zn  tau(   5) = (  0.3333333  0.3333333  0.7503168  )
         6           Zn  tau(   6) = (  0.1666667  0.6666667  0.5003168  )
         7           O   tau(   7) = (  0.3333333  0.3333333  0.9398382  )
         8           O   tau(   8) = (  0.1666667  0.6666667  0.6898382  )
         9           Zn  tau(   9) = (  0.8333333  0.3333333  0.2503168  )
        10           Zn  tau(  10) = (  0.6666667  0.6666667  0.0003168  )
        11           O   tau(  11) = (  0.8333333  0.3333333  0.4398382  )
        12           O   tau(  12) = (  0.6666667  0.6666667  0.1898382  )
        13           Zn  tau(  13) = (  0.8333333  0.3333333  0.7503168  )
        14           Zn  tau(  14) = (  0.6666667  0.6666667  0.5003168  )
        15           O   tau(  15) = (  0.8333333  0.3333333  0.9398382  )
        16           O   tau(  16) = (  0.6666667  0.6666667  0.6898382  )

     number of k points=    80
                       cart. coord. in units 2pi/alat
        k(    1) = (   0.0000000   0.0000000   0.0000000), wk =   0.0092593
        k(    2) = (   0.0000000   0.0000000   0.0955928), wk =   0.0185185
        k(    3) = (   0.0000000   0.0000000   0.1911855), wk =   0.0185185
        k(    4) = (   0.0000000   0.0000000  -0.2867783), wk =   0.0092593
        k(    5) = (   0.0000000   0.3849002   0.0000000), wk =   0.0370370
        k(    6) = (   0.0000000   0.3849002   0.0955928), wk =   0.0370370
        k(    7) = (   0.0000000   0.3849002   0.1911855), wk =   0.0370370
        k(    8) = (   0.0000000   0.3849002  -0.2867783), wk =   0.0370370
        k(    9) = (   0.0000000   0.7698004   0.0000000), wk =   0.0370370
        k(   10) = (   0.0000000   0.7698004   0.0955928), wk =   0.0370370
        k(   11) = (   0.0000000   0.7698004   0.1911855), wk =   0.0370370
        k(   12) = (   0.0000000   0.7698004  -0.2867783), wk =   0.0370370
        k(   13) = (   0.0000000  -1.1547005   0.0000000), wk =   0.0092593
        k(   14) = (   0.0000000  -1.1547005   0.0955928), wk =   0.0185185
        k(   15) = (   0.0000000  -1.1547005   0.1911855), wk =   0.0185185
        k(   16) = (   0.0000000  -1.1547005  -0.2867783), wk =   0.0092593
        k(   17) = (   0.1666667   0.0962250   0.0000000), wk =   0.0185185
        k(   18) = (   0.1666667   0.0962250   0.0955928), wk =   0.0185185
        k(   19) = (   0.1666667   0.0962250   0.1911855), wk =   0.0185185
        k(   20) = (   0.1666667   0.0962250  -0.2867783), wk =   0.0185185
        k(   21) = (   0.1666667   0.4811252   0.0000000), wk =   0.0370370
        k(   22) = (   0.1666667   0.4811252   0.0955928), wk =   0.0370370
        k(   23) = (   0.1666667   0.4811252   0.1911855), wk =   0.0370370
        k(   24) = (   0.1666667   0.4811252  -0.2867783), wk =   0.0370370
        k(   25) = (   0.1666667   0.8660254   0.0000000), wk =   0.0185185
        k(   26) = (   0.1666667   0.8660254   0.0955928), wk =   0.0370370
        k(   27) = (   0.1666667   0.8660254   0.1911855), wk =   0.0370370
        k(   28) = (   0.1666667   0.8660254  -0.2867783), wk =   0.0185185
        k(   29) = (   0.1666667  -1.0584755   0.0000000), wk =   0.0185185
        k(   30) = (   0.1666667  -1.0584755   0.0955928), wk =   0.0185185
        k(   31) = (   0.1666667  -1.0584755   0.1911855), wk =   0.0185185
        k(   32) = (   0.1666667  -1.0584755  -0.2867783), wk =   0.0185185
        k(   33) = (   0.1666667  -0.6735753   0.0000000), wk =   0.0370370
        k(   34) = (   0.1666667  -0.6735753   0.0955928), wk =   0.0370370
        k(   35) = (   0.1666667  -0.6735753   0.1911855), wk =   0.0370370
        k(   36) = (   0.1666667  -0.6735753  -0.2867783), wk =   0.0370370
        k(   37) = (   0.1666667  -0.2886751   0.0000000), wk =   0.0185185
        k(   38) = (   0.1666667  -0.2886751   0.0955928), wk =   0.0370370
        k(   39) = (   0.1666667  -0.2886751   0.1911855), wk =   0.0370370
        k(   40) = (   0.1666667  -0.2886751  -0.2867783), wk =   0.0185185
        k(   41) = (   0.3333333   0.1924501   0.0000000), wk =   0.0185185
        k(   42) = (   0.3333333   0.1924501   0.0955928), wk =   0.0185185
        k(   43) = (   0.3333333   0.1924501   0.1911855), wk =   0.0185185
        k(   44) = (   0.3333333   0.1924501  -0.2867783), wk =   0.0185185
        k(   45) = (   0.3333333   0.5773503   0.0000000), wk =   0.0185185
        k(   46) = (   0.3333333   0.5773503   0.0955928), wk =   0.0370370
        k(   47) = (   0.3333333   0.5773503   0.1911855), wk =   0.0370370
        k(   48) = (   0.3333333   0.5773503  -0.2867783), wk =   0.0185185
        k(   49) = (   0.3333333  -0.9622504   0.0000000), wk =   0.0185185
        k(   50) = (   0.3333333  -0.9622504   0.0955928), wk =   0.0185185
        k(   51) = (   0.3333333  -0.9622504   0.1911855), wk =   0.0185185
        k(   52) = (   0.3333333  -0.9622504  -0.2867783), wk =   0.0185185
        k(   53) = (   0.3333333  -0.5773503   0.0000000), wk =   0.0185185
        k(   54) = (   0.3333333  -0.5773503   0.0955928), wk =   0.0370370
        k(   55) = (   0.3333333  -0.5773503   0.1911855), wk =   0.0370370
[...]

     starting charge     143.9702, renormalised to     144.0000
     Starting wfcs are  104 randomized atomic wfcs

     Self-consistent Calculation

     iteration #  1     ecut=    50.00 Ry     beta= 0.30
     Davidson diagonalization with overlap

     ethr =  1.00E-02,  avg # of iterations =  1.1

     total energy              =   -1445.07955430 Ry
     estimated scf accuracy    <       3.69876401 Ry

[...]

     c_bands:  1 eigenvalues not converged
     c_bands:  1 eigenvalues not converged
     c_bands:  1 eigenvalues not converged
     c_bands:  1 eigenvalues not converged
     c_bands:  2 eigenvalues not converged
     ethr =  9.31E-09,  avg # of iterations = 15.4

[...]

     c_bands:  1 eigenvalues not converged
     c_bands:  1 eigenvalues not converged
     c_bands:  1 eigenvalues not converged
     ethr =  9.31E-09,  avg # of iterations = 14.9

[...]

     total energy              =   -1445.99251396 Ry
     estimated scf accuracy    <       0.00000032 Ry

     iteration # 26     ecut=    50.00 Ry     beta= 0.30
     Davidson diagonalization with overlap

     ethr =  2.25E-10,  avg # of iterations =  5.8

     End of self-consistent calculation

          k = 0.0000 0.0000 0.0000 ( 11389 PWs)   bands (ev):

   -13.2232 -13.1096 -13.1096 -12.9932 -12.9323 -12.8965 -12.8965 -12.8623
    -2.1767  -2.1764  -2.1502  -2.1494  -2.1494  -2.1492  -2.1492  -2.1384
    -2.1187  -2.1187  -2.1139  -2.1137  -2.0783  -2.0783  -2.0544  -1.9865
    -1.9721  -1.9721  -1.8941  -1.8834  -1.8269  -1.8269  -1.7964  -1.7877
    -1.7877  -1.7723  -1.7551  -1.7551  -1.7551  -1.7551  -1.7303  -1.7303
    -1.7135  -1.7093  -1.7093  -1.7001  -1.6784  -1.6763  -1.6763  -1.6619
    -0.5201  -0.3438  -0.2849  -0.2849   0.0526   0.6254   0.6254   1.0037
     1.5825   1.7739   1.7739   1.8702   1.8702   1.9186   2.1573   2.3400
     2.3409   2.4451   2.5001   2.5001   2.5010   2.5010   2.6592   2.6601

     occupation numbers
     1.0000   1.0000   1.0000   1.0000   1.0000   1.0000   1.0000   1.0000
     1.0000   1.0000   1.0000   1.0000   1.0000   1.0000   1.0000   1.0000
     1.0000   1.0000   1.0000   1.0000   1.0000   1.0000   1.0000   1.0000
     1.0000   1.0000   1.0000   1.0000   1.0000   1.0000   1.0000   1.0000
     1.0000   1.0000   1.0000   1.0000   1.0000   1.0000   1.0000   1.0000
     1.0000   1.0000   1.0000   1.0000   1.0000   1.0000   1.0000   1.0000
     1.0000   1.0000   1.0000   1.0000   1.0000   1.0000   1.0000   1.0000
     1.0000   1.0000   1.0000   1.0000   1.0000   1.0000   1.0000   1.0000
     1.0000   1.0000   1.0000   1.0000   1.0000   1.0000   1.0000   1.0000

[...]

          k =-0.5000-0.2887 0.0000 ( 11326 PWs)   bands (ev):

[...]

          k = 0.3333 0.1925-0.1912 ( 11330 PWs)   bands (ev):

[...]

          k =-0.6667 0.7698-0.1912 ( 11310 PWs)   bands (ev):

   -12.9293 -12.9293 -12.9156 -12.9155 -12.8791 -12.8790 -12.8661 -12.8661
    -2.1202  -2.1202  -2.1001  -2.1001  -2.0416  -2.0416  -2.0347  -2.0347
    -1.9986  -1.9986  -1.9636  -1.9636  -1.9365  -1.9365  -1.9066  -1.9066
    -1.8676  -1.8676  -1.8604  -1.8604  -1.8603  -1.8603  -1.8463  -1.8463
    -1.7794  -1.7794  -1.7553  -1.7553  -1.7360  -1.7360  -1.7290  -1.7290
    -1.6769  -1.6769  -1.6708  -1.6708  -1.6327  -1.6327  -1.6126  -1.6126
    -0.1571  -0.1571  -0.1428  -0.1428  -0.0109  -0.0109   0.0939   0.0939
     1.0919   1.0919   1.2740   1.2740   1.3491   1.3491   1.5694   1.5694
     1.6985   1.6986   1.8157   1.8157   2.0000   2.0000   2.0028   2.0028

     occupation numbers
     1.0000   1.0000   1.0000   1.0000   1.0000   1.0000   1.0000   1.0000
     1.0000   1.0000   1.0000   1.0000   1.0000   1.0000   1.0000   1.0000
     1.0000   1.0000   1.0000   1.0000   1.0000   1.0000   1.0000   1.0000
     1.0000   1.0000   1.0000   1.0000   1.0000   1.0000   1.0000   1.0000
     1.0000   1.0000   1.0000   1.0000   1.0000   1.0000   1.0000   1.0000
     1.0000   1.0000   1.0000   1.0000   1.0000   1.0000   1.0000   1.0000
     1.0000   1.0000   1.0000   1.0000   1.0000   1.0000   1.0000   1.0000
     1.0000   1.0000   1.0000   1.0000   1.0000   1.0000   1.0000   1.0000
     1.0000   1.0000   1.0000   1.0000   1.0000   1.0000   1.0000   1.0000

     highest occupied level (ev):     2.6601

!    total energy              =   -1445.99251404 Ry
     estimated scf accuracy    <          5.6E-09 Ry

     The total energy is the sum of the following terms:
     one-electron contribution =    -778.31865451 Ry
     hartree contribution      =     532.33729694 Ry
     xc contribution           =    -435.76089556 Ry
     ewald contribution        =    -764.25026091 Ry

     convergence has been achieved in  26 iterations

     Forces acting on atoms (cartesian axes, Ry/au):

     atom    1 type  1   force =    -0.00000748   -0.00000432   -0.01420985
     atom    2 type  1   force =     0.00001336    0.00000771   -0.01420610
     atom    3 type  2   force =    -0.00001220   -0.00000704    0.01420973
     atom    4 type  2   force =     0.00001234    0.00000712    0.01420954
     atom    5 type  1   force =    -0.00001279   -0.00000739   -0.01420734
     atom    6 type  1   force =     0.00001468    0.00000847   -0.01421903
     atom    7 type  2   force =    -0.00001218   -0.00000703    0.01421071
     atom    8 type  2   force =     0.00001232    0.00000711    0.01421019
     atom    9 type  1   force =    -0.00001485   -0.00000857   -0.01421134
     atom   10 type  1   force =     0.00001061    0.00000612   -0.01420170
     atom   11 type  2   force =    -0.00001270   -0.00000733    0.01420891
     atom   12 type  2   force =     0.00001194    0.00000689    0.01420991
     atom   13 type  1   force =    -0.00001090   -0.00000629   -0.01420721
     atom   14 type  1   force =     0.00000852    0.00000492   -0.01421707
     atom   15 type  2   force =    -0.00001233   -0.00000712    0.01421061
     atom   16 type  2   force =     0.00001167    0.00000674    0.01421002
     The non-local contrib.  to forces
     atom    1 type  1   force =     0.00003228    0.00001864    0.16839117
     atom    2 type  1   force =    -0.00003028   -0.00001748    0.16839359
     atom    3 type  2   force =    -0.00020259   -0.00011697    0.20933535
     atom    4 type  2   force =     0.00020382    0.00011768    0.20933499
     atom    5 type  1   force =     0.00003064    0.00001769    0.16839152
     atom    6 type  1   force =    -0.00002985   -0.00001723    0.16838743
     atom    7 type  2   force =    -0.00020299   -0.00011720    0.20933295
     atom    8 type  2   force =     0.00020331    0.00011738    0.20933413
     atom    9 type  1   force =     0.00003036    0.00001753    0.16839049
     atom   10 type  1   force =    -0.00003169   -0.00001830    0.16839320
     atom   11 type  2   force =    -0.00020491   -0.00011831    0.20933445
     atom   12 type  2   force =     0.00020388    0.00011771    0.20933316
     atom   13 type  1   force =     0.00003029    0.00001749    0.16839206
     atom   14 type  1   force =    -0.00003158   -0.00001823    0.16838797
     atom   15 type  2   force =    -0.00020222   -0.00011675    0.20933276
     atom   16 type  2   force =     0.00020363    0.00011756    0.20933344
     The ionic contribution  to forces
     atom    1 type  1   force =     0.00000000    0.00000000    1.30007236
     atom    2 type  1   force =     0.00000001    0.00000000    1.30007236
     atom    3 type  2   force =     0.00000000    0.00000000   -1.30007236
     atom    4 type  2   force =     0.00000001    0.00000000   -1.30007236
     atom    5 type  1   force =     0.00000000    0.00000000    1.30007236
     atom    6 type  1   force =     0.00000001    0.00000000    1.30007236
     atom    7 type  2   force =     0.00000000    0.00000000   -1.30007236
     atom    8 type  2   force =     0.00000001    0.00000000   -1.30007236
     atom    9 type  1   force =    -0.00000001   -0.00000000    1.30007236
     atom   10 type  1   force =     0.00000000   -0.00000001    1.30007235
     atom   11 type  2   force =    -0.00000001    0.00000000   -1.30007236
     atom   12 type  2   force =     0.00000000   -0.00000000   -1.30007235
     atom   13 type  1   force =    -0.00000001   -0.00000000    1.30007236
     atom   14 type  1   force =     0.00000000   -0.00000001    1.30007235
     atom   15 type  2   force =    -0.00000001    0.00000000   -1.30007236
     atom   16 type  2   force =     0.00000000   -0.00000000   -1.30007235
     The local contribution  to forces
     atom    1 type  1   force =    -0.00004392   -0.00002535   -1.47369535
     atom    2 type  1   force =     0.00003441    0.00001976   -1.47369901
     atom    3 type  2   force =     0.00018770    0.00010837    1.10695667
     atom    4 type  2   force =    -0.00018998   -0.00010972    1.10694963
     atom    5 type  1   force =    -0.00003712   -0.00002143   -1.47369814
     atom    6 type  1   force =     0.00003346    0.00001921   -1.47368439
     atom    7 type  2   force =     0.00018802    0.00010855    1.10694960
     atom    8 type  2   force =    -0.00018940   -0.00010938    1.10694858
     atom    9 type  1   force =    -0.00003311   -0.00001901   -1.47369124
     atom   10 type  1   force =     0.00004105    0.00002359   -1.47370324
     atom   11 type  2   force =     0.00019008    0.00010977    1.10695764
     atom   12 type  2   force =    -0.00018806   -0.00010860    1.10695266
     atom   13 type  1   force =    -0.00003767   -0.00002164   -1.47369769
     atom   14 type  1   force =     0.00004167    0.00002395   -1.47368606
     atom   15 type  2   force =     0.00018724    0.00010813    1.10694735
     atom   16 type  2   force =    -0.00018818   -0.00010867    1.10695115
     The core correction contribution to forces
     atom    1 type  1   force =    -0.00000766   -0.00000442   -0.00898366
     atom    2 type  1   force =     0.00000790    0.00000455   -0.00898381
     atom    3 type  2   force =     0.00000228    0.00000132   -0.00200141
     atom    4 type  2   force =    -0.00000230   -0.00000133   -0.00200142
     atom    5 type  1   force =    -0.00000779   -0.00000450   -0.00898357
     atom    6 type  1   force =     0.00000791    0.00000455   -0.00898370
     atom    7 type  2   force =     0.00000229    0.00000132   -0.00200139
     atom    8 type  2   force =    -0.00000229   -0.00000132   -0.00200141
     atom    9 type  1   force =    -0.00000799   -0.00000460   -0.00898384
     atom   10 type  1   force =     0.00000770    0.00000443   -0.00898359
     atom   11 type  2   force =     0.00000232    0.00000134   -0.00200140
     atom   12 type  2   force =    -0.00000230   -0.00000133   -0.00200139
     atom   13 type  1   force =    -0.00000779   -0.00000448   -0.00898370
     atom   14 type  1   force =     0.00000770    0.00000443   -0.00898372
     atom   15 type  2   force =     0.00000227    0.00000131   -0.00200140
     atom   16 type  2   force =    -0.00000230   -0.00000133   -0.00200139
     The Hubbard contrib.    to forces
     atom    1 type  1   force =     0.00000000    0.00000000    0.00000000
     atom    2 type  1   force =     0.00000000    0.00000000    0.00000000
     atom    3 type  2   force =     0.00000000    0.00000000    0.00000000
     atom    4 type  2   force =     0.00000000    0.00000000    0.00000000
     atom    5 type  1   force =     0.00000000    0.00000000    0.00000000
     atom    6 type  1   force =     0.00000000    0.00000000    0.00000000
     atom    7 type  2   force =     0.00000000    0.00000000    0.00000000
     atom    8 type  2   force =     0.00000000    0.00000000    0.00000000
     atom    9 type  1   force =     0.00000000    0.00000000    0.00000000
     atom   10 type  1   force =     0.00000000    0.00000000    0.00000000
     atom   11 type  2   force =     0.00000000    0.00000000    0.00000000
     atom   12 type  2   force =     0.00000000    0.00000000    0.00000000
     atom   13 type  1   force =     0.00000000    0.00000000    0.00000000
     atom   14 type  1   force =     0.00000000    0.00000000    0.00000000
     atom   15 type  2   force =     0.00000000    0.00000000    0.00000000
     atom   16 type  2   force =     0.00000000    0.00000000    0.00000000
     The SCF correction term to forces
     atom    1 type  1   force =     0.00001200    0.00000693    0.00001039
     atom    2 type  1   force =     0.00000157    0.00000091    0.00001553
     atom    3 type  2   force =     0.00000060    0.00000035   -0.00000377
     atom    4 type  2   force =     0.00000101    0.00000058    0.00000346
     atom    5 type  1   force =     0.00000167    0.00000096    0.00001526
     atom    6 type  1   force =     0.00000339    0.00000196   -0.00000597
     atom    7 type  2   force =     0.00000070    0.00000041    0.00000667
     atom    8 type  2   force =     0.00000091    0.00000052    0.00000601
     atom    9 type  1   force =    -0.00000395   -0.00000228    0.00000566
     atom   10 type  1   force =    -0.00000620   -0.00000358    0.00002432
     atom   11 type  2   force =     0.00000001    0.00000000   -0.00000466
     atom   12 type  2   force =    -0.00000137   -0.00000079    0.00000260
     atom   13 type  1   force =     0.00000442    0.00000255    0.00001453
     atom   14 type  1   force =    -0.00000901   -0.00000520   -0.00000285
     atom   15 type  2   force =     0.00000056    0.00000032    0.00000902
     atom   16 type  2   force =    -0.00000128   -0.00000074    0.00000394

     Total force =     0.056840     Total SCF correction =     0.000046

     General routines

     Parallel routines

   This run was terminated on:  20:24:26  29Aug2025

   JOB DONE.
Note: The following floating-point exceptions are signalling: IEEE_UNDERFLOW_FLAG IEEE_DENORMAL
Note: The following floating-point exceptions are signalling: IEEE_UNDERFLOW_FLAG IEEE_DENORMAL
Note: The following floating-point exceptions are signalling: IEEE_UNDERFLOW_FLAG IEEE_DENORMAL
Note: The following floating-point exceptions are signalling: IEEE_UNDERFLOW_FLAG IEEE_DENORMAL
Note: The following floating-point exceptions are signalling: IEEE_UNDERFLOW_FLAG IEEE_DENORMAL
Note: The following floating-point exceptions are signalling: IEEE_UNDERFLOW_FLAG IEEE_DENORMAL
Note: The following floating-point exceptions are signalling: IEEE_UNDERFLOW_FLAG IEEE_DENORMAL
Note: The following floating-point exceptions are signalling: IEEE_UNDERFLOW_FLAG IEEE_DENORMAL
Note: The following floating-point exceptions are signalling: IEEE_UNDERFLOW_FLAG IEEE_DENORMAL
Note: The following floating-point exceptions are signalling: IEEE_UNDERFLOW_FLAG IEEE_DENORMAL
Note: The following floating-point exceptions are signalling: IEEE_UNDERFLOW_FLAG IEEE_DENORMAL
Note: The following floating-point exceptions are signalling: IEEE_UNDERFLOW_FLAG IEEE_DENORMAL
Note: The following floating-point exceptions are signalling: IEEE_UNDERFLOW_FLAG IEEE_DENORMAL
Note: The following floating-point exceptions are signalling: IEEE_UNDERFLOW_FLAG IEEE_DENORMAL
Note: The following floating-point exceptions are signalling: IEEE_UNDERFLOW_FLAG IEEE_DENORMAL
Note: The following floating-point exceptions are signalling: IEEE_UNDERFLOW_FLAG IEEE_DENORMAL
Note: The following floating-point exceptions are signalling: IEEE_UNDERFLOW_FLAG IEEE_DENORMAL
Note: The following floating-point exceptions are signalling: IEEE_UNDERFLOW_FLAG IEEE_DENORMAL
Note: The following floating-point exceptions are signalling: IEEE_UNDERFLOW_FLAG IEEE_DENORMAL
Note: The following floating-point exceptions are signalling: IEEE_UNDERFLOW_FLAG IEEE_DENORMAL
Note: The following floating-point exceptions are signalling: IEEE_UNDERFLOW_FLAG IEEE_DENORMAL
Note: The following floating-point exceptions are signalling: IEEE_UNDERFLOW_FLAG IEEE_DENORMAL
Note: The following floating-point exceptions are signalling: IEEE_UNDERFLOW_FLAG IEEE_DENORMAL
Note: The following floating-point exceptions are signalling: IEEE_UNDERFLOW_FLAG IEEE_DENORMAL
Note: The following floating-point exceptions are signalling: IEEE_UNDERFLOW_FLAG IEEE_DENORMAL
Note: The following floating-point exceptions are signalling: IEEE_UNDERFLOW_FLAG IEEE_DENORMAL
Note: The following floating-point exceptions are signalling: IEEE_UNDERFLOW_FLAG IEEE_DENORMAL
Note: The following floating-point exceptions are signalling: IEEE_UNDERFLOW_FLAG IEEE_DENORMAL
Note: The following floating-point exceptions are signalling: IEEE_UNDERFLOW_FLAG IEEE_DENORMAL
Note: The following floating-point exceptions are signalling: IEEE_UNDERFLOW_FLAG IEEE_DENORMAL
Note: The following floating-point exceptions are signalling: IEEE_UNDERFLOW_FLAG IEEE_DENORMAL
Note: The following floating-point exceptions are signalling: IEEE_UNDERFLOW_FLAG IEEE_DENORMAL