     Program PWSCF v.7.0 starts on 29Aug2025 at 17:37:29

     K-points division:     npool     =       8
     R & G space division:  proc/nbgrp/npool/nimage =       4

     Reading input from /home/jvc/QEspresso7.2/ZnO_database/scripts/cell212.in/ZnO-3.60-1.45-212.in
Warning: card &CELL ignored
Warning: card / ignored
Warning: card &FCP ignored
Warning: card / ignored
Warning: card &RISM ignored
Warning: card / ignored

     Current dimensions of program PWSCF are:
     Max number of different atomic species (ntypx) = 10
     Max number of k-points (npk) =  40000
     Max angular momentum in pseudopotentials (lmaxx) =  4
     file Zn.upf: wavefunction(s)  3D renormalized
     Found identity + (  0.0000  0.0000 -0.5000) symmetry
     This is a supercell, fractional translations are disabled
     Message from routine setup:
     using ibrav=0 with symmetry is DISCOURAGED, use correct ibrav instead

     Using Slab Decomposition

     bravais-lattice index     =            0
     lattice parameter (alat)  =      13.5935  a.u.
     unit-cell volume          =    1580.2832 (a.u.)^3
     number of atoms/cell      =           16
     number of atomic types    =            2
     number of electrons       =       144.00
     number of Kohn-Sham states=           72
     kinetic-energy cutoff     =      50.0000  Ry
     charge density cutoff     =     400.0000  Ry
     scf convergence threshold =      1.0E-08
     mixing beta               =       0.3000
     number of iterations used =            8  plain     mixing
     Exchange-correlation= PBE
                           (   1   4   3   4   0   0   0)

     celldm(1)=  13.593479  celldm(2)=   0.000000  celldm(3)=   0.000000
     celldm(4)=   0.000000  celldm(5)=   0.000000  celldm(6)=   0.000000

     crystal axes: (cart. coord. in units of alat)
               a(1) = (   1.000000   0.000000   0.000000 )
               a(2) = (  -0.250000   0.433013   0.000000 )
               a(3) = (   0.000000   0.000000   1.452923 )

     reciprocal axes: (cart. coord. in units 2 pi/alat)
               b(1) = (  1.000000  0.577350 -0.000000 )
               b(2) = (  0.000000  2.309401  0.000000 )
               b(3) = (  0.000000 -0.000000  0.688268 )

     PseudoPot. # 1 for Zn read from file:
     /home/jvc/QEspresso7.2/ZnO_database/pseudos/Zn.upf
     MD5 check sum: 7f56cabf9682ed8c977c2f7d0c5985c5
     Pseudo is Ultrasoft + core correction, Zval = 12.0
     Generated using &quot;atomic&quot; code by A. Dal Corso  v.6.2.2
     Using radial grid of 1201 points,  6 beta functions with:
                l(1) =   0
                l(2) =   0
                l(3) =   1
                l(4) =   1
                l(5) =   2
                l(6) =   2
     Q(r) pseudized with 0 coefficients

     PseudoPot. # 2 for O  read from file:
     /home/jvc/QEspresso7.2/ZnO_database/pseudos/O.upf
     MD5 check sum: 91400c9766925bcf19f520983a725ff0
     Pseudo is Ultrasoft + core correction, Zval =  6.0
     Generated using &quot;atomic&quot; code by A. Dal Corso  v.6.3MaX
     Using radial grid of 1095 points,  4 beta functions with:
                l(1) =   0
                l(2) =   0
                l(3) =   1
                l(4) =   1
     Q(r) pseudized with 0 coefficients

     atomic species   valence    mass     pseudopotential
        Zn            12.00    65.38000     Zn( 1.00)
        O              6.00    15.99900     O ( 1.00)

      2 Sym. Ops. (no inversion) found

                                    s                        frac. trans.

      isym =  1     identity

 cryst.   s( 1) = (     1          0          0      )
                  (     0          1          0      )
                  (     0          0          1      )

 cart.    s( 1) = (  1.0000000  0.0000000  0.0000000 )
                  (  0.0000000  1.0000000  0.0000000 )
                  (  0.0000000  0.0000000  1.0000000 )

      isym =  2     inv. 180 deg rotation - cryst. axis [0,1,0]

 cryst.   s( 2) = (     1          2          0      )
                  (     0         -1          0      )
                  (     0          0          1      )

 cart.    s( 2) = (  0.5000000  0.8660254  0.0000000 )
                  (  0.8660254 -0.5000000  0.0000000 )
                  (  0.0000000  0.0000000  1.0000000 )

   Cartesian axes

     site n.     atom                  positions (alat units)
         1           Zn  tau(   1) = (   0.2500000   0.1443376   0.3636909  )
         2           Zn  tau(   2) = (  -0.0000000   0.2886751   0.0004603  )
         3           O   tau(   3) = (   0.2500000   0.1443376   0.6390508  )
         4           O   tau(   4) = (  -0.0000000   0.2886751   0.2758202  )
         5           Zn  tau(   5) = (   0.2500000   0.1443376   1.0901522  )
         6           Zn  tau(   6) = (  -0.0000000   0.2886751   0.7269215  )
         7           O   tau(   7) = (   0.2500000   0.1443376   1.3655121  )
         8           O   tau(   8) = (  -0.0000000   0.2886751   1.0022815  )
         9           Zn  tau(   9) = (   0.7500000   0.1443376   0.3636909  )
        10           Zn  tau(  10) = (   0.5000000   0.2886751   0.0004603  )
        11           O   tau(  11) = (   0.7500000   0.1443376   0.6390508  )
        12           O   tau(  12) = (   0.5000000   0.2886751   0.2758202  )
        13           Zn  tau(  13) = (   0.7500000   0.1443376   1.0901522  )
        14           Zn  tau(  14) = (   0.5000000   0.2886751   0.7269215  )
        15           O   tau(  15) = (   0.7500000   0.1443376   1.3655121  )
        16           O   tau(  16) = (   0.5000000   0.2886751   1.0022815  )

   Crystallographic axes

     site n.     atom                  positions (cryst. coord.)
         1           Zn  tau(   1) = (  0.3333333  0.3333333  0.2503168  )
         2           Zn  tau(   2) = (  0.1666667  0.6666667  0.0003168  )
         3           O   tau(   3) = (  0.3333333  0.3333333  0.4398382  )
         4           O   tau(   4) = (  0.1666667  0.6666667  0.1898382  )
         5           Zn  tau(   5) = (  0.3333333  0.3333333  0.7503168  )
         6           Zn  tau(   6) = (  0.1666667  0.6666667  0.5003168  )
         7           O   tau(   7) = (  0.3333333  0.3333333  0.9398382  )
         8           O   tau(   8) = (  0.1666667  0.6666667  0.6898382  )
         9           Zn  tau(   9) = (  0.8333333  0.3333333  0.2503168  )
        10           Zn  tau(  10) = (  0.6666667  0.6666667  0.0003168  )
        11           O   tau(  11) = (  0.8333333  0.3333333  0.4398382  )
        12           O   tau(  12) = (  0.6666667  0.6666667  0.1898382  )
        13           Zn  tau(  13) = (  0.8333333  0.3333333  0.7503168  )
        14           Zn  tau(  14) = (  0.6666667  0.6666667  0.5003168  )
        15           O   tau(  15) = (  0.8333333  0.3333333  0.9398382  )
        16           O   tau(  16) = (  0.6666667  0.6666667  0.6898382  )

     number of k points=    80
                       cart. coord. in units 2pi/alat
        k(    1) = (   0.0000000   0.0000000   0.0000000), wk =   0.0092593
        k(    2) = (   0.0000000   0.0000000   0.1147113), wk =   0.0185185
        k(    3) = (   0.0000000   0.0000000   0.2294226), wk =   0.0185185
        k(    4) = (   0.0000000   0.0000000  -0.3441340), wk =   0.0092593
        k(    5) = (   0.0000000   0.3849002   0.0000000), wk =   0.0370370
        k(    6) = (   0.0000000   0.3849002   0.1147113), wk =   0.0370370
        k(    7) = (   0.0000000   0.3849002   0.2294226), wk =   0.0370370
        k(    8) = (   0.0000000   0.3849002  -0.3441340), wk =   0.0370370
        k(    9) = (   0.0000000   0.7698004   0.0000000), wk =   0.0370370
        k(   10) = (   0.0000000   0.7698004   0.1147113), wk =   0.0370370
        k(   11) = (   0.0000000   0.7698004   0.2294226), wk =   0.0370370
        k(   12) = (   0.0000000   0.7698004  -0.3441340), wk =   0.0370370
        k(   13) = (   0.0000000  -1.1547005   0.0000000), wk =   0.0092593
        k(   14) = (   0.0000000  -1.1547005   0.1147113), wk =   0.0185185
        k(   15) = (   0.0000000  -1.1547005   0.2294226), wk =   0.0185185
        k(   16) = (   0.0000000  -1.1547005  -0.3441340), wk =   0.0092593
        k(   17) = (   0.1666667   0.0962250   0.0000000), wk =   0.0185185
        k(   18) = (   0.1666667   0.0962250   0.1147113), wk =   0.0185185
        k(   19) = (   0.1666667   0.0962250   0.2294226), wk =   0.0185185
        k(   20) = (   0.1666667   0.0962250  -0.3441340), wk =   0.0185185
        k(   21) = (   0.1666667   0.4811252   0.0000000), wk =   0.0370370
        k(   22) = (   0.1666667   0.4811252   0.1147113), wk =   0.0370370
        k(   23) = (   0.1666667   0.4811252   0.2294226), wk =   0.0370370
        k(   24) = (   0.1666667   0.4811252  -0.3441340), wk =   0.0370370
        k(   25) = (   0.1666667   0.8660254   0.0000000), wk =   0.0185185
        k(   26) = (   0.1666667   0.8660254   0.1147113), wk =   0.0370370
        k(   27) = (   0.1666667   0.8660254   0.2294226), wk =   0.0370370
        k(   28) = (   0.1666667   0.8660254  -0.3441340), wk =   0.0185185
        k(   29) = (   0.1666667  -1.0584755   0.0000000), wk =   0.0185185
        k(   30) = (   0.1666667  -1.0584755   0.1147113), wk =   0.0185185
        k(   31) = (   0.1666667  -1.0584755   0.2294226), wk =   0.0185185
        k(   32) = (   0.1666667  -1.0584755  -0.3441340), wk =   0.0185185
        k(   33) = (   0.1666667  -0.6735753   0.0000000), wk =   0.0370370
        k(   34) = (   0.1666667  -0.6735753   0.1147113), wk =   0.0370370
        k(   35) = (   0.1666667  -0.6735753   0.2294226), wk =   0.0370370
        k(   36) = (   0.1666667  -0.6735753  -0.3441340), wk =   0.0370370
        k(   37) = (   0.1666667  -0.2886751   0.0000000), wk =   0.0185185
        k(   38) = (   0.1666667  -0.2886751   0.1147113), wk =   0.0370370
        k(   39) = (   0.1666667  -0.2886751   0.2294226), wk =   0.0370370
        k(   40) = (   0.1666667  -0.2886751  -0.3441340), wk =   0.0185185
        k(   41) = (   0.3333333   0.1924501   0.0000000), wk =   0.0185185
        k(   42) = (   0.3333333   0.1924501   0.1147113), wk =   0.0185185
        k(   43) = (   0.3333333   0.1924501   0.2294226), wk =   0.0185185
        k(   44) = (   0.3333333   0.1924501  -0.3441340), wk =   0.0185185
        k(   45) = (   0.3333333   0.5773503   0.0000000), wk =   0.0185185
        k(   46) = (   0.3333333   0.5773503   0.1147113), wk =   0.0370370
        k(   47) = (   0.3333333   0.5773503   0.2294226), wk =   0.0370370
        k(   48) = (   0.3333333   0.5773503  -0.3441340), wk =   0.0185185
        k(   49) = (   0.3333333  -0.9622504   0.0000000), wk =   0.0185185
        k(   50) = (   0.3333333  -0.9622504   0.1147113), wk =   0.0185185
        k(   51) = (   0.3333333  -0.9622504   0.2294226), wk =   0.0185185
        k(   52) = (   0.3333333  -0.9622504  -0.3441340), wk =   0.0185185
        k(   53) = (   0.3333333  -0.5773503   0.0000000), wk =   0.0185185
        k(   54) = (   0.3333333  -0.5773503   0.1147113), wk =   0.0370370
        k(   55) = (   0.3333333  -0.5773503   0.2294226), wk =   0.0370370
[...]

     Initial potential from superposition of free atoms

     starting charge     143.9702, renormalised to     144.0000
     Starting wfcs are  104 randomized atomic wfcs

     Self-consistent Calculation

     iteration #  1     ecut=    50.00 Ry     beta= 0.30
     Davidson diagonalization with overlap

     ethr =  1.00E-02,  avg # of iterations =  1.7

     total energy              =   -1445.60334719 Ry
     estimated scf accuracy    <       3.15675879 Ry

[...]

     c_bands:  1 eigenvalues not converged
     c_bands:  1 eigenvalues not converged
     ethr =  1.69E-07,  avg # of iterations = 13.6

[...]

     c_bands:  1 eigenvalues not converged
     c_bands:  1 eigenvalues not converged
     c_bands:  1 eigenvalues not converged
     c_bands:  1 eigenvalues not converged
     c_bands:  1 eigenvalues not converged
     ethr =  1.20E-07,  avg # of iterations = 17.2

[...]

     total energy              =   -1446.35564162 Ry
     estimated scf accuracy    <       0.00000005 Ry

     iteration # 30     ecut=    50.00 Ry     beta= 0.30
     Davidson diagonalization with overlap

     ethr =  3.45E-11,  avg # of iterations =  8.6

     End of self-consistent calculation

          k = 0.0000 0.0000 0.0000 (  9449 PWs)   bands (ev):

   -12.1926 -11.9121 -11.9121 -11.7923 -11.6931 -11.6931 -11.6291 -11.6146
    -0.6196  -0.6196  -0.5810  -0.5810  -0.5147  -0.4681  -0.4340  -0.4339
    -0.3870  -0.3870  -0.3869  -0.3869  -0.3222  -0.2620  -0.2619  -0.1416
    -0.1416  -0.1338  -0.1186  -0.1186  -0.0864   0.0057   0.0893   0.1598
     0.1598   0.2226   0.2761   0.2785   0.2785   0.2786   0.2786   0.2973
     0.2973   0.3342   0.3342   0.3682   0.3712   0.3713   0.3869   0.4022
     0.5049   1.1658   1.2566   1.2566   1.7965   2.2740   2.5542   2.5542
     2.6390   3.3633   3.3633   3.5578   3.6665   3.6668   3.7176   3.7176
     4.0103   4.0788   4.0788   4.0792   4.0792   4.4623   4.4627   4.5163

     occupation numbers
     1.0000   1.0000   1.0000   1.0000   1.0000   1.0000   1.0000   1.0000
     1.0000   1.0000   1.0000   1.0000   1.0000   1.0000   1.0000   1.0000
     1.0000   1.0000   1.0000   1.0000   1.0000   1.0000   1.0000   1.0000
     1.0000   1.0000   1.0000   1.0000   1.0000   1.0000   1.0000   1.0000
     1.0000   1.0000   1.0000   1.0000   1.0000   1.0000   1.0000   1.0000
     1.0000   1.0000   1.0000   1.0000   1.0000   1.0000   1.0000   1.0000
     1.0000   1.0000   1.0000   1.0000   1.0000   1.0000   1.0000   1.0000
     1.0000   1.0000   1.0000   1.0000   1.0000   1.0000   1.0000   1.0000
     1.0000   1.0000   1.0000   1.0000   1.0000   1.0000   1.0000   1.0000

[...]

          k =-0.5000-0.2887 0.0000 (  9482 PWs)   bands (ev):

[...]

          k = 0.3333 0.1925-0.2294 (  9444 PWs)   bands (ev):

[...]

          k =-0.6667 0.7698-0.2294 (  9432 PWs)   bands (ev):

   -11.7811 -11.7811 -11.7424 -11.7424 -11.6501 -11.6501 -11.6217 -11.6216
    -0.5505  -0.5505  -0.4837  -0.4837  -0.4575  -0.4575  -0.3575  -0.3575
    -0.2770  -0.2770  -0.2351  -0.2351  -0.1552  -0.1552  -0.1301  -0.1301
    -0.0838  -0.0838  -0.0330  -0.0330   0.0027   0.0027   0.0845   0.0845
     0.2060   0.2060   0.2410   0.2410   0.2599   0.2599   0.2711   0.2711
     0.3644   0.3644   0.3751   0.3751   0.4374   0.4374   0.4608   0.4608
     1.2431   1.2431   1.2869   1.2869   1.5735   1.5735   1.7282   1.7282
     2.3067   2.3067   2.5915   2.5916   2.7906   2.7906   3.3256   3.3257
     3.4138   3.4138   3.6557   3.6557   3.7437   3.7438   3.9287   3.9287

     occupation numbers
     1.0000   1.0000   1.0000   1.0000   1.0000   1.0000   1.0000   1.0000
     1.0000   1.0000   1.0000   1.0000   1.0000   1.0000   1.0000   1.0000
     1.0000   1.0000   1.0000   1.0000   1.0000   1.0000   1.0000   1.0000
     1.0000   1.0000   1.0000   1.0000   1.0000   1.0000   1.0000   1.0000
     1.0000   1.0000   1.0000   1.0000   1.0000   1.0000   1.0000   1.0000
     1.0000   1.0000   1.0000   1.0000   1.0000   1.0000   1.0000   1.0000
     1.0000   1.0000   1.0000   1.0000   1.0000   1.0000   1.0000   1.0000
     1.0000   1.0000   1.0000   1.0000   1.0000   1.0000   1.0000   1.0000
     1.0000   1.0000   1.0000   1.0000   1.0000   1.0000   1.0000   1.0000

     highest occupied level (ev):     4.5163

!    total energy              =   -1446.35564168 Ry
     estimated scf accuracy    <          5.1E-09 Ry

     The total energy is the sum of the following terms:
     one-electron contribution =    -704.71754509 Ry
     hartree contribution      =     505.29711354 Ry
     xc contribution           =    -436.90371768 Ry
     ewald contribution        =    -810.03149244 Ry

     convergence has been achieved in  30 iterations

     Forces acting on atoms (cartesian axes, Ry/au):

     atom    1 type  1   force =    -0.00000076   -0.00000044   -0.01342267
     atom    2 type  1   force =    -0.00000138   -0.00000080   -0.01339506
     atom    3 type  2   force =    -0.00000150   -0.00000087    0.01340329
     atom    4 type  2   force =     0.00000117    0.00000067    0.01340108
     atom    5 type  1   force =    -0.00000246   -0.00000142   -0.01339400
     atom    6 type  1   force =    -0.00000229   -0.00000132   -0.01340400
     atom    7 type  2   force =    -0.00000081   -0.00000047    0.01340459
     atom    8 type  2   force =     0.00000082    0.00000047    0.01340593
     atom    9 type  1   force =     0.00000498    0.00000288   -0.01342219
     atom   10 type  1   force =    -0.00000313   -0.00000181   -0.01340240
     atom   11 type  2   force =    -0.00000090   -0.00000052    0.01340291
     atom   12 type  2   force =     0.00000182    0.00000105    0.01340125
     atom   13 type  1   force =     0.00000230    0.00000133   -0.01338956
     atom   14 type  1   force =     0.00000067    0.00000038   -0.01339922
     atom   15 type  2   force =    -0.00000090   -0.00000052    0.01340384
     atom   16 type  2   force =     0.00000239    0.00000138    0.01340621
     The non-local contrib.  to forces
     atom    1 type  1   force =     0.00001120    0.00000647   -0.28584707
     atom    2 type  1   force =    -0.00001186   -0.00000685   -0.28583664
     atom    3 type  2   force =    -0.00016621   -0.00009596   -0.25024430
     atom    4 type  2   force =     0.00016740    0.00009665   -0.25024816
     atom    5 type  1   force =     0.00001092    0.00000630   -0.28582731
     atom    6 type  1   force =    -0.00001263   -0.00000729   -0.28583504
     atom    7 type  2   force =    -0.00016596   -0.00009582   -0.25024425
     atom    8 type  2   force =     0.00016759    0.00009676   -0.25024290
     atom    9 type  1   force =     0.00001311    0.00000757   -0.28584508
     atom   10 type  1   force =    -0.00001134   -0.00000655   -0.28583759
     atom   11 type  2   force =    -0.00016780   -0.00009688   -0.25024244
     atom   12 type  2   force =     0.00016738    0.00009664   -0.25024750
     atom   13 type  1   force =     0.00001284    0.00000741   -0.28582574
     atom   14 type  1   force =    -0.00001112   -0.00000642   -0.28583591
     atom   15 type  2   force =    -0.00016705   -0.00009645   -0.25024373
     atom   16 type  2   force =     0.00016669    0.00009624   -0.25024505
     The ionic contribution  to forces
     atom    1 type  1   force =     0.00000000    0.00000001   -1.86792559
     atom    2 type  1   force =     0.00000001    0.00000000   -1.86792559
     atom    3 type  2   force =     0.00000000    0.00000000    1.86792559
     atom    4 type  2   force =     0.00000001    0.00000000    1.86792559
     atom    5 type  1   force =     0.00000000    0.00000001   -1.86792559
     atom    6 type  1   force =     0.00000001    0.00000000   -1.86792559
     atom    7 type  2   force =     0.00000000    0.00000000    1.86792559
     atom    8 type  2   force =     0.00000001    0.00000000    1.86792559
     atom    9 type  1   force =    -0.00000002   -0.00000000   -1.86792559
     atom   10 type  1   force =     0.00000000   -0.00000001   -1.86792560
     atom   11 type  2   force =    -0.00000001    0.00000000    1.86792559
     atom   12 type  2   force =     0.00000000   -0.00000001    1.86792560
     atom   13 type  1   force =    -0.00000002   -0.00000000   -1.86792559
     atom   14 type  1   force =     0.00000000   -0.00000001   -1.86792560
     atom   15 type  2   force =    -0.00000001    0.00000000    1.86792559
     atom   16 type  2   force =     0.00000000   -0.00000001    1.86792560
     The local contribution  to forces
     atom    1 type  1   force =    -0.00000522   -0.00000301    2.12197926
     atom    2 type  1   force =     0.00000728    0.00000409    2.12195354
     atom    3 type  2   force =     0.00016344    0.00009436   -1.60637778
     atom    4 type  2   force =    -0.00016909   -0.00009765   -1.60638392
     atom    5 type  1   force =    -0.00000338   -0.00000195    2.12195638
     atom    6 type  1   force =     0.00000798    0.00000449    2.12196841
     atom    7 type  2   force =     0.00015992    0.00009233   -1.60638192
     atom    8 type  2   force =    -0.00016263   -0.00009393   -1.60637364
     atom    9 type  1   force =    -0.00000900   -0.00000509    2.12197495
     atom   10 type  1   force =     0.00000650    0.00000364    2.12195783
     atom   11 type  2   force =     0.00016571    0.00009570   -1.60637070
     atom   12 type  2   force =    -0.00016298   -0.00009413   -1.60638295
     atom   13 type  1   force =    -0.00000885   -0.00000500    2.12194961
     atom   14 type  1   force =     0.00000556    0.00000310    2.12196945
     atom   15 type  2   force =     0.00016726    0.00009660   -1.60637582
     atom   16 type  2   force =    -0.00016920   -0.00009772   -1.60637500
     The core correction contribution to forces
     atom    1 type  1   force =    -0.00000331   -0.00000191    0.01838996
     atom    2 type  1   force =     0.00000325    0.00000186    0.01838907
     atom    3 type  2   force =     0.00000188    0.00000109    0.00209015
     atom    4 type  2   force =    -0.00000192   -0.00000111    0.00209263
     atom    5 type  1   force =    -0.00000333   -0.00000192    0.01838594
     atom    6 type  1   force =     0.00000330    0.00000189    0.01838701
     atom    7 type  2   force =     0.00000187    0.00000108    0.00209008
     atom    8 type  2   force =    -0.00000190   -0.00000110    0.00208764
     atom    9 type  1   force =    -0.00000334   -0.00000192    0.01839003
     atom   10 type  1   force =     0.00000341    0.00000196    0.01838908
     atom   11 type  2   force =     0.00000192    0.00000111    0.00209015
     atom   12 type  2   force =    -0.00000190   -0.00000109    0.00209262
     atom   13 type  1   force =    -0.00000327   -0.00000187    0.01838608
     atom   14 type  1   force =     0.00000331    0.00000190    0.01838687
     atom   15 type  2   force =     0.00000191    0.00000110    0.00209009
     atom   16 type  2   force =    -0.00000191   -0.00000110    0.00208767
     The Hubbard contrib.    to forces
     atom    1 type  1   force =     0.00000000    0.00000000    0.00000000
     atom    2 type  1   force =     0.00000000    0.00000000    0.00000000
     atom    3 type  2   force =     0.00000000    0.00000000    0.00000000
     atom    4 type  2   force =     0.00000000    0.00000000    0.00000000
     atom    5 type  1   force =     0.00000000    0.00000000    0.00000000
     atom    6 type  1   force =     0.00000000    0.00000000    0.00000000
     atom    7 type  2   force =     0.00000000    0.00000000    0.00000000
     atom    8 type  2   force =     0.00000000    0.00000000    0.00000000
     atom    9 type  1   force =     0.00000000    0.00000000    0.00000000
     atom   10 type  1   force =     0.00000000    0.00000000    0.00000000
     atom   11 type  2   force =     0.00000000    0.00000000    0.00000000
     atom   12 type  2   force =     0.00000000    0.00000000    0.00000000
     atom   13 type  1   force =     0.00000000    0.00000000    0.00000000
     atom   14 type  1   force =     0.00000000    0.00000000    0.00000000
     atom   15 type  2   force =     0.00000000    0.00000000    0.00000000
     atom   16 type  2   force =     0.00000000    0.00000000    0.00000000
     The SCF correction term to forces
     atom    1 type  1   force =    -0.00000359   -0.00000207   -0.00001762
     atom    2 type  1   force =    -0.00000015   -0.00000009    0.00002617
     atom    3 type  2   force =    -0.00000077   -0.00000044    0.00001124
     atom    4 type  2   force =     0.00000463    0.00000267    0.00001655
     atom    5 type  1   force =    -0.00000683   -0.00000394    0.00001820
     atom    6 type  1   force =    -0.00000104   -0.00000060    0.00000283
     atom    7 type  2   force =     0.00000321    0.00000185    0.00001670
     atom    8 type  2   force =    -0.00000238   -0.00000137    0.00001085
     atom    9 type  1   force =     0.00000403    0.00000233   -0.00001488
     atom   10 type  1   force =    -0.00000180   -0.00000104    0.00001549
     atom   11 type  2   force =    -0.00000088   -0.00000051    0.00000192
     atom   12 type  2   force =    -0.00000083   -0.00000048    0.00001511
     atom   13 type  1   force =     0.00000138    0.00000080    0.00002770
     atom   14 type  1   force =     0.00000282    0.00000163    0.00000758
     atom   15 type  2   force =    -0.00000317   -0.00000183    0.00000932
     atom   16 type  2   force =     0.00000667    0.00000385    0.00001462

     Total force =     0.053615     Total SCF correction =     0.000065

     General routines

     Parallel routines

   This run was terminated on:  17:52:28  29Aug2025

   JOB DONE.
Note: The following floating-point exceptions are signalling: IEEE_UNDERFLOW_FLAG IEEE_DENORMAL
Note: The following floating-point exceptions are signalling: IEEE_UNDERFLOW_FLAG IEEE_DENORMAL
Note: The following floating-point exceptions are signalling: IEEE_UNDERFLOW_FLAG IEEE_DENORMAL
Note: The following floating-point exceptions are signalling: IEEE_UNDERFLOW_FLAG IEEE_DENORMAL
Note: The following floating-point exceptions are signalling: IEEE_UNDERFLOW_FLAG IEEE_DENORMAL
Note: The following floating-point exceptions are signalling: IEEE_UNDERFLOW_FLAG IEEE_DENORMAL
Note: The following floating-point exceptions are signalling: IEEE_UNDERFLOW_FLAG IEEE_DENORMAL
Note: The following floating-point exceptions are signalling: IEEE_UNDERFLOW_FLAG IEEE_DENORMAL
Note: The following floating-point exceptions are signalling: IEEE_UNDERFLOW_FLAG IEEE_DENORMAL
Note: The following floating-point exceptions are signalling: IEEE_UNDERFLOW_FLAG IEEE_DENORMAL
Note: The following floating-point exceptions are signalling: IEEE_UNDERFLOW_FLAG IEEE_DENORMAL
Note: The following floating-point exceptions are signalling: IEEE_UNDERFLOW_FLAG IEEE_DENORMAL
Note: The following floating-point exceptions are signalling: IEEE_UNDERFLOW_FLAG IEEE_DENORMAL
Note: The following floating-point exceptions are signalling: IEEE_UNDERFLOW_FLAG IEEE_DENORMAL
Note: The following floating-point exceptions are signalling: IEEE_UNDERFLOW_FLAG IEEE_DENORMAL
Note: The following floating-point exceptions are signalling: IEEE_UNDERFLOW_FLAG IEEE_DENORMAL
Note: The following floating-point exceptions are signalling: IEEE_UNDERFLOW_FLAG IEEE_DENORMAL
Note: The following floating-point exceptions are signalling: IEEE_UNDERFLOW_FLAG IEEE_DENORMAL
Note: The following floating-point exceptions are signalling: IEEE_UNDERFLOW_FLAG IEEE_DENORMAL
Note: The following floating-point exceptions are signalling: IEEE_UNDERFLOW_FLAG IEEE_DENORMAL
Note: The following floating-point exceptions are signalling: IEEE_UNDERFLOW_FLAG IEEE_DENORMAL
Note: The following floating-point exceptions are signalling: IEEE_UNDERFLOW_FLAG IEEE_DENORMAL
Note: The following floating-point exceptions are signalling: IEEE_UNDERFLOW_FLAG IEEE_DENORMAL
Note: The following floating-point exceptions are signalling: IEEE_UNDERFLOW_FLAG IEEE_DENORMAL
Note: The following floating-point exceptions are signalling: IEEE_UNDERFLOW_FLAG IEEE_DENORMAL
Note: The following floating-point exceptions are signalling: IEEE_UNDERFLOW_FLAG IEEE_DENORMAL
Note: The following floating-point exceptions are signalling: IEEE_UNDERFLOW_FLAG IEEE_DENORMAL
Note: The following floating-point exceptions are signalling: IEEE_UNDERFLOW_FLAG IEEE_DENORMAL
Note: The following floating-point exceptions are signalling: IEEE_UNDERFLOW_FLAG IEEE_DENORMAL
Note: The following floating-point exceptions are signalling: IEEE_UNDERFLOW_FLAG IEEE_DENORMAL
Note: The following floating-point exceptions are signalling: IEEE_UNDERFLOW_FLAG IEEE_DENORMAL
Note: The following floating-point exceptions are signalling: IEEE_UNDERFLOW_FLAG IEEE_DENORMAL