     Program PWSCF v.7.0 starts on 28Aug2025 at 20: 3:36

     K-points division:     npool     =       8
     R & G space division:  proc/nbgrp/npool/nimage =       4

     Reading input from /home/jvc/QEspresso7.2/ZnO_database/scripts/cell212.in/ZnO-3.01-1.49-212.in
Warning: card &CELL ignored
Warning: card / ignored
Warning: card &FCP ignored
Warning: card / ignored
Warning: card &RISM ignored
Warning: card / ignored

     Current dimensions of program PWSCF are:
     Max number of different atomic species (ntypx) = 10
     Max number of k-points (npk) =  40000
     Max angular momentum in pseudopotentials (lmaxx) =  4
     file Zn.upf: wavefunction(s)  3D renormalized
     Found identity + (  0.0000  0.0000  0.5000) symmetry
     This is a supercell, fractional translations are disabled
     Message from routine setup:
     using ibrav=0 with symmetry is DISCOURAGED, use correct ibrav instead

     Using Slab Decomposition

     bravais-lattice index     =            0
     lattice parameter (alat)  =      11.3691  a.u.
     unit-cell volume          =     945.0737 (a.u.)^3
     number of atoms/cell      =           16
     number of atomic types    =            2
     number of electrons       =       144.00
     number of Kohn-Sham states=           72
     kinetic-energy cutoff     =      50.0000  Ry
     charge density cutoff     =     400.0000  Ry
     scf convergence threshold =      1.0E-08
     mixing beta               =       0.3000
     number of iterations used =            8  plain     mixing
     Exchange-correlation= PBE
                           (   1   4   3   4   0   0   0)

     celldm(1)=  11.369091  celldm(2)=   0.000000  celldm(3)=   0.000000
     celldm(4)=   0.000000  celldm(5)=   0.000000  celldm(6)=   0.000000

     crystal axes: (cart. coord. in units of alat)
               a(1) = (   1.000000   0.000000   0.000000 )
               a(2) = (  -0.250000   0.433013   0.000000 )
               a(3) = (   0.000000   0.000000   1.485210 )

     reciprocal axes: (cart. coord. in units 2 pi/alat)
               b(1) = (  1.000000  0.577350 -0.000000 )
               b(2) = (  0.000000  2.309401  0.000000 )
               b(3) = (  0.000000 -0.000000  0.673306 )

     PseudoPot. # 1 for Zn read from file:
     /home/jvc/QEspresso7.2/ZnO_database/pseudos/Zn.upf
     MD5 check sum: 7f56cabf9682ed8c977c2f7d0c5985c5
     Pseudo is Ultrasoft + core correction, Zval = 12.0
     Generated using &quot;atomic&quot; code by A. Dal Corso  v.6.2.2
     Using radial grid of 1201 points,  6 beta functions with:
                l(1) =   0
                l(2) =   0
                l(3) =   1
                l(4) =   1
                l(5) =   2
                l(6) =   2
     Q(r) pseudized with 0 coefficients

     PseudoPot. # 2 for O  read from file:
     /home/jvc/QEspresso7.2/ZnO_database/pseudos/O.upf
     MD5 check sum: 91400c9766925bcf19f520983a725ff0
     Pseudo is Ultrasoft + core correction, Zval =  6.0
     Generated using &quot;atomic&quot; code by A. Dal Corso  v.6.3MaX
     Using radial grid of 1095 points,  4 beta functions with:
                l(1) =   0
                l(2) =   0
                l(3) =   1
                l(4) =   1
     Q(r) pseudized with 0 coefficients

     atomic species   valence    mass     pseudopotential
        Zn            12.00    65.38000     Zn( 1.00)
        O              6.00    15.99900     O ( 1.00)

      2 Sym. Ops. (no inversion) found

                                    s                        frac. trans.

      isym =  1     identity

 cryst.   s( 1) = (     1          0          0      )
                  (     0          1          0      )
                  (     0          0          1      )

 cart.    s( 1) = (  1.0000000  0.0000000  0.0000000 )
                  (  0.0000000  1.0000000  0.0000000 )
                  (  0.0000000  0.0000000  1.0000000 )

      isym =  2     inv. 180 deg rotation - cryst. axis [0,1,0]

 cryst.   s( 2) = (     1          2          0      )
                  (     0         -1          0      )
                  (     0          0          1      )

 cart.    s( 2) = (  0.5000000  0.8660254  0.0000000 )
                  (  0.8660254 -0.5000000  0.0000000 )
                  (  0.0000000  0.0000000  1.0000000 )

   Cartesian axes

     site n.     atom                  positions (alat units)
         1           Zn  tau(   1) = (   0.2500000   0.1443376   0.3717729  )
         2           Zn  tau(   2) = (  -0.0000000   0.2886751   0.0004705  )
         3           O   tau(   3) = (   0.2500000   0.1443376   0.6532520  )
         4           O   tau(   4) = (  -0.0000000   0.2886751   0.2819495  )
         5           Zn  tau(   5) = (   0.2500000   0.1443376   1.1143778  )
         6           Zn  tau(   6) = (  -0.0000000   0.2886751   0.7430753  )
         7           O   tau(   7) = (   0.2500000   0.1443376   1.3958568  )
         8           O   tau(   8) = (  -0.0000000   0.2886751   1.0245544  )
         9           Zn  tau(   9) = (   0.7500000   0.1443376   0.3717729  )
        10           Zn  tau(  10) = (   0.5000000   0.2886751   0.0004705  )
        11           O   tau(  11) = (   0.7500000   0.1443376   0.6532520  )
        12           O   tau(  12) = (   0.5000000   0.2886751   0.2819495  )
        13           Zn  tau(  13) = (   0.7500000   0.1443376   1.1143778  )
        14           Zn  tau(  14) = (   0.5000000   0.2886751   0.7430753  )
        15           O   tau(  15) = (   0.7500000   0.1443376   1.3958568  )
        16           O   tau(  16) = (   0.5000000   0.2886751   1.0245544  )

   Crystallographic axes

     site n.     atom                  positions (cryst. coord.)
         1           Zn  tau(   1) = (  0.3333333  0.3333333  0.2503168  )
         2           Zn  tau(   2) = (  0.1666667  0.6666667  0.0003168  )
         3           O   tau(   3) = (  0.3333333  0.3333333  0.4398382  )
         4           O   tau(   4) = (  0.1666667  0.6666667  0.1898382  )
         5           Zn  tau(   5) = (  0.3333333  0.3333333  0.7503168  )
         6           Zn  tau(   6) = (  0.1666667  0.6666667  0.5003168  )
         7           O   tau(   7) = (  0.3333333  0.3333333  0.9398382  )
         8           O   tau(   8) = (  0.1666667  0.6666667  0.6898382  )
         9           Zn  tau(   9) = (  0.8333333  0.3333333  0.2503168  )
        10           Zn  tau(  10) = (  0.6666667  0.6666667  0.0003168  )
        11           O   tau(  11) = (  0.8333333  0.3333333  0.4398382  )
        12           O   tau(  12) = (  0.6666667  0.6666667  0.1898382  )
        13           Zn  tau(  13) = (  0.8333333  0.3333333  0.7503168  )
        14           Zn  tau(  14) = (  0.6666667  0.6666667  0.5003168  )
        15           O   tau(  15) = (  0.8333333  0.3333333  0.9398382  )
        16           O   tau(  16) = (  0.6666667  0.6666667  0.6898382  )

     number of k points=    80
                       cart. coord. in units 2pi/alat
        k(    1) = (   0.0000000   0.0000000   0.0000000), wk =   0.0092593
        k(    2) = (   0.0000000   0.0000000   0.1122176), wk =   0.0185185
        k(    3) = (   0.0000000   0.0000000   0.2244352), wk =   0.0185185
        k(    4) = (   0.0000000   0.0000000  -0.3366528), wk =   0.0092593
        k(    5) = (   0.0000000   0.3849002   0.0000000), wk =   0.0370370
        k(    6) = (   0.0000000   0.3849002   0.1122176), wk =   0.0370370
        k(    7) = (   0.0000000   0.3849002   0.2244352), wk =   0.0370370
        k(    8) = (   0.0000000   0.3849002  -0.3366528), wk =   0.0370370
        k(    9) = (   0.0000000   0.7698004   0.0000000), wk =   0.0370370
        k(   10) = (   0.0000000   0.7698004   0.1122176), wk =   0.0370370
        k(   11) = (   0.0000000   0.7698004   0.2244352), wk =   0.0370370
        k(   12) = (   0.0000000   0.7698004  -0.3366528), wk =   0.0370370
        k(   13) = (   0.0000000  -1.1547005   0.0000000), wk =   0.0092593
        k(   14) = (   0.0000000  -1.1547005   0.1122176), wk =   0.0185185
        k(   15) = (   0.0000000  -1.1547005   0.2244352), wk =   0.0185185
        k(   16) = (   0.0000000  -1.1547005  -0.3366528), wk =   0.0092593
        k(   17) = (   0.1666667   0.0962250   0.0000000), wk =   0.0185185
        k(   18) = (   0.1666667   0.0962250   0.1122176), wk =   0.0185185
        k(   19) = (   0.1666667   0.0962250   0.2244352), wk =   0.0185185
        k(   20) = (   0.1666667   0.0962250  -0.3366528), wk =   0.0185185
        k(   21) = (   0.1666667   0.4811252   0.0000000), wk =   0.0370370
        k(   22) = (   0.1666667   0.4811252   0.1122176), wk =   0.0370370
        k(   23) = (   0.1666667   0.4811252   0.2244352), wk =   0.0370370
        k(   24) = (   0.1666667   0.4811252  -0.3366528), wk =   0.0370370
        k(   25) = (   0.1666667   0.8660254   0.0000000), wk =   0.0185185
        k(   26) = (   0.1666667   0.8660254   0.1122176), wk =   0.0370370
        k(   27) = (   0.1666667   0.8660254   0.2244352), wk =   0.0370370
        k(   28) = (   0.1666667   0.8660254  -0.3366528), wk =   0.0185185
        k(   29) = (   0.1666667  -1.0584755   0.0000000), wk =   0.0185185
        k(   30) = (   0.1666667  -1.0584755   0.1122176), wk =   0.0185185
        k(   31) = (   0.1666667  -1.0584755   0.2244352), wk =   0.0185185
        k(   32) = (   0.1666667  -1.0584755  -0.3366528), wk =   0.0185185
        k(   33) = (   0.1666667  -0.6735753   0.0000000), wk =   0.0370370
        k(   34) = (   0.1666667  -0.6735753   0.1122176), wk =   0.0370370
        k(   35) = (   0.1666667  -0.6735753   0.2244352), wk =   0.0370370
        k(   36) = (   0.1666667  -0.6735753  -0.3366528), wk =   0.0370370
        k(   37) = (   0.1666667  -0.2886751   0.0000000), wk =   0.0185185
        k(   38) = (   0.1666667  -0.2886751   0.1122176), wk =   0.0370370
        k(   39) = (   0.1666667  -0.2886751   0.2244352), wk =   0.0370370
        k(   40) = (   0.1666667  -0.2886751  -0.3366528), wk =   0.0185185
        k(   41) = (   0.3333333   0.1924501   0.0000000), wk =   0.0185185
        k(   42) = (   0.3333333   0.1924501   0.1122176), wk =   0.0185185
        k(   43) = (   0.3333333   0.1924501   0.2244352), wk =   0.0185185
        k(   44) = (   0.3333333   0.1924501  -0.3366528), wk =   0.0185185
        k(   45) = (   0.3333333   0.5773503   0.0000000), wk =   0.0185185
        k(   46) = (   0.3333333   0.5773503   0.1122176), wk =   0.0370370
        k(   47) = (   0.3333333   0.5773503   0.2244352), wk =   0.0370370
        k(   48) = (   0.3333333   0.5773503  -0.3366528), wk =   0.0185185
        k(   49) = (   0.3333333  -0.9622504   0.0000000), wk =   0.0185185
        k(   50) = (   0.3333333  -0.9622504   0.1122176), wk =   0.0185185
        k(   51) = (   0.3333333  -0.9622504   0.2244352), wk =   0.0185185
        k(   52) = (   0.3333333  -0.9622504  -0.3366528), wk =   0.0185185
        k(   53) = (   0.3333333  -0.5773503   0.0000000), wk =   0.0185185
        k(   54) = (   0.3333333  -0.5773503   0.1122176), wk =   0.0370370
        k(   55) = (   0.3333333  -0.5773503   0.2244352), wk =   0.0370370
[...]
        k(   76) = (  -0.5000000   0.3333333  -0.3333333), wk =   0.0370370
        k(   77) = (   0.3333333   0.0000000  -0.1666667), wk =   0.0185185
        k(   78) = (   0.3333333   0.0000000  -0.3333333), wk =   0.0185185
        k(   79) = (  -0.6666667   0.5000000  -0.1666667), wk =   0.0185185
        k(   80) = (  -0.6666667   0.5000000  -0.3333333), wk =   0.0185185

     Check: negative core charge=   -0.000001

     Initial potential from superposition of free atoms

     starting charge     143.9702, renormalised to     144.0000
     Starting wfcs are  104 randomized atomic wfcs

     Self-consistent Calculation

     iteration #  1     ecut=    50.00 Ry     beta= 0.30
     Davidson diagonalization with overlap

     ethr =  1.00E-02,  avg # of iterations =  2.3

     total energy              =   -1445.01033300 Ry
     estimated scf accuracy    <       2.80446885 Ry

[...]

     total energy              =   -1445.52650891 Ry
     estimated scf accuracy    <       0.00000002 Ry

     iteration # 23     ecut=    50.00 Ry     beta= 0.30
     Davidson diagonalization with overlap

     ethr =  1.27E-11,  avg # of iterations =  3.4

     End of self-consistent calculation

          k = 0.0000 0.0000 0.0000 (  5605 PWs)   bands (ev):

    -8.3946  -7.6636  -7.6636  -7.2238  -6.9424  -6.9424  -6.8879  -6.7573
     3.8217   3.8217   4.3307   4.3307   4.3617   4.4123   4.5066   5.0098
     5.0100   5.0791   5.1092   5.1092   5.1093   5.1093   5.3343   5.3791
     5.3792   5.4687   5.5186   5.5187   5.6896   5.6896   6.0148   6.2877
     7.1898   7.1899   7.2748   7.5387   7.5387   7.5388   7.5388   7.5690
     7.6319   7.6319   7.6982   7.6983   7.7613   7.7613   7.8139   7.8727
     8.1135   8.1589   8.3662   8.3662   8.5545   9.0126   9.1262  10.4533
    10.4533  10.5894  10.5894  11.1359  11.2062  11.2062  11.2300  11.2302
    11.5613  11.9778  11.9778  11.9779  11.9779  12.7125  12.7126  12.7207

     occupation numbers
     1.0000   1.0000   1.0000   1.0000   1.0000   1.0000   1.0000   1.0000
     1.0000   1.0000   1.0000   1.0000   1.0000   1.0000   1.0000   1.0000
     1.0000   1.0000   1.0000   1.0000   1.0000   1.0000   1.0000   1.0000
     1.0000   1.0000   1.0000   1.0000   1.0000   1.0000   1.0000   1.0000
     1.0000   1.0000   1.0000   1.0000   1.0000   1.0000   1.0000   1.0000
     1.0000   1.0000   1.0000   1.0000   1.0000   1.0000   1.0000   1.0000
     1.0000   1.0000   1.0000   1.0000   1.0000   1.0000   1.0000   1.0000
     1.0000   1.0000   1.0000   1.0000   1.0000   1.0000   1.0000   1.0000
     1.0000   1.0000   1.0000   1.0000   1.0000   1.0000   1.0000   1.0000

[...]

          k =-0.5000-0.2887 0.0000 (  5686 PWs)   bands (ev):

[...]

          k = 0.3333 0.1925-0.2244 (  5672 PWs)   bands (ev):

[...]

          k =-0.6667 0.7698-0.2244 (  5632 PWs)   bands (ev):

    -7.1983  -7.1983  -7.0848  -7.0848  -6.8331  -6.8331  -6.7665  -6.7665
     4.1222   4.1222   4.1864   4.1864   4.3612   4.3612   4.5488   4.5488
     5.2039   5.2039   5.2169   5.2169   5.3103   5.3103   5.3724   5.3724
     5.8002   5.8002   5.9159   5.9159   5.9509   5.9509   6.1242   6.1242
     7.1814   7.1814   7.3474   7.3474   7.4674   7.4674   7.5293   7.5293
     7.7826   7.7826   7.7939   7.7939   7.9169   7.9169   7.9808   7.9808
     8.1304   8.1304   8.3349   8.3349   8.6757   8.6757   8.8267   8.8267
     9.0895   9.0895   9.3395   9.3395   9.7280   9.7280  10.3598  10.3598
    10.6815  10.6815  10.9653  10.9653  11.3134  11.3134  11.4918  11.4918

     occupation numbers
     1.0000   1.0000   1.0000   1.0000   1.0000   1.0000   1.0000   1.0000
     1.0000   1.0000   1.0000   1.0000   1.0000   1.0000   1.0000   1.0000
     1.0000   1.0000   1.0000   1.0000   1.0000   1.0000   1.0000   1.0000
     1.0000   1.0000   1.0000   1.0000   1.0000   1.0000   1.0000   1.0000
     1.0000   1.0000   1.0000   1.0000   1.0000   1.0000   1.0000   1.0000
     1.0000   1.0000   1.0000   1.0000   1.0000   1.0000   1.0000   1.0000
     1.0000   1.0000   1.0000   1.0000   1.0000   1.0000   1.0000   1.0000
     1.0000   1.0000   1.0000   1.0000   1.0000   1.0000   1.0000   1.0000
     1.0000   1.0000   1.0000   1.0000   1.0000   1.0000   1.0000   1.0000

     highest occupied level (ev):    12.7207

!    total energy              =   -1445.52650891 Ry
     estimated scf accuracy    <          1.5E-09 Ry

     The total energy is the sum of the following terms:
     one-electron contribution =    -462.12067118 Ry
     hartree contribution      =     420.82982991 Ry
     xc contribution           =    -441.59966495 Ry
     ewald contribution        =    -962.63600269 Ry

     convergence has been achieved in  23 iterations

     Forces acting on atoms (cartesian axes, Ry/au):

     atom    1 type  1   force =     0.00001645    0.00000949   -0.12649552
     atom    2 type  1   force =    -0.00001527   -0.00000882   -0.12649446
     atom    3 type  2   force =    -0.00000149   -0.00000086    0.12649666
     atom    4 type  2   force =     0.00000194    0.00000112    0.12649540
     atom    5 type  1   force =     0.00001567    0.00000905   -0.12649669
     atom    6 type  1   force =    -0.00001477   -0.00000852   -0.12649757
     atom    7 type  2   force =    -0.00000188   -0.00000108    0.12649519
     atom    8 type  2   force =     0.00000169    0.00000097    0.12649682
     atom    9 type  1   force =     0.00001409    0.00000814   -0.12649659
     atom   10 type  1   force =    -0.00001552   -0.00000896   -0.12649330
     atom   11 type  2   force =    -0.00000190   -0.00000109    0.12649674
     atom   12 type  2   force =     0.00000142    0.00000082    0.12649587
     atom   13 type  1   force =     0.00001552    0.00000896   -0.12649653
     atom   14 type  1   force =    -0.00001574   -0.00000909   -0.12649761
     atom   15 type  2   force =    -0.00000164   -0.00000094    0.12649467
     atom   16 type  2   force =     0.00000142    0.00000082    0.12649693
     The non-local contrib.  to forces
     atom    1 type  1   force =    -0.00002201   -0.00001271   -0.29178298
     atom    2 type  1   force =     0.00002313    0.00001336   -0.29178182
     atom    3 type  2   force =    -0.00013480   -0.00007783   -0.15703458
     atom    4 type  2   force =     0.00013485    0.00007786   -0.15703638
     atom    5 type  1   force =    -0.00002311   -0.00001334   -0.29178597
     atom    6 type  1   force =     0.00002396    0.00001383   -0.29178620
     atom    7 type  2   force =    -0.00013535   -0.00007815   -0.15703680
     atom    8 type  2   force =     0.00013483    0.00007784   -0.15703466
     atom    9 type  1   force =    -0.00002421   -0.00001398   -0.29178453
     atom   10 type  1   force =     0.00002291    0.00001323   -0.29177995
     atom   11 type  2   force =    -0.00013506   -0.00007797   -0.15703441
     atom   12 type  2   force =     0.00013521    0.00007806   -0.15703607
     atom   13 type  1   force =    -0.00002306   -0.00001332   -0.29178578
     atom   14 type  1   force =     0.00002239    0.00001293   -0.29178652
     atom   15 type  2   force =    -0.00013479   -0.00007782   -0.15703746
     atom   16 type  2   force =     0.00013487    0.00007787   -0.15703462
     The ionic contribution  to forces
     atom    1 type  1   force =     0.00000000    0.00000001   -2.06565051
     atom    2 type  1   force =     0.00000002    0.00000000   -2.06565051
     atom    3 type  2   force =     0.00000000    0.00000001    2.06565051
     atom    4 type  2   force =     0.00000001   -0.00000000    2.06565051
     atom    5 type  1   force =     0.00000000    0.00000001   -2.06565051
     atom    6 type  1   force =     0.00000002    0.00000000   -2.06565051
     atom    7 type  2   force =     0.00000000    0.00000001    2.06565051
     atom    8 type  2   force =     0.00000001   -0.00000000    2.06565051
     atom    9 type  1   force =    -0.00000000   -0.00000000   -2.06565051
     atom   10 type  1   force =    -0.00000002   -0.00000001   -2.06565051
     atom   11 type  2   force =    -0.00000000   -0.00000000    2.06565051
     atom   12 type  2   force =    -0.00000001   -0.00000000    2.06565051
     atom   13 type  1   force =    -0.00000000   -0.00000000   -2.06565051
     atom   14 type  1   force =    -0.00000002   -0.00000001   -2.06565051
     atom   15 type  2   force =    -0.00000000   -0.00000000    2.06565051
     atom   16 type  2   force =    -0.00000001   -0.00000000    2.06565051
     The local contribution  to forces
     atom    1 type  1   force =     0.00003685    0.00002128    2.20068121
     atom    2 type  1   force =    -0.00004015   -0.00002327    2.20067872
     atom    3 type  2   force =     0.00013133    0.00007582   -1.78280353
     atom    4 type  2   force =    -0.00013151   -0.00007595   -1.78280679
     atom    5 type  1   force =     0.00003990    0.00002303    2.20068699
     atom    6 type  1   force =    -0.00004242   -0.00002458    2.20068797
     atom    7 type  2   force =     0.00013103    0.00007565   -1.78280672
     atom    8 type  2   force =    -0.00013181   -0.00007612   -1.78280374
     atom    9 type  1   force =     0.00004330    0.00002500    2.20068572
     atom   10 type  1   force =    -0.00003963   -0.00002288    2.20067396
     atom   11 type  2   force =     0.00013155    0.00007595   -1.78280368
     atom   12 type  2   force =    -0.00013152   -0.00007593   -1.78280631
     atom   13 type  1   force =     0.00003990    0.00002304    2.20068656
     atom   14 type  1   force =    -0.00003786   -0.00002186    2.20068839
     atom   15 type  2   force =     0.00013182    0.00007611   -1.78280729
     atom   16 type  2   force =    -0.00013123   -0.00007576   -1.78280375
     The core correction contribution to forces
     atom    1 type  1   force =    -0.00000167   -0.00000096    0.03026237
     atom    2 type  1   force =     0.00000184    0.00000102    0.03026238
     atom    3 type  2   force =     0.00000154    0.00000089    0.00068930
     atom    4 type  2   force =    -0.00000152   -0.00000088    0.00068932
     atom    5 type  1   force =    -0.00000178   -0.00000103    0.03026234
     atom    6 type  1   force =     0.00000190    0.00000106    0.03026225
     atom    7 type  2   force =     0.00000154    0.00000090    0.00068933
     atom    8 type  2   force =    -0.00000152   -0.00000088    0.00068930
     atom    9 type  1   force =    -0.00000191   -0.00000107    0.03026217
     atom   10 type  1   force =     0.00000176    0.00000102    0.03026253
     atom   11 type  2   force =     0.00000152    0.00000088    0.00068929
     atom   12 type  2   force =    -0.00000154   -0.00000090    0.00068932
     atom   13 type  1   force =    -0.00000182   -0.00000102    0.03026231
     atom   14 type  1   force =     0.00000167    0.00000096    0.03026231
     atom   15 type  2   force =     0.00000152    0.00000088    0.00068933
     atom   16 type  2   force =    -0.00000154   -0.00000089    0.00068930
     The Hubbard contrib.    to forces
     atom    1 type  1   force =     0.00000000    0.00000000    0.00000000
     atom    2 type  1   force =     0.00000000    0.00000000    0.00000000
     atom    3 type  2   force =     0.00000000    0.00000000    0.00000000
     atom    4 type  2   force =     0.00000000    0.00000000    0.00000000
     atom    5 type  1   force =     0.00000000    0.00000000    0.00000000
     atom    6 type  1   force =     0.00000000    0.00000000    0.00000000
     atom    7 type  2   force =     0.00000000    0.00000000    0.00000000
     atom    8 type  2   force =     0.00000000    0.00000000    0.00000000
     atom    9 type  1   force =     0.00000000    0.00000000    0.00000000
     atom   10 type  1   force =     0.00000000    0.00000000    0.00000000
     atom   11 type  2   force =     0.00000000    0.00000000    0.00000000
     atom   12 type  2   force =     0.00000000    0.00000000    0.00000000
     atom   13 type  1   force =     0.00000000    0.00000000    0.00000000
     atom   14 type  1   force =     0.00000000    0.00000000    0.00000000
     atom   15 type  2   force =     0.00000000    0.00000000    0.00000000
     atom   16 type  2   force =     0.00000000    0.00000000    0.00000000
     The SCF correction term to forces
     atom    1 type  1   force =     0.00000326    0.00000188   -0.00000349
     atom    2 type  1   force =    -0.00000005   -0.00000003   -0.00000111
     atom    3 type  2   force =     0.00000043    0.00000025   -0.00000293
     atom    4 type  2   force =     0.00000011    0.00000006    0.00000086
     atom    5 type  1   force =     0.00000063    0.00000037   -0.00000742
     atom    6 type  1   force =     0.00000182    0.00000105   -0.00000897
     atom    7 type  2   force =     0.00000088    0.00000051    0.00000098
     atom    8 type  2   force =     0.00000018    0.00000011   -0.00000247
     atom    9 type  1   force =    -0.00000311   -0.00000180   -0.00000734
     atom   10 type  1   force =    -0.00000057   -0.00000033    0.00000279
     atom   11 type  2   force =     0.00000008    0.00000005   -0.00000286
     atom   12 type  2   force =    -0.00000073   -0.00000042    0.00000053
     atom   13 type  1   force =     0.00000048    0.00000028   -0.00000700
     atom   14 type  1   force =    -0.00000194   -0.00000112   -0.00000916
     atom   15 type  2   force =    -0.00000020   -0.00000012    0.00000170
     atom   16 type  2   force =    -0.00000068   -0.00000039   -0.00000240

     Total force =     0.505984     Total SCF correction =     0.000020

     General routines

     Parallel routines

   This run was terminated on:  20:11: 1  28Aug2025

   JOB DONE.
Note: The following floating-point exceptions are signalling: IEEE_UNDERFLOW_FLAG IEEE_DENORMAL
Note: The following floating-point exceptions are signalling: IEEE_UNDERFLOW_FLAG IEEE_DENORMAL
Note: The following floating-point exceptions are signalling: IEEE_UNDERFLOW_FLAG IEEE_DENORMAL
Note: The following floating-point exceptions are signalling: IEEE_UNDERFLOW_FLAG IEEE_DENORMAL
Note: The following floating-point exceptions are signalling: IEEE_UNDERFLOW_FLAG IEEE_DENORMAL
Note: The following floating-point exceptions are signalling: IEEE_UNDERFLOW_FLAG IEEE_DENORMAL
Note: The following floating-point exceptions are signalling: IEEE_UNDERFLOW_FLAG IEEE_DENORMAL
Note: The following floating-point exceptions are signalling: IEEE_UNDERFLOW_FLAG IEEE_DENORMAL
Note: The following floating-point exceptions are signalling: IEEE_UNDERFLOW_FLAG IEEE_DENORMAL
Note: The following floating-point exceptions are signalling: IEEE_UNDERFLOW_FLAG IEEE_DENORMAL
Note: The following floating-point exceptions are signalling: IEEE_UNDERFLOW_FLAG IEEE_DENORMAL
Note: The following floating-point exceptions are signalling: IEEE_UNDERFLOW_FLAG IEEE_DENORMAL
Note: The following floating-point exceptions are signalling: IEEE_UNDERFLOW_FLAG IEEE_DENORMAL
Note: The following floating-point exceptions are signalling: IEEE_UNDERFLOW_FLAG IEEE_DENORMAL
Note: The following floating-point exceptions are signalling: IEEE_UNDERFLOW_FLAG IEEE_DENORMAL
Note: The following floating-point exceptions are signalling: IEEE_UNDERFLOW_FLAG IEEE_DENORMAL
Note: The following floating-point exceptions are signalling: IEEE_UNDERFLOW_FLAG IEEE_DENORMAL
Note: The following floating-point exceptions are signalling: IEEE_UNDERFLOW_FLAG IEEE_DENORMAL
Note: The following floating-point exceptions are signalling: IEEE_UNDERFLOW_FLAG IEEE_DENORMAL
Note: The following floating-point exceptions are signalling: IEEE_UNDERFLOW_FLAG IEEE_DENORMAL
Note: The following floating-point exceptions are signalling: IEEE_UNDERFLOW_FLAG IEEE_DENORMAL
Note: The following floating-point exceptions are signalling: IEEE_UNDERFLOW_FLAG IEEE_DENORMAL
Note: The following floating-point exceptions are signalling: IEEE_UNDERFLOW_FLAG IEEE_DENORMAL
Note: The following floating-point exceptions are signalling: IEEE_UNDERFLOW_FLAG IEEE_DENORMAL
Note: The following floating-point exceptions are signalling: IEEE_UNDERFLOW_FLAG IEEE_DENORMAL
Note: The following floating-point exceptions are signalling: IEEE_UNDERFLOW_FLAG IEEE_DENORMAL
Note: The following floating-point exceptions are signalling: IEEE_UNDERFLOW_FLAG IEEE_DENORMAL
Note: The following floating-point exceptions are signalling: IEEE_UNDERFLOW_FLAG IEEE_DENORMAL
Note: The following floating-point exceptions are signalling: IEEE_UNDERFLOW_FLAG IEEE_DENORMAL
Note: The following floating-point exceptions are signalling: IEEE_UNDERFLOW_FLAG IEEE_DENORMAL
Note: The following floating-point exceptions are signalling: IEEE_UNDERFLOW_FLAG IEEE_DENORMAL
Note: The following floating-point exceptions are signalling: IEEE_UNDERFLOW_FLAG IEEE_DENORMAL