     Program PWSCF v.7.0 starts on 29Aug2025 at 14:25:47

     K-points division:     npool     =       8
     R & G space division:  proc/nbgrp/npool/nimage =       4

     Reading input from /home/jvc/QEspresso7.2/ZnO_database/scripts/cell212.in/ZnO-3.53-1.45-212.in
Warning: card &CELL ignored
Warning: card / ignored
Warning: card &FCP ignored
Warning: card / ignored
Warning: card &RISM ignored
Warning: card / ignored

     Current dimensions of program PWSCF are:
     Max number of different atomic species (ntypx) = 10
     Max number of k-points (npk) =  40000
     Max angular momentum in pseudopotentials (lmaxx) =  4
     file Zn.upf: wavefunction(s)  3D renormalized
     Found identity + (  0.0000  0.0000 -0.5000) symmetry
     This is a supercell, fractional translations are disabled
     Message from routine setup:
     using ibrav=0 with symmetry is DISCOURAGED, use correct ibrav instead

     Using Slab Decomposition

     bravais-lattice index     =            0
     lattice parameter (alat)  =      13.3463  a.u.
     unit-cell volume          =    1495.6437 (a.u.)^3
     number of atoms/cell      =           16
     number of atomic types    =            2
     number of electrons       =       144.00
     number of Kohn-Sham states=           72
     kinetic-energy cutoff     =      50.0000  Ry
     charge density cutoff     =     400.0000  Ry
     scf convergence threshold =      1.0E-08
     mixing beta               =       0.3000
     number of iterations used =            8  plain     mixing
     Exchange-correlation= PBE
                           (   1   4   3   4   0   0   0)

     celldm(1)=  13.346325  celldm(2)=   0.000000  celldm(3)=   0.000000
     celldm(4)=   0.000000  celldm(5)=   0.000000  celldm(6)=   0.000000

     crystal axes: (cart. coord. in units of alat)
               a(1) = (   1.000000   0.000000   0.000000 )
               a(2) = (  -0.250000   0.433013   0.000000 )
               a(3) = (   0.000000   0.000000   1.452923 )

     reciprocal axes: (cart. coord. in units 2 pi/alat)
               b(1) = (  1.000000  0.577350 -0.000000 )
               b(2) = (  0.000000  2.309401  0.000000 )
               b(3) = (  0.000000 -0.000000  0.688268 )

     PseudoPot. # 1 for Zn read from file:
     /home/jvc/QEspresso7.2/ZnO_database/pseudos/Zn.upf
     MD5 check sum: 7f56cabf9682ed8c977c2f7d0c5985c5
     Pseudo is Ultrasoft + core correction, Zval = 12.0
     Generated using &quot;atomic&quot; code by A. Dal Corso  v.6.2.2
     Using radial grid of 1201 points,  6 beta functions with:
                l(1) =   0
                l(2) =   0
                l(3) =   1
                l(4) =   1
                l(5) =   2
                l(6) =   2
     Q(r) pseudized with 0 coefficients

     PseudoPot. # 2 for O  read from file:
     /home/jvc/QEspresso7.2/ZnO_database/pseudos/O.upf
     MD5 check sum: 91400c9766925bcf19f520983a725ff0
     Pseudo is Ultrasoft + core correction, Zval =  6.0
     Generated using &quot;atomic&quot; code by A. Dal Corso  v.6.3MaX
     Using radial grid of 1095 points,  4 beta functions with:
                l(1) =   0
                l(2) =   0
                l(3) =   1
                l(4) =   1
     Q(r) pseudized with 0 coefficients

     atomic species   valence    mass     pseudopotential
        Zn            12.00    65.38000     Zn( 1.00)
        O              6.00    15.99900     O ( 1.00)

      2 Sym. Ops. (no inversion) found

                                    s                        frac. trans.

      isym =  1     identity

 cryst.   s( 1) = (     1          0          0      )
                  (     0          1          0      )
                  (     0          0          1      )

 cart.    s( 1) = (  1.0000000  0.0000000  0.0000000 )
                  (  0.0000000  1.0000000  0.0000000 )
                  (  0.0000000  0.0000000  1.0000000 )

      isym =  2     inv. 180 deg rotation - cryst. axis [0,1,0]

 cryst.   s( 2) = (     1          2          0      )
                  (     0         -1          0      )
                  (     0          0          1      )

 cart.    s( 2) = (  0.5000000  0.8660254  0.0000000 )
                  (  0.8660254 -0.5000000  0.0000000 )
                  (  0.0000000  0.0000000  1.0000000 )

   Cartesian axes

     site n.     atom                  positions (alat units)
         1           Zn  tau(   1) = (   0.2500000   0.1443376   0.3636909  )
         2           Zn  tau(   2) = (  -0.0000000   0.2886751   0.0004603  )
         3           O   tau(   3) = (   0.2500000   0.1443376   0.6390508  )
         4           O   tau(   4) = (  -0.0000000   0.2886751   0.2758202  )
         5           Zn  tau(   5) = (   0.2500000   0.1443376   1.0901522  )
         6           Zn  tau(   6) = (  -0.0000000   0.2886751   0.7269215  )
         7           O   tau(   7) = (   0.2500000   0.1443376   1.3655121  )
         8           O   tau(   8) = (  -0.0000000   0.2886751   1.0022815  )
         9           Zn  tau(   9) = (   0.7500000   0.1443376   0.3636909  )
        10           Zn  tau(  10) = (   0.5000000   0.2886751   0.0004603  )
        11           O   tau(  11) = (   0.7500000   0.1443376   0.6390508  )
        12           O   tau(  12) = (   0.5000000   0.2886751   0.2758202  )
        13           Zn  tau(  13) = (   0.7500000   0.1443376   1.0901522  )
        14           Zn  tau(  14) = (   0.5000000   0.2886751   0.7269215  )
        15           O   tau(  15) = (   0.7500000   0.1443376   1.3655121  )
        16           O   tau(  16) = (   0.5000000   0.2886751   1.0022815  )

   Crystallographic axes

     site n.     atom                  positions (cryst. coord.)
         1           Zn  tau(   1) = (  0.3333333  0.3333333  0.2503168  )
         2           Zn  tau(   2) = (  0.1666667  0.6666667  0.0003168  )
         3           O   tau(   3) = (  0.3333333  0.3333333  0.4398382  )
         4           O   tau(   4) = (  0.1666667  0.6666667  0.1898382  )
         5           Zn  tau(   5) = (  0.3333333  0.3333333  0.7503168  )
         6           Zn  tau(   6) = (  0.1666667  0.6666667  0.5003168  )
         7           O   tau(   7) = (  0.3333333  0.3333333  0.9398382  )
         8           O   tau(   8) = (  0.1666667  0.6666667  0.6898382  )
         9           Zn  tau(   9) = (  0.8333333  0.3333333  0.2503168  )
        10           Zn  tau(  10) = (  0.6666667  0.6666667  0.0003168  )
        11           O   tau(  11) = (  0.8333333  0.3333333  0.4398382  )
        12           O   tau(  12) = (  0.6666667  0.6666667  0.1898382  )
        13           Zn  tau(  13) = (  0.8333333  0.3333333  0.7503168  )
        14           Zn  tau(  14) = (  0.6666667  0.6666667  0.5003168  )
        15           O   tau(  15) = (  0.8333333  0.3333333  0.9398382  )
        16           O   tau(  16) = (  0.6666667  0.6666667  0.6898382  )

     number of k points=    80
                       cart. coord. in units 2pi/alat
        k(    1) = (   0.0000000   0.0000000   0.0000000), wk =   0.0092593
        k(    2) = (   0.0000000   0.0000000   0.1147113), wk =   0.0185185
        k(    3) = (   0.0000000   0.0000000   0.2294226), wk =   0.0185185
        k(    4) = (   0.0000000   0.0000000  -0.3441340), wk =   0.0092593
        k(    5) = (   0.0000000   0.3849002   0.0000000), wk =   0.0370370
        k(    6) = (   0.0000000   0.3849002   0.1147113), wk =   0.0370370
        k(    7) = (   0.0000000   0.3849002   0.2294226), wk =   0.0370370
        k(    8) = (   0.0000000   0.3849002  -0.3441340), wk =   0.0370370
        k(    9) = (   0.0000000   0.7698004   0.0000000), wk =   0.0370370
        k(   10) = (   0.0000000   0.7698004   0.1147113), wk =   0.0370370
        k(   11) = (   0.0000000   0.7698004   0.2294226), wk =   0.0370370
        k(   12) = (   0.0000000   0.7698004  -0.3441340), wk =   0.0370370
        k(   13) = (   0.0000000  -1.1547005   0.0000000), wk =   0.0092593
        k(   14) = (   0.0000000  -1.1547005   0.1147113), wk =   0.0185185
        k(   15) = (   0.0000000  -1.1547005   0.2294226), wk =   0.0185185
        k(   16) = (   0.0000000  -1.1547005  -0.3441340), wk =   0.0092593
        k(   17) = (   0.1666667   0.0962250   0.0000000), wk =   0.0185185
        k(   18) = (   0.1666667   0.0962250   0.1147113), wk =   0.0185185
        k(   19) = (   0.1666667   0.0962250   0.2294226), wk =   0.0185185
        k(   20) = (   0.1666667   0.0962250  -0.3441340), wk =   0.0185185
        k(   21) = (   0.1666667   0.4811252   0.0000000), wk =   0.0370370
        k(   22) = (   0.1666667   0.4811252   0.1147113), wk =   0.0370370
        k(   23) = (   0.1666667   0.4811252   0.2294226), wk =   0.0370370
        k(   24) = (   0.1666667   0.4811252  -0.3441340), wk =   0.0370370
        k(   25) = (   0.1666667   0.8660254   0.0000000), wk =   0.0185185
        k(   26) = (   0.1666667   0.8660254   0.1147113), wk =   0.0370370
        k(   27) = (   0.1666667   0.8660254   0.2294226), wk =   0.0370370
        k(   28) = (   0.1666667   0.8660254  -0.3441340), wk =   0.0185185
        k(   29) = (   0.1666667  -1.0584755   0.0000000), wk =   0.0185185
        k(   30) = (   0.1666667  -1.0584755   0.1147113), wk =   0.0185185
        k(   31) = (   0.1666667  -1.0584755   0.2294226), wk =   0.0185185
        k(   32) = (   0.1666667  -1.0584755  -0.3441340), wk =   0.0185185
        k(   33) = (   0.1666667  -0.6735753   0.0000000), wk =   0.0370370
        k(   34) = (   0.1666667  -0.6735753   0.1147113), wk =   0.0370370
        k(   35) = (   0.1666667  -0.6735753   0.2294226), wk =   0.0370370
        k(   36) = (   0.1666667  -0.6735753  -0.3441340), wk =   0.0370370
        k(   37) = (   0.1666667  -0.2886751   0.0000000), wk =   0.0185185
        k(   38) = (   0.1666667  -0.2886751   0.1147113), wk =   0.0370370
        k(   39) = (   0.1666667  -0.2886751   0.2294226), wk =   0.0370370
        k(   40) = (   0.1666667  -0.2886751  -0.3441340), wk =   0.0185185
        k(   41) = (   0.3333333   0.1924501   0.0000000), wk =   0.0185185
        k(   42) = (   0.3333333   0.1924501   0.1147113), wk =   0.0185185
        k(   43) = (   0.3333333   0.1924501   0.2294226), wk =   0.0185185
        k(   44) = (   0.3333333   0.1924501  -0.3441340), wk =   0.0185185
        k(   45) = (   0.3333333   0.5773503   0.0000000), wk =   0.0185185
        k(   46) = (   0.3333333   0.5773503   0.1147113), wk =   0.0370370
        k(   47) = (   0.3333333   0.5773503   0.2294226), wk =   0.0370370
        k(   48) = (   0.3333333   0.5773503  -0.3441340), wk =   0.0185185
        k(   49) = (   0.3333333  -0.9622504   0.0000000), wk =   0.0185185
        k(   50) = (   0.3333333  -0.9622504   0.1147113), wk =   0.0185185
        k(   51) = (   0.3333333  -0.9622504   0.2294226), wk =   0.0185185
        k(   52) = (   0.3333333  -0.9622504  -0.3441340), wk =   0.0185185
        k(   53) = (   0.3333333  -0.5773503   0.0000000), wk =   0.0185185
        k(   54) = (   0.3333333  -0.5773503   0.1147113), wk =   0.0370370
        k(   55) = (   0.3333333  -0.5773503   0.2294226), wk =   0.0370370
[...]
        k(   80) = (  -0.6666667   0.5000000  -0.3333333), wk =   0.0185185

     Check: negative core charge=   -0.000002

     Initial potential from superposition of free atoms

     starting charge     143.9702, renormalised to     144.0000
     Starting wfcs are  104 randomized atomic wfcs

     Self-consistent Calculation

     iteration #  1     ecut=    50.00 Ry     beta= 0.30
     Davidson diagonalization with overlap

     ethr =  1.00E-02,  avg # of iterations =  1.8

     total energy              =   -1445.70809567 Ry
     estimated scf accuracy    <       3.03405791 Ry

[...]

     c_bands:  1 eigenvalues not converged
     c_bands:  1 eigenvalues not converged
     c_bands:  1 eigenvalues not converged
     ethr =  2.09E-08,  avg # of iterations = 15.3

[...]

     c_bands:  1 eigenvalues not converged
     ethr =  2.09E-08,  avg # of iterations = 12.9

[...]

     total energy              =   -1446.42452817 Ry
     estimated scf accuracy    <       0.00000001 Ry

     iteration # 31     ecut=    50.00 Ry     beta= 0.30
     Davidson diagonalization with overlap

     ethr =  7.79E-12,  avg # of iterations =  2.5

     End of self-consistent calculation

          k = 0.0000 0.0000 0.0000 (  8923 PWs)   bands (ev):

   -11.8559 -11.5387 -11.5387 -11.4002 -11.2871 -11.2871 -11.2173 -11.1993
    -0.1699  -0.1699  -0.1056  -0.1056  -0.0221   0.0651   0.0990   0.0992
     0.1514   0.1514   0.1515   0.1515   0.2281   0.2930   0.2931   0.3945
     0.4291   0.4291   0.4296   0.4296   0.5004   0.5189   0.7027   0.7867
     0.8061   0.8062   0.8664   0.9402   0.9411   0.9411   0.9411   0.9411
     0.9644   0.9644   1.0038   1.0038   1.0428   1.0457   1.0457   1.0673
     1.1482   1.7326   1.8220   1.8220   2.3124   2.7889   3.1171   3.2053
     3.2053   3.9188   3.9188   4.1574   4.2560   4.2564   4.3220   4.3220
     4.6165   4.7038   4.7038   4.7042   4.7042   5.1195   5.1199   5.1886

     occupation numbers
     1.0000   1.0000   1.0000   1.0000   1.0000   1.0000   1.0000   1.0000
     1.0000   1.0000   1.0000   1.0000   1.0000   1.0000   1.0000   1.0000
     1.0000   1.0000   1.0000   1.0000   1.0000   1.0000   1.0000   1.0000
     1.0000   1.0000   1.0000   1.0000   1.0000   1.0000   1.0000   1.0000
     1.0000   1.0000   1.0000   1.0000   1.0000   1.0000   1.0000   1.0000
     1.0000   1.0000   1.0000   1.0000   1.0000   1.0000   1.0000   1.0000
     1.0000   1.0000   1.0000   1.0000   1.0000   1.0000   1.0000   1.0000
     1.0000   1.0000   1.0000   1.0000   1.0000   1.0000   1.0000   1.0000
     1.0000   1.0000   1.0000   1.0000   1.0000   1.0000   1.0000   1.0000

[...]

          k =-0.5000-0.2887 0.0000 (  8954 PWs)   bands (ev):

[...]

          k = 0.3333 0.1925-0.2294 (  8968 PWs)   bands (ev):

[...]

          k =-0.6667 0.7698-0.2294 (  8898 PWs)   bands (ev):

   -11.3877 -11.3876 -11.3434 -11.3433 -11.2386 -11.2386 -11.2068 -11.2068
    -0.0782  -0.0782   0.0111   0.0111   0.0177   0.0177   0.1704   0.1704
     0.2675   0.2675   0.2948   0.2948   0.3908   0.3908   0.4172   0.4172
     0.4818   0.4818   0.5486   0.5486   0.5831   0.5831   0.6848   0.6848
     0.8499   0.8499   0.8952   0.8952   0.9201   0.9201   0.9334   0.9334
     1.0383   1.0383   1.0499   1.0499   1.1220   1.1220   1.1485   1.1485
     1.7624   1.7624   1.8431   1.8431   2.1470   2.1470   2.2814   2.2815
     2.7920   2.7920   3.0984   3.0984   3.3233   3.3233   3.8863   3.8863
     3.9876   3.9876   4.2406   4.2406   4.3477   4.3477   4.5406   4.5406

     occupation numbers
     1.0000   1.0000   1.0000   1.0000   1.0000   1.0000   1.0000   1.0000
     1.0000   1.0000   1.0000   1.0000   1.0000   1.0000   1.0000   1.0000
     1.0000   1.0000   1.0000   1.0000   1.0000   1.0000   1.0000   1.0000
     1.0000   1.0000   1.0000   1.0000   1.0000   1.0000   1.0000   1.0000
     1.0000   1.0000   1.0000   1.0000   1.0000   1.0000   1.0000   1.0000
     1.0000   1.0000   1.0000   1.0000   1.0000   1.0000   1.0000   1.0000
     1.0000   1.0000   1.0000   1.0000   1.0000   1.0000   1.0000   1.0000
     1.0000   1.0000   1.0000   1.0000   1.0000   1.0000   1.0000   1.0000
     1.0000   1.0000   1.0000   1.0000   1.0000   1.0000   1.0000   1.0000

     highest occupied level (ev):     5.1886

!    total energy              =   -1446.42452817 Ry
     estimated scf accuracy    <          2.6E-09 Ry

     The total energy is the sum of the following terms:
     one-electron contribution =    -680.55428813 Ry
     hartree contribution      =     496.44888943 Ry
     xc contribution           =    -437.28705384 Ry
     ewald contribution        =    -825.03207563 Ry

     convergence has been achieved in  31 iterations

     Forces acting on atoms (cartesian axes, Ry/au):

     atom    1 type  1   force =     0.00000551    0.00000318   -0.02241711
     atom    2 type  1   force =    -0.00000350   -0.00000202   -0.02243302
     atom    3 type  2   force =    -0.00000032   -0.00000018    0.02242952
     atom    4 type  2   force =    -0.00000204   -0.00000118    0.02243089
     atom    5 type  1   force =     0.00000474    0.00000274   -0.02244418
     atom    6 type  1   force =    -0.00000301   -0.00000174   -0.02242675
     atom    7 type  2   force =    -0.00000263   -0.00000152    0.02243186
     atom    8 type  2   force =     0.00000081    0.00000047    0.02243073
     atom    9 type  1   force =     0.00000481    0.00000277   -0.02241859
     atom   10 type  1   force =    -0.00000686   -0.00000396   -0.02242988
     atom   11 type  2   force =    -0.00000222   -0.00000128    0.02243004
     atom   12 type  2   force =     0.00000300    0.00000173    0.02243111
     atom   13 type  1   force =     0.00000450    0.00000260   -0.02244856
     atom   14 type  1   force =    -0.00000675   -0.00000390   -0.02242518
     atom   15 type  2   force =     0.00000323    0.00000186    0.02243173
     atom   16 type  2   force =     0.00000074    0.00000043    0.02242739
     The non-local contrib.  to forces
     atom    1 type  1   force =     0.00000739    0.00000427   -0.29401188
     atom    2 type  1   force =    -0.00000466   -0.00000269   -0.29401467
     atom    3 type  2   force =    -0.00016407   -0.00009473   -0.24583776
     atom    4 type  2   force =     0.00016203    0.00009355   -0.24583827
     atom    5 type  1   force =     0.00000751    0.00000434   -0.29401063
     atom    6 type  1   force =    -0.00000606   -0.00000350   -0.29400497
     atom    7 type  2   force =    -0.00016527   -0.00009542   -0.24582955
     atom    8 type  2   force =     0.00016404    0.00009471   -0.24582836
     atom    9 type  1   force =     0.00000478    0.00000276   -0.29401109
     atom   10 type  1   force =    -0.00000641   -0.00000370   -0.29401629
     atom   11 type  2   force =    -0.00016556   -0.00009559   -0.24583747
     atom   12 type  2   force =     0.00016586    0.00009576   -0.24583850
     atom   13 type  1   force =     0.00000443    0.00000255   -0.29400888
     atom   14 type  1   force =    -0.00000597   -0.00000345   -0.29400527
     atom   15 type  2   force =    -0.00016191   -0.00009348   -0.24583037
     atom   16 type  2   force =     0.00016429    0.00009486   -0.24583055
     The ionic contribution  to forces
     atom    1 type  1   force =    -0.00000000    0.00000000   -1.93774860
     atom    2 type  1   force =     0.00000000   -0.00000000   -1.93774860
     atom    3 type  2   force =    -0.00000000    0.00000000    1.93774860
     atom    4 type  2   force =     0.00000000   -0.00000000    1.93774860
     atom    5 type  1   force =    -0.00000000    0.00000000   -1.93774860
     atom    6 type  1   force =     0.00000000   -0.00000000   -1.93774860
     atom    7 type  2   force =    -0.00000000    0.00000000    1.93774860
     atom    8 type  2   force =     0.00000000   -0.00000000    1.93774860
     atom    9 type  1   force =    -0.00000000    0.00000000   -1.93774860
     atom   10 type  1   force =     0.00000000   -0.00000000   -1.93774860
     atom   11 type  2   force =    -0.00000000    0.00000000    1.93774860
     atom   12 type  2   force =     0.00000000   -0.00000000    1.93774860
     atom   13 type  1   force =    -0.00000000    0.00000000   -1.93774860
     atom   14 type  1   force =     0.00000000   -0.00000000   -1.93774860
     atom   15 type  2   force =    -0.00000000    0.00000000    1.93774860
     atom   16 type  2   force =     0.00000000   -0.00000000    1.93774860
     The local contribution  to forces
     atom    1 type  1   force =    -0.00000243   -0.00000140    2.18943563
     atom    2 type  1   force =    -0.00000324   -0.00000198    2.18944280
     atom    3 type  2   force =     0.00016129    0.00009312   -1.67147055
     atom    4 type  2   force =    -0.00016124   -0.00009312   -1.67147575
     atom    5 type  1   force =    -0.00000206   -0.00000119    2.18946301
     atom    6 type  1   force =    -0.00000192   -0.00000122    2.18944748
     atom    7 type  2   force =     0.00016085    0.00009287   -1.67146742
     atom    8 type  2   force =    -0.00016120   -0.00009310   -1.67146321
     atom    9 type  1   force =     0.00000342    0.00000198    2.18943596
     atom   10 type  1   force =     0.00000054    0.00000020    2.18944338
     atom   11 type  2   force =     0.00016154    0.00009326   -1.67146888
     atom   12 type  2   force =    -0.00016069   -0.00009280   -1.67147591
     atom   13 type  1   force =     0.00000366    0.00000211    2.18946176
     atom   14 type  1   force =     0.00000037    0.00000011    2.18944649
     atom   15 type  2   force =     0.00016298    0.00009409   -1.67146878
     atom   16 type  2   force =    -0.00016133   -0.00009317   -1.67146341
     The core correction contribution to forces
     atom    1 type  1   force =    -0.00000306   -0.00000176    0.01988614
     atom    2 type  1   force =     0.00000303    0.00000174    0.01988701
     atom    3 type  2   force =     0.00000187    0.00000108    0.00198410
     atom    4 type  2   force =    -0.00000184   -0.00000106    0.00198462
     atom    5 type  1   force =    -0.00000307   -0.00000177    0.01988296
     atom    6 type  1   force =     0.00000312    0.00000179    0.01988226
     atom    7 type  2   force =     0.00000189    0.00000109    0.00198223
     atom    8 type  2   force =    -0.00000186   -0.00000107    0.00198170
     atom    9 type  1   force =    -0.00000314   -0.00000181    0.01988607
     atom   10 type  1   force =     0.00000316    0.00000181    0.01988706
     atom   11 type  2   force =     0.00000189    0.00000109    0.00198411
     atom   12 type  2   force =    -0.00000189   -0.00000109    0.00198462
     atom   13 type  1   force =    -0.00000312   -0.00000180    0.01988303
     atom   14 type  1   force =     0.00000307    0.00000176    0.01988231
     atom   15 type  2   force =     0.00000184    0.00000106    0.00198224
     atom   16 type  2   force =    -0.00000188   -0.00000108    0.00198173
     The Hubbard contrib.    to forces
     atom    1 type  1   force =     0.00000000    0.00000000    0.00000000
     atom    2 type  1   force =     0.00000000    0.00000000    0.00000000
     atom    3 type  2   force =     0.00000000    0.00000000    0.00000000
     atom    4 type  2   force =     0.00000000    0.00000000    0.00000000
     atom    5 type  1   force =     0.00000000    0.00000000    0.00000000
     atom    6 type  1   force =     0.00000000    0.00000000    0.00000000
     atom    7 type  2   force =     0.00000000    0.00000000    0.00000000
     atom    8 type  2   force =     0.00000000    0.00000000    0.00000000
     atom    9 type  1   force =     0.00000000    0.00000000    0.00000000
     atom   10 type  1   force =     0.00000000    0.00000000    0.00000000
     atom   11 type  2   force =     0.00000000    0.00000000    0.00000000
     atom   12 type  2   force =     0.00000000    0.00000000    0.00000000
     atom   13 type  1   force =     0.00000000    0.00000000    0.00000000
     atom   14 type  1   force =     0.00000000    0.00000000    0.00000000
     atom   15 type  2   force =     0.00000000    0.00000000    0.00000000
     atom   16 type  2   force =     0.00000000    0.00000000    0.00000000
     The SCF correction term to forces
     atom    1 type  1   force =     0.00000361    0.00000209    0.00002085
     atom    2 type  1   force =     0.00000143    0.00000083   -0.00000031
     atom    3 type  2   force =     0.00000061    0.00000035    0.00000437
     atom    4 type  2   force =    -0.00000098   -0.00000056    0.00001094
     atom    5 type  1   force =     0.00000237    0.00000137   -0.00003168
     atom    6 type  1   force =     0.00000191    0.00000110   -0.00000367
     atom    7 type  2   force =    -0.00000009   -0.00000005   -0.00000277
     atom    8 type  2   force =    -0.00000014   -0.00000008   -0.00000875
     atom    9 type  1   force =    -0.00000025   -0.00000014    0.00001831
     atom   10 type  1   force =    -0.00000410   -0.00000236    0.00000382
     atom   11 type  2   force =    -0.00000007   -0.00000004    0.00000292
     atom   12 type  2   force =    -0.00000026   -0.00000015    0.00001154
     atom   13 type  1   force =    -0.00000047   -0.00000027   -0.00003662
     atom   14 type  1   force =    -0.00000417   -0.00000241   -0.00000087
     atom   15 type  2   force =     0.00000033    0.00000019   -0.00000072
     atom   16 type  2   force =    -0.00000033   -0.00000019   -0.00000974

     Total force =     0.089722     Total SCF correction =     0.000061

     General routines

     Parallel routines

   This run was terminated on:  14:40:18  29Aug2025

   JOB DONE.
Note: The following floating-point exceptions are signalling: IEEE_UNDERFLOW_FLAG IEEE_DENORMAL
Note: The following floating-point exceptions are signalling: IEEE_UNDERFLOW_FLAG IEEE_DENORMAL
Note: The following floating-point exceptions are signalling: IEEE_UNDERFLOW_FLAG IEEE_DENORMAL
Note: The following floating-point exceptions are signalling: IEEE_UNDERFLOW_FLAG IEEE_DENORMAL
Note: The following floating-point exceptions are signalling: IEEE_UNDERFLOW_FLAG IEEE_DENORMAL
Note: The following floating-point exceptions are signalling: IEEE_UNDERFLOW_FLAG IEEE_DENORMAL
Note: The following floating-point exceptions are signalling: IEEE_UNDERFLOW_FLAG IEEE_DENORMAL
Note: The following floating-point exceptions are signalling: IEEE_UNDERFLOW_FLAG IEEE_DENORMAL
Note: The following floating-point exceptions are signalling: IEEE_UNDERFLOW_FLAG IEEE_DENORMAL
Note: The following floating-point exceptions are signalling: IEEE_UNDERFLOW_FLAG IEEE_DENORMAL
Note: The following floating-point exceptions are signalling: IEEE_UNDERFLOW_FLAG IEEE_DENORMAL
Note: The following floating-point exceptions are signalling: IEEE_UNDERFLOW_FLAG IEEE_DENORMAL
Note: The following floating-point exceptions are signalling: IEEE_UNDERFLOW_FLAG IEEE_DENORMAL
Note: The following floating-point exceptions are signalling: IEEE_UNDERFLOW_FLAG IEEE_DENORMAL
Note: The following floating-point exceptions are signalling: IEEE_UNDERFLOW_FLAG IEEE_DENORMAL
Note: The following floating-point exceptions are signalling: IEEE_UNDERFLOW_FLAG IEEE_DENORMAL
Note: The following floating-point exceptions are signalling: IEEE_UNDERFLOW_FLAG IEEE_DENORMAL
Note: The following floating-point exceptions are signalling: IEEE_UNDERFLOW_FLAG IEEE_DENORMAL
Note: The following floating-point exceptions are signalling: IEEE_UNDERFLOW_FLAG IEEE_DENORMAL
Note: The following floating-point exceptions are signalling: IEEE_UNDERFLOW_FLAG IEEE_DENORMAL
Note: The following floating-point exceptions are signalling: IEEE_UNDERFLOW_FLAG IEEE_DENORMAL
Note: The following floating-point exceptions are signalling: IEEE_UNDERFLOW_FLAG IEEE_DENORMAL
Note: The following floating-point exceptions are signalling: IEEE_UNDERFLOW_FLAG IEEE_DENORMAL
Note: The following floating-point exceptions are signalling: IEEE_UNDERFLOW_FLAG IEEE_DENORMAL
Note: The following floating-point exceptions are signalling: IEEE_UNDERFLOW_FLAG IEEE_DENORMAL
Note: The following floating-point exceptions are signalling: IEEE_UNDERFLOW_FLAG IEEE_DENORMAL
Note: The following floating-point exceptions are signalling: IEEE_UNDERFLOW_FLAG IEEE_DENORMAL
Note: The following floating-point exceptions are signalling: IEEE_UNDERFLOW_FLAG IEEE_DENORMAL
Note: The following floating-point exceptions are signalling: IEEE_UNDERFLOW_FLAG IEEE_DENORMAL
Note: The following floating-point exceptions are signalling: IEEE_UNDERFLOW_FLAG IEEE_DENORMAL
Note: The following floating-point exceptions are signalling: IEEE_UNDERFLOW_FLAG IEEE_DENORMAL
Note: The following floating-point exceptions are signalling: IEEE_UNDERFLOW_FLAG IEEE_DENORMAL