     Program PWSCF v.7.0 starts on 28Aug2025 at 18:47:31

     K-points division:     npool     =       8
     R & G space division:  proc/nbgrp/npool/nimage =       4

     Reading input from /home/jvc/QEspresso7.2/ZnO_database/scripts/cell212.in/ZnO-2.94-1.52-212.in
Warning: card &CELL ignored
Warning: card / ignored
Warning: card &FCP ignored
Warning: card / ignored
Warning: card &RISM ignored
Warning: card / ignored

     Current dimensions of program PWSCF are:
     Max number of different atomic species (ntypx) = 10
     Max number of k-points (npk) =  40000
     Max angular momentum in pseudopotentials (lmaxx) =  4
     file Zn.upf: wavefunction(s)  3D renormalized
     Found identity + (  0.0000  0.0000 -0.5000) symmetry
     This is a supercell, fractional translations are disabled
     Message from routine setup:
     using ibrav=0 with symmetry is DISCOURAGED, use correct ibrav instead

     Using Slab Decomposition

     bravais-lattice index     =            0
     lattice parameter (alat)  =      11.1219  a.u.
     unit-cell volume          =     904.0027 (a.u.)^3
     number of atoms/cell      =           16
     number of atomic types    =            2
     number of electrons       =       144.00
     number of Kohn-Sham states=           72
     kinetic-energy cutoff     =      50.0000  Ry
     charge density cutoff     =     400.0000  Ry
     scf convergence threshold =      1.0E-08
     mixing beta               =       0.3000
     number of iterations used =            8  plain     mixing
     Exchange-correlation= PBE
                           (   1   4   3   4   0   0   0)

     celldm(1)=  11.121937  celldm(2)=   0.000000  celldm(3)=   0.000000
     celldm(4)=   0.000000  celldm(5)=   0.000000  celldm(6)=   0.000000

     crystal axes: (cart. coord. in units of alat)
               a(1) = (   1.000000   0.000000   0.000000 )
               a(2) = (  -0.250000   0.433013   0.000000 )
               a(3) = (   0.000000   0.000000   1.517497 )

     reciprocal axes: (cart. coord. in units 2 pi/alat)
               b(1) = (  1.000000  0.577350 -0.000000 )
               b(2) = (  0.000000  2.309401  0.000000 )
               b(3) = (  0.000000 -0.000000  0.658980 )

     PseudoPot. # 1 for Zn read from file:
     /home/jvc/QEspresso7.2/ZnO_database/pseudos/Zn.upf
     MD5 check sum: 7f56cabf9682ed8c977c2f7d0c5985c5
     Pseudo is Ultrasoft + core correction, Zval = 12.0
     Generated using &quot;atomic&quot; code by A. Dal Corso  v.6.2.2
     Using radial grid of 1201 points,  6 beta functions with:
                l(1) =   0
                l(2) =   0
                l(3) =   1
                l(4) =   1
                l(5) =   2
                l(6) =   2
     Q(r) pseudized with 0 coefficients

     PseudoPot. # 2 for O  read from file:
     /home/jvc/QEspresso7.2/ZnO_database/pseudos/O.upf
     MD5 check sum: 91400c9766925bcf19f520983a725ff0
     Pseudo is Ultrasoft + core correction, Zval =  6.0
     Generated using &quot;atomic&quot; code by A. Dal Corso  v.6.3MaX
     Using radial grid of 1095 points,  4 beta functions with:
                l(1) =   0
                l(2) =   0
                l(3) =   1
                l(4) =   1
     Q(r) pseudized with 0 coefficients

     atomic species   valence    mass     pseudopotential
        Zn            12.00    65.38000     Zn( 1.00)
        O              6.00    15.99900     O ( 1.00)

      2 Sym. Ops. (no inversion) found

                                    s                        frac. trans.

      isym =  1     identity

 cryst.   s( 1) = (     1          0          0      )
                  (     0          1          0      )
                  (     0          0          1      )

 cart.    s( 1) = (  1.0000000  0.0000000  0.0000000 )
                  (  0.0000000  1.0000000  0.0000000 )
                  (  0.0000000  0.0000000  1.0000000 )

      isym =  2     inv. 180 deg rotation - cryst. axis [0,1,0]

 cryst.   s( 2) = (     1          2          0      )
                  (     0         -1          0      )
                  (     0          0          1      )

 cart.    s( 2) = (  0.5000000  0.8660254  0.0000000 )
                  (  0.8660254 -0.5000000  0.0000000 )
                  (  0.0000000  0.0000000  1.0000000 )

   Cartesian axes

     site n.     atom                  positions (alat units)
         1           Zn  tau(   1) = (   0.2500000   0.1443376   0.3798549  )
         2           Zn  tau(   2) = (  -0.0000000   0.2886751   0.0004807  )
         3           O   tau(   3) = (   0.2500000   0.1443376   0.6674531  )
         4           O   tau(   4) = (  -0.0000000   0.2886751   0.2880789  )
         5           Zn  tau(   5) = (   0.2500000   0.1443376   1.1386034  )
         6           Zn  tau(   6) = (  -0.0000000   0.2886751   0.7592292  )
         7           O   tau(   7) = (   0.2500000   0.1443376   1.4262015  )
         8           O   tau(   8) = (  -0.0000000   0.2886751   1.0468273  )
         9           Zn  tau(   9) = (   0.7500000   0.1443376   0.3798549  )
        10           Zn  tau(  10) = (   0.5000000   0.2886751   0.0004807  )
        11           O   tau(  11) = (   0.7500000   0.1443376   0.6674531  )
        12           O   tau(  12) = (   0.5000000   0.2886751   0.2880789  )
        13           Zn  tau(  13) = (   0.7500000   0.1443376   1.1386034  )
        14           Zn  tau(  14) = (   0.5000000   0.2886751   0.7592292  )
        15           O   tau(  15) = (   0.7500000   0.1443376   1.4262015  )
        16           O   tau(  16) = (   0.5000000   0.2886751   1.0468273  )

   Crystallographic axes

     site n.     atom                  positions (cryst. coord.)
         1           Zn  tau(   1) = (  0.3333333  0.3333333  0.2503168  )
         2           Zn  tau(   2) = (  0.1666667  0.6666667  0.0003168  )
         3           O   tau(   3) = (  0.3333333  0.3333333  0.4398382  )
         4           O   tau(   4) = (  0.1666667  0.6666667  0.1898382  )
         5           Zn  tau(   5) = (  0.3333333  0.3333333  0.7503168  )
         6           Zn  tau(   6) = (  0.1666667  0.6666667  0.5003168  )
         7           O   tau(   7) = (  0.3333333  0.3333333  0.9398382  )
         8           O   tau(   8) = (  0.1666667  0.6666667  0.6898382  )
         9           Zn  tau(   9) = (  0.8333333  0.3333333  0.2503168  )
        10           Zn  tau(  10) = (  0.6666667  0.6666667  0.0003168  )
        11           O   tau(  11) = (  0.8333333  0.3333333  0.4398382  )
        12           O   tau(  12) = (  0.6666667  0.6666667  0.1898382  )
        13           Zn  tau(  13) = (  0.8333333  0.3333333  0.7503168  )
        14           Zn  tau(  14) = (  0.6666667  0.6666667  0.5003168  )
        15           O   tau(  15) = (  0.8333333  0.3333333  0.9398382  )
        16           O   tau(  16) = (  0.6666667  0.6666667  0.6898382  )

     number of k points=    80
                       cart. coord. in units 2pi/alat
        k(    1) = (   0.0000000   0.0000000   0.0000000), wk =   0.0092593
        k(    2) = (   0.0000000   0.0000000   0.1098300), wk =   0.0185185
        k(    3) = (   0.0000000   0.0000000   0.2196600), wk =   0.0185185
        k(    4) = (   0.0000000   0.0000000  -0.3294900), wk =   0.0092593
        k(    5) = (   0.0000000   0.3849002   0.0000000), wk =   0.0370370
        k(    6) = (   0.0000000   0.3849002   0.1098300), wk =   0.0370370
        k(    7) = (   0.0000000   0.3849002   0.2196600), wk =   0.0370370
        k(    8) = (   0.0000000   0.3849002  -0.3294900), wk =   0.0370370
        k(    9) = (   0.0000000   0.7698004   0.0000000), wk =   0.0370370
        k(   10) = (   0.0000000   0.7698004   0.1098300), wk =   0.0370370
        k(   11) = (   0.0000000   0.7698004   0.2196600), wk =   0.0370370
        k(   12) = (   0.0000000   0.7698004  -0.3294900), wk =   0.0370370
        k(   13) = (   0.0000000  -1.1547005   0.0000000), wk =   0.0092593
        k(   14) = (   0.0000000  -1.1547005   0.1098300), wk =   0.0185185
        k(   15) = (   0.0000000  -1.1547005   0.2196600), wk =   0.0185185
        k(   16) = (   0.0000000  -1.1547005  -0.3294900), wk =   0.0092593
        k(   17) = (   0.1666667   0.0962250   0.0000000), wk =   0.0185185
        k(   18) = (   0.1666667   0.0962250   0.1098300), wk =   0.0185185
        k(   19) = (   0.1666667   0.0962250   0.2196600), wk =   0.0185185
        k(   20) = (   0.1666667   0.0962250  -0.3294900), wk =   0.0185185
        k(   21) = (   0.1666667   0.4811252   0.0000000), wk =   0.0370370
        k(   22) = (   0.1666667   0.4811252   0.1098300), wk =   0.0370370
        k(   23) = (   0.1666667   0.4811252   0.2196600), wk =   0.0370370
        k(   24) = (   0.1666667   0.4811252  -0.3294900), wk =   0.0370370
        k(   25) = (   0.1666667   0.8660254   0.0000000), wk =   0.0185185
        k(   26) = (   0.1666667   0.8660254   0.1098300), wk =   0.0370370
        k(   27) = (   0.1666667   0.8660254   0.2196600), wk =   0.0370370
        k(   28) = (   0.1666667   0.8660254  -0.3294900), wk =   0.0185185
        k(   29) = (   0.1666667  -1.0584755   0.0000000), wk =   0.0185185
        k(   30) = (   0.1666667  -1.0584755   0.1098300), wk =   0.0185185
        k(   31) = (   0.1666667  -1.0584755   0.2196600), wk =   0.0185185
        k(   32) = (   0.1666667  -1.0584755  -0.3294900), wk =   0.0185185
        k(   33) = (   0.1666667  -0.6735753   0.0000000), wk =   0.0370370
        k(   34) = (   0.1666667  -0.6735753   0.1098300), wk =   0.0370370
        k(   35) = (   0.1666667  -0.6735753   0.2196600), wk =   0.0370370
        k(   36) = (   0.1666667  -0.6735753  -0.3294900), wk =   0.0370370
        k(   37) = (   0.1666667  -0.2886751   0.0000000), wk =   0.0185185
        k(   38) = (   0.1666667  -0.2886751   0.1098300), wk =   0.0370370
        k(   39) = (   0.1666667  -0.2886751   0.2196600), wk =   0.0370370
        k(   40) = (   0.1666667  -0.2886751  -0.3294900), wk =   0.0185185
        k(   41) = (   0.3333333   0.1924501   0.0000000), wk =   0.0185185
        k(   42) = (   0.3333333   0.1924501   0.1098300), wk =   0.0185185
        k(   43) = (   0.3333333   0.1924501   0.2196600), wk =   0.0185185
        k(   44) = (   0.3333333   0.1924501  -0.3294900), wk =   0.0185185
        k(   45) = (   0.3333333   0.5773503   0.0000000), wk =   0.0185185
        k(   46) = (   0.3333333   0.5773503   0.1098300), wk =   0.0370370
        k(   47) = (   0.3333333   0.5773503   0.2196600), wk =   0.0370370
        k(   48) = (   0.3333333   0.5773503  -0.3294900), wk =   0.0185185
        k(   49) = (   0.3333333  -0.9622504   0.0000000), wk =   0.0185185
        k(   50) = (   0.3333333  -0.9622504   0.1098300), wk =   0.0185185
        k(   51) = (   0.3333333  -0.9622504   0.2196600), wk =   0.0185185
        k(   52) = (   0.3333333  -0.9622504  -0.3294900), wk =   0.0185185
        k(   53) = (   0.3333333  -0.5773503   0.0000000), wk =   0.0185185
        k(   54) = (   0.3333333  -0.5773503   0.1098300), wk =   0.0370370
        k(   55) = (   0.3333333  -0.5773503   0.2196600), wk =   0.0370370
[...]
        k(   76) = (  -0.5000000   0.3333333  -0.3333333), wk =   0.0370370
        k(   77) = (   0.3333333   0.0000000  -0.1666667), wk =   0.0185185
        k(   78) = (   0.3333333   0.0000000  -0.3333333), wk =   0.0185185
        k(   79) = (  -0.6666667   0.5000000  -0.1666667), wk =   0.0185185
        k(   80) = (  -0.6666667   0.5000000  -0.3333333), wk =   0.0185185

     Initial potential from superposition of free atoms

     starting charge     143.9702, renormalised to     144.0000
     Starting wfcs are  104 randomized atomic wfcs

     Self-consistent Calculation

     iteration #  1     ecut=    50.00 Ry     beta= 0.30
     Davidson diagonalization with overlap

     ethr =  1.00E-02,  avg # of iterations =  2.4

     total energy              =   -1444.77303441 Ry
     estimated scf accuracy    <       2.82001895 Ry

[...]

     total energy              =   -1445.26977946 Ry
     estimated scf accuracy    <       0.00000002 Ry

     iteration # 19     ecut=    50.00 Ry     beta= 0.30
     Davidson diagonalization with overlap

     ethr =  1.15E-11,  avg # of iterations =  2.1

     End of self-consistent calculation

          k = 0.0000 0.0000 0.0000 (  5429 PWs)   bands (ev):

    -7.9677  -7.2119  -7.2119  -6.6828  -6.3981  -6.3941  -6.3941  -6.1991
     4.3082   4.3082   4.8452   4.8617   4.8617   4.8637   4.9063   5.5478
     5.5479   5.6397   5.6578   5.6578   5.6579   5.6579   5.9160   5.9215
     5.9216   6.0366   6.1262   6.1262   6.2910   6.2910   6.6317   6.8938
     7.9392   7.9392   8.0117   8.2931   8.2931   8.2931   8.2931   8.3429
     8.4080   8.4080   8.4712   8.4713   8.5334   8.5334   8.5900   8.6432
     8.8490   8.9379   9.1316   9.1316   9.3895   9.8751   9.8983  11.3062
    11.3062  11.4287  11.4287  11.9631  11.9631  11.9850  12.2088  12.2089
    12.4254  12.9558  12.9558  12.9559  12.9559  13.6344  13.7007  13.7009

     occupation numbers
     1.0000   1.0000   1.0000   1.0000   1.0000   1.0000   1.0000   1.0000
     1.0000   1.0000   1.0000   1.0000   1.0000   1.0000   1.0000   1.0000
     1.0000   1.0000   1.0000   1.0000   1.0000   1.0000   1.0000   1.0000
     1.0000   1.0000   1.0000   1.0000   1.0000   1.0000   1.0000   1.0000
     1.0000   1.0000   1.0000   1.0000   1.0000   1.0000   1.0000   1.0000
     1.0000   1.0000   1.0000   1.0000   1.0000   1.0000   1.0000   1.0000
     1.0000   1.0000   1.0000   1.0000   1.0000   1.0000   1.0000   1.0000
     1.0000   1.0000   1.0000   1.0000   1.0000   1.0000   1.0000   1.0000
     1.0000   1.0000   1.0000   1.0000   1.0000   1.0000   1.0000   1.0000

[...]

          k =-0.5000-0.2887 0.0000 (  5394 PWs)   bands (ev):

[...]

          k = 0.3333 0.1925-0.2197 (  5400 PWs)   bands (ev):

[...]

          k =-0.6667 0.7698-0.2197 (  5394 PWs)   bands (ev):

    -6.6588  -6.6588  -6.5423  -6.5423  -6.2805  -6.2805  -6.2095  -6.2095
     4.6244   4.6244   4.6951   4.6951   4.8531   4.8531   5.0460   5.0460
     5.7705   5.7705   5.7804   5.7804   5.8756   5.8756   5.9395   5.9395
     6.4231   6.4231   6.5359   6.5359   6.5597   6.5597   6.7315   6.7315
     7.9013   7.9013   8.0853   8.0853   8.2165   8.2165   8.2934   8.2934
     8.5605   8.5605   8.5691   8.5691   8.6804   8.6804   8.7745   8.7745
     8.9289   8.9289   9.1030   9.1030   9.4709   9.4709   9.6245   9.6245
     9.9125   9.9125  10.1687  10.1687  10.5122  10.5122  11.1102  11.1102
    11.5022  11.5022  11.7893  11.7893  12.1529  12.1529  12.2789  12.2789

     occupation numbers
     1.0000   1.0000   1.0000   1.0000   1.0000   1.0000   1.0000   1.0000
     1.0000   1.0000   1.0000   1.0000   1.0000   1.0000   1.0000   1.0000
     1.0000   1.0000   1.0000   1.0000   1.0000   1.0000   1.0000   1.0000
     1.0000   1.0000   1.0000   1.0000   1.0000   1.0000   1.0000   1.0000
     1.0000   1.0000   1.0000   1.0000   1.0000   1.0000   1.0000   1.0000
     1.0000   1.0000   1.0000   1.0000   1.0000   1.0000   1.0000   1.0000
     1.0000   1.0000   1.0000   1.0000   1.0000   1.0000   1.0000   1.0000
     1.0000   1.0000   1.0000   1.0000   1.0000   1.0000   1.0000   1.0000
     1.0000   1.0000   1.0000   1.0000   1.0000   1.0000   1.0000   1.0000

     highest occupied level (ev):    13.7009

!    total energy              =   -1445.26977945 Ry
     estimated scf accuracy    <          6.0E-09 Ry

     The total energy is the sum of the following terms:
     one-electron contribution =    -437.94515023 Ry
     hartree contribution      =     412.74687771 Ry
     xc contribution           =    -442.12878030 Ry
     ewald contribution        =    -977.94272664 Ry

     convergence has been achieved in  19 iterations

     Forces acting on atoms (cartesian axes, Ry/au):

     atom    1 type  1   force =     0.00001708    0.00000986   -0.10227658
     atom    2 type  1   force =    -0.00001566   -0.00000904   -0.10227663
     atom    3 type  2   force =    -0.00000273   -0.00000158    0.10227448
     atom    4 type  2   force =     0.00000183    0.00000106    0.10227541
     atom    5 type  1   force =     0.00001757    0.00001014   -0.10227281
     atom    6 type  1   force =    -0.00001459   -0.00000843   -0.10227438
     atom    7 type  2   force =    -0.00000281   -0.00000162    0.10227521
     atom    8 type  2   force =     0.00000185    0.00000107    0.10227402
     atom    9 type  1   force =     0.00001470    0.00000849   -0.10227578
     atom   10 type  1   force =    -0.00001644   -0.00000949   -0.10227551
     atom   11 type  2   force =    -0.00000191   -0.00000110    0.10227538
     atom   12 type  2   force =     0.00000269    0.00000155    0.10227470
     atom   13 type  1   force =     0.00001427    0.00000824   -0.10227241
     atom   14 type  1   force =    -0.00001676   -0.00000967   -0.10227452
     atom   15 type  2   force =    -0.00000206   -0.00000119    0.10227538
     atom   16 type  2   force =     0.00000297    0.00000172    0.10227405
     The non-local contrib.  to forces
     atom    1 type  1   force =    -0.00002504   -0.00001446   -0.22286177
     atom    2 type  1   force =     0.00002698    0.00001558   -0.22286098
     atom    3 type  2   force =    -0.00013444   -0.00007762   -0.11665337
     atom    4 type  2   force =     0.00013356    0.00007711   -0.11665248
     atom    5 type  1   force =    -0.00002473   -0.00001428   -0.22285847
     atom    6 type  1   force =     0.00002751    0.00001588   -0.22286007
     atom    7 type  2   force =    -0.00013442   -0.00007761   -0.11665237
     atom    8 type  2   force =     0.00013311    0.00007685   -0.11665418
     atom    9 type  1   force =    -0.00002743   -0.00001583   -0.22286112
     atom   10 type  1   force =     0.00002531    0.00001461   -0.22286107
     atom   11 type  2   force =    -0.00013324   -0.00007693   -0.11665257
     atom   12 type  2   force =     0.00013411    0.00007743   -0.11665289
     atom   13 type  1   force =    -0.00002756   -0.00001591   -0.22285772
     atom   14 type  1   force =     0.00002479    0.00001431   -0.22286032
     atom   15 type  2   force =    -0.00013332   -0.00007697   -0.11665270
     atom   16 type  2   force =     0.00013471    0.00007778   -0.11665391
     The ionic contribution  to forces
     atom    1 type  1   force =    -0.00000000    0.00000000   -1.55809773
     atom    2 type  1   force =     0.00000000   -0.00000000   -1.55809773
     atom    3 type  2   force =    -0.00000000    0.00000000    1.55809773
     atom    4 type  2   force =     0.00000000   -0.00000000    1.55809773
     atom    5 type  1   force =    -0.00000000    0.00000000   -1.55809773
     atom    6 type  1   force =     0.00000000   -0.00000000   -1.55809773
     atom    7 type  2   force =    -0.00000000    0.00000000    1.55809773
     atom    8 type  2   force =     0.00000000   -0.00000000    1.55809773
     atom    9 type  1   force =    -0.00000000    0.00000000   -1.55809773
     atom   10 type  1   force =     0.00000000   -0.00000000   -1.55809773
     atom   11 type  2   force =    -0.00000000    0.00000000    1.55809773
     atom   12 type  2   force =     0.00000000   -0.00000000    1.55809773
     atom   13 type  1   force =    -0.00000000    0.00000000   -1.55809773
     atom   14 type  1   force =     0.00000000   -0.00000000   -1.55809773
     atom   15 type  2   force =    -0.00000000    0.00000000    1.55809773
     atom   16 type  2   force =     0.00000000   -0.00000000    1.55809773
     The local contribution  to forces
     atom    1 type  1   force =     0.00004201    0.00002425    1.65471003
     atom    2 type  1   force =    -0.00004647   -0.00002692    1.65470905
     atom    3 type  2   force =     0.00012897    0.00007446   -1.33964802
     atom    4 type  2   force =    -0.00013115   -0.00007575   -1.33964403
     atom    5 type  1   force =     0.00004154    0.00002398    1.65470203
     atom    6 type  1   force =    -0.00004750   -0.00002751    1.65470551
     atom    7 type  2   force =     0.00012882    0.00007437   -1.33964412
     atom    8 type  2   force =    -0.00013203   -0.00007625   -1.33964923
     atom    9 type  1   force =     0.00004773    0.00002756    1.65470918
     atom   10 type  1   force =    -0.00004285   -0.00002483    1.65470775
     atom   11 type  2   force =     0.00013072    0.00007547   -1.33964605
     atom   12 type  2   force =    -0.00012954   -0.00007481   -1.33964514
     atom   13 type  1   force =     0.00004799    0.00002771    1.65470153
     atom   14 type  1   force =    -0.00004212   -0.00002440    1.65470555
     atom   15 type  2   force =     0.00013030    0.00007523   -1.33964418
     atom   16 type  2   force =    -0.00012811   -0.00007399   -1.33964913
     The core correction contribution to forces
     atom    1 type  1   force =    -0.00000198   -0.00000114    0.02398637
     atom    2 type  1   force =     0.00000203    0.00000116    0.02398637
     atom    3 type  2   force =     0.00000150    0.00000087    0.00047846
     atom    4 type  2   force =    -0.00000150   -0.00000086    0.00047846
     atom    5 type  1   force =    -0.00000200   -0.00000116    0.02398641
     atom    6 type  1   force =     0.00000199    0.00000114    0.02398644
     atom    7 type  2   force =     0.00000150    0.00000087    0.00047846
     atom    8 type  2   force =    -0.00000149   -0.00000086    0.00047848
     atom    9 type  1   force =    -0.00000202   -0.00000116    0.02398634
     atom   10 type  1   force =     0.00000199    0.00000114    0.02398641
     atom   11 type  2   force =     0.00000149    0.00000086    0.00047846
     atom   12 type  2   force =    -0.00000150   -0.00000087    0.00047846
     atom   13 type  1   force =    -0.00000200   -0.00000116    0.02398638
     atom   14 type  1   force =     0.00000201    0.00000115    0.02398645
     atom   15 type  2   force =     0.00000149    0.00000086    0.00047847
     atom   16 type  2   force =    -0.00000150   -0.00000087    0.00047847
     The Hubbard contrib.    to forces
     atom    1 type  1   force =     0.00000000    0.00000000    0.00000000
     atom    2 type  1   force =     0.00000000    0.00000000    0.00000000
     atom    3 type  2   force =     0.00000000    0.00000000    0.00000000
     atom    4 type  2   force =     0.00000000    0.00000000    0.00000000
     atom    5 type  1   force =     0.00000000    0.00000000    0.00000000
     atom    6 type  1   force =     0.00000000    0.00000000    0.00000000
     atom    7 type  2   force =     0.00000000    0.00000000    0.00000000
     atom    8 type  2   force =     0.00000000    0.00000000    0.00000000
     atom    9 type  1   force =     0.00000000    0.00000000    0.00000000
     atom   10 type  1   force =     0.00000000    0.00000000    0.00000000
     atom   11 type  2   force =     0.00000000    0.00000000    0.00000000
     atom   12 type  2   force =     0.00000000    0.00000000    0.00000000
     atom   13 type  1   force =     0.00000000    0.00000000    0.00000000
     atom   14 type  1   force =     0.00000000    0.00000000    0.00000000
     atom   15 type  2   force =     0.00000000    0.00000000    0.00000000
     atom   16 type  2   force =     0.00000000    0.00000000    0.00000000
     The SCF correction term to forces
     atom    1 type  1   force =     0.00000205    0.00000118   -0.00001256
     atom    2 type  1   force =     0.00000179    0.00000103   -0.00001241
     atom    3 type  2   force =     0.00000119    0.00000068    0.00000060
     atom    4 type  2   force =     0.00000087    0.00000050   -0.00000334
     atom    5 type  1   force =     0.00000271    0.00000156   -0.00000414
     atom    6 type  1   force =     0.00000339    0.00000196   -0.00000761
     atom    7 type  2   force =     0.00000124    0.00000071   -0.00000356
     atom    8 type  2   force =     0.00000220    0.00000127    0.00000215
     atom    9 type  1   force =    -0.00000364   -0.00000210   -0.00001153
     atom   10 type  1   force =    -0.00000091   -0.00000053   -0.00000995
     atom   11 type  2   force =    -0.00000094   -0.00000054   -0.00000127
     atom   12 type  2   force =    -0.00000043   -0.00000025   -0.00000254
     atom   13 type  1   force =    -0.00000421   -0.00000243   -0.00000394
     atom   14 type  1   force =    -0.00000146   -0.00000084   -0.00000755
     atom   15 type  2   force =    -0.00000058   -0.00000033   -0.00000302
     atom   16 type  2   force =    -0.00000217   -0.00000126    0.00000181

     Total force =     0.409099     Total SCF correction =     0.000029

     General routines

     Parallel routines

   This run was terminated on:  18:53:33  28Aug2025

   JOB DONE.
Note: The following floating-point exceptions are signalling: IEEE_UNDERFLOW_FLAG IEEE_DENORMAL
Note: The following floating-point exceptions are signalling: IEEE_UNDERFLOW_FLAG IEEE_DENORMAL
Note: The following floating-point exceptions are signalling: IEEE_UNDERFLOW_FLAG IEEE_DENORMAL
Note: The following floating-point exceptions are signalling: IEEE_UNDERFLOW_FLAG IEEE_DENORMAL
Note: The following floating-point exceptions are signalling: IEEE_UNDERFLOW_FLAG IEEE_DENORMAL
Note: The following floating-point exceptions are signalling: IEEE_UNDERFLOW_FLAG IEEE_DENORMAL
Note: The following floating-point exceptions are signalling: IEEE_UNDERFLOW_FLAG IEEE_DENORMAL
Note: The following floating-point exceptions are signalling: IEEE_UNDERFLOW_FLAG IEEE_DENORMAL
Note: The following floating-point exceptions are signalling: IEEE_UNDERFLOW_FLAG IEEE_DENORMAL
Note: The following floating-point exceptions are signalling: IEEE_UNDERFLOW_FLAG IEEE_DENORMAL
Note: The following floating-point exceptions are signalling: IEEE_UNDERFLOW_FLAG IEEE_DENORMAL
Note: The following floating-point exceptions are signalling: IEEE_UNDERFLOW_FLAG IEEE_DENORMAL
Note: The following floating-point exceptions are signalling: IEEE_UNDERFLOW_FLAG IEEE_DENORMAL
Note: The following floating-point exceptions are signalling: IEEE_UNDERFLOW_FLAG IEEE_DENORMAL
Note: The following floating-point exceptions are signalling: IEEE_UNDERFLOW_FLAG IEEE_DENORMAL
Note: The following floating-point exceptions are signalling: IEEE_UNDERFLOW_FLAG IEEE_DENORMAL
Note: The following floating-point exceptions are signalling: IEEE_UNDERFLOW_FLAG IEEE_DENORMAL
Note: The following floating-point exceptions are signalling: IEEE_UNDERFLOW_FLAG IEEE_DENORMAL
Note: The following floating-point exceptions are signalling: IEEE_UNDERFLOW_FLAG IEEE_DENORMAL
Note: The following floating-point exceptions are signalling: IEEE_UNDERFLOW_FLAG IEEE_DENORMAL
Note: The following floating-point exceptions are signalling: IEEE_UNDERFLOW_FLAG IEEE_DENORMAL
Note: The following floating-point exceptions are signalling: IEEE_UNDERFLOW_FLAG IEEE_DENORMAL
Note: The following floating-point exceptions are signalling: IEEE_UNDERFLOW_FLAG IEEE_DENORMAL
Note: The following floating-point exceptions are signalling: IEEE_UNDERFLOW_FLAG IEEE_DENORMAL
Note: The following floating-point exceptions are signalling: IEEE_UNDERFLOW_FLAG IEEE_DENORMAL
Note: The following floating-point exceptions are signalling: IEEE_UNDERFLOW_FLAG IEEE_DENORMAL
Note: The following floating-point exceptions are signalling: IEEE_UNDERFLOW_FLAG IEEE_DENORMAL
Note: The following floating-point exceptions are signalling: IEEE_UNDERFLOW_FLAG IEEE_DENORMAL
Note: The following floating-point exceptions are signalling: IEEE_UNDERFLOW_FLAG IEEE_DENORMAL
Note: The following floating-point exceptions are signalling: IEEE_UNDERFLOW_FLAG IEEE_DENORMAL
Note: The following floating-point exceptions are signalling: IEEE_UNDERFLOW_FLAG IEEE_DENORMAL
Note: The following floating-point exceptions are signalling: IEEE_UNDERFLOW_FLAG IEEE_DENORMAL