     Program PWSCF v.7.0 starts on 28Aug2025 at 23:16:58

     K-points division:     npool     =       8
     R & G space division:  proc/nbgrp/npool/nimage =       4

     Reading input from /home/jvc/QEspresso7.2/ZnO_database/scripts/cell212.in/ZnO-3.14-1.45-212.in
Warning: card &CELL ignored
Warning: card / ignored
Warning: card &FCP ignored
Warning: card / ignored
Warning: card &RISM ignored
Warning: card / ignored

     Current dimensions of program PWSCF are:
     Max number of different atomic species (ntypx) = 10
     Max number of k-points (npk) =  40000
     Max angular momentum in pseudopotentials (lmaxx) =  4
     file Zn.upf: wavefunction(s)  3D renormalized
     Found identity + (  0.0000  0.0000  0.5000) symmetry
     This is a supercell, fractional translations are disabled
     Message from routine setup:
     using ibrav=0 with symmetry is DISCOURAGED, use correct ibrav instead

     Using Slab Decomposition

     bravais-lattice index     =            0
     lattice parameter (alat)  =      11.8634  a.u.
     unit-cell volume          =    1050.4384 (a.u.)^3
     number of atoms/cell      =           16
     number of atomic types    =            2
     number of electrons       =       144.00
     number of Kohn-Sham states=           72
     kinetic-energy cutoff     =      50.0000  Ry
     charge density cutoff     =     400.0000  Ry
     scf convergence threshold =      1.0E-08
     mixing beta               =       0.3000
     number of iterations used =            8  plain     mixing
     Exchange-correlation= PBE
                           (   1   4   3   4   0   0   0)

     celldm(1)=  11.863400  celldm(2)=   0.000000  celldm(3)=   0.000000
     celldm(4)=   0.000000  celldm(5)=   0.000000  celldm(6)=   0.000000

     crystal axes: (cart. coord. in units of alat)
               a(1) = (   1.000000   0.000000   0.000000 )
               a(2) = (  -0.250000   0.433013   0.000000 )
               a(3) = (   0.000000   0.000000   1.452923 )

     reciprocal axes: (cart. coord. in units 2 pi/alat)
               b(1) = (  1.000000  0.577350 -0.000000 )
               b(2) = (  0.000000  2.309401  0.000000 )
               b(3) = (  0.000000 -0.000000  0.688268 )

     PseudoPot. # 1 for Zn read from file:
     /home/jvc/QEspresso7.2/ZnO_database/pseudos/Zn.upf
     MD5 check sum: 7f56cabf9682ed8c977c2f7d0c5985c5
     Pseudo is Ultrasoft + core correction, Zval = 12.0
     Generated using &quot;atomic&quot; code by A. Dal Corso  v.6.2.2
     Using radial grid of 1201 points,  6 beta functions with:
                l(1) =   0
                l(2) =   0
                l(3) =   1
                l(4) =   1
                l(5) =   2
                l(6) =   2
     Q(r) pseudized with 0 coefficients

     PseudoPot. # 2 for O  read from file:
     /home/jvc/QEspresso7.2/ZnO_database/pseudos/O.upf
     MD5 check sum: 91400c9766925bcf19f520983a725ff0
     Pseudo is Ultrasoft + core correction, Zval =  6.0
     Generated using &quot;atomic&quot; code by A. Dal Corso  v.6.3MaX
     Using radial grid of 1095 points,  4 beta functions with:
                l(1) =   0
                l(2) =   0
                l(3) =   1
                l(4) =   1
     Q(r) pseudized with 0 coefficients

     atomic species   valence    mass     pseudopotential
        Zn            12.00    65.38000     Zn( 1.00)
        O              6.00    15.99900     O ( 1.00)

      2 Sym. Ops. (no inversion) found

                                    s                        frac. trans.

      isym =  1     identity

 cryst.   s( 1) = (     1          0          0      )
                  (     0          1          0      )
                  (     0          0          1      )

 cart.    s( 1) = (  1.0000000  0.0000000  0.0000000 )
                  (  0.0000000  1.0000000  0.0000000 )
                  (  0.0000000  0.0000000  1.0000000 )

      isym =  2     inv. 180 deg rotation - cryst. axis [0,1,0]

 cryst.   s( 2) = (     1          2          0      )
                  (     0         -1          0      )
                  (     0          0          1      )

 cart.    s( 2) = (  0.5000000  0.8660254  0.0000000 )
                  (  0.8660254 -0.5000000  0.0000000 )
                  (  0.0000000  0.0000000  1.0000000 )

   Cartesian axes

     site n.     atom                  positions (alat units)
         1           Zn  tau(   1) = (   0.2500000   0.1443376   0.3636909  )
         2           Zn  tau(   2) = (  -0.0000000   0.2886751   0.0004603  )
         3           O   tau(   3) = (   0.2500000   0.1443376   0.6390508  )
         4           O   tau(   4) = (  -0.0000000   0.2886751   0.2758202  )
         5           Zn  tau(   5) = (   0.2500000   0.1443376   1.0901522  )
         6           Zn  tau(   6) = (  -0.0000000   0.2886751   0.7269215  )
         7           O   tau(   7) = (   0.2500000   0.1443376   1.3655121  )
         8           O   tau(   8) = (  -0.0000000   0.2886751   1.0022815  )
         9           Zn  tau(   9) = (   0.7500000   0.1443376   0.3636909  )
        10           Zn  tau(  10) = (   0.5000000   0.2886751   0.0004603  )
        11           O   tau(  11) = (   0.7500000   0.1443376   0.6390508  )
        12           O   tau(  12) = (   0.5000000   0.2886751   0.2758202  )
        13           Zn  tau(  13) = (   0.7500000   0.1443376   1.0901522  )
        14           Zn  tau(  14) = (   0.5000000   0.2886751   0.7269215  )
        15           O   tau(  15) = (   0.7500000   0.1443376   1.3655121  )
        16           O   tau(  16) = (   0.5000000   0.2886751   1.0022815  )

   Crystallographic axes

     site n.     atom                  positions (cryst. coord.)
         1           Zn  tau(   1) = (  0.3333333  0.3333333  0.2503168  )
         2           Zn  tau(   2) = (  0.1666667  0.6666667  0.0003168  )
         3           O   tau(   3) = (  0.3333333  0.3333333  0.4398382  )
         4           O   tau(   4) = (  0.1666667  0.6666667  0.1898382  )
         5           Zn  tau(   5) = (  0.3333333  0.3333333  0.7503168  )
         6           Zn  tau(   6) = (  0.1666667  0.6666667  0.5003168  )
         7           O   tau(   7) = (  0.3333333  0.3333333  0.9398382  )
         8           O   tau(   8) = (  0.1666667  0.6666667  0.6898382  )
         9           Zn  tau(   9) = (  0.8333333  0.3333333  0.2503168  )
        10           Zn  tau(  10) = (  0.6666667  0.6666667  0.0003168  )
        11           O   tau(  11) = (  0.8333333  0.3333333  0.4398382  )
        12           O   tau(  12) = (  0.6666667  0.6666667  0.1898382  )
        13           Zn  tau(  13) = (  0.8333333  0.3333333  0.7503168  )
        14           Zn  tau(  14) = (  0.6666667  0.6666667  0.5003168  )
        15           O   tau(  15) = (  0.8333333  0.3333333  0.9398382  )
        16           O   tau(  16) = (  0.6666667  0.6666667  0.6898382  )

     number of k points=    80
                       cart. coord. in units 2pi/alat
        k(    1) = (   0.0000000   0.0000000   0.0000000), wk =   0.0092593
        k(    2) = (   0.0000000   0.0000000   0.1147113), wk =   0.0185185
        k(    3) = (   0.0000000   0.0000000   0.2294226), wk =   0.0185185
        k(    4) = (   0.0000000   0.0000000  -0.3441340), wk =   0.0092593
        k(    5) = (   0.0000000   0.3849002   0.0000000), wk =   0.0370370
        k(    6) = (   0.0000000   0.3849002   0.1147113), wk =   0.0370370
        k(    7) = (   0.0000000   0.3849002   0.2294226), wk =   0.0370370
        k(    8) = (   0.0000000   0.3849002  -0.3441340), wk =   0.0370370
        k(    9) = (   0.0000000   0.7698004   0.0000000), wk =   0.0370370
        k(   10) = (   0.0000000   0.7698004   0.1147113), wk =   0.0370370
        k(   11) = (   0.0000000   0.7698004   0.2294226), wk =   0.0370370
        k(   12) = (   0.0000000   0.7698004  -0.3441340), wk =   0.0370370
        k(   13) = (   0.0000000  -1.1547005   0.0000000), wk =   0.0092593
        k(   14) = (   0.0000000  -1.1547005   0.1147113), wk =   0.0185185
        k(   15) = (   0.0000000  -1.1547005   0.2294226), wk =   0.0185185
        k(   16) = (   0.0000000  -1.1547005  -0.3441340), wk =   0.0092593
        k(   17) = (   0.1666667   0.0962250   0.0000000), wk =   0.0185185
        k(   18) = (   0.1666667   0.0962250   0.1147113), wk =   0.0185185
        k(   19) = (   0.1666667   0.0962250   0.2294226), wk =   0.0185185
        k(   20) = (   0.1666667   0.0962250  -0.3441340), wk =   0.0185185
        k(   21) = (   0.1666667   0.4811252   0.0000000), wk =   0.0370370
        k(   22) = (   0.1666667   0.4811252   0.1147113), wk =   0.0370370
        k(   23) = (   0.1666667   0.4811252   0.2294226), wk =   0.0370370
        k(   24) = (   0.1666667   0.4811252  -0.3441340), wk =   0.0370370
        k(   25) = (   0.1666667   0.8660254   0.0000000), wk =   0.0185185
        k(   26) = (   0.1666667   0.8660254   0.1147113), wk =   0.0370370
        k(   27) = (   0.1666667   0.8660254   0.2294226), wk =   0.0370370
        k(   28) = (   0.1666667   0.8660254  -0.3441340), wk =   0.0185185
        k(   29) = (   0.1666667  -1.0584755   0.0000000), wk =   0.0185185
        k(   30) = (   0.1666667  -1.0584755   0.1147113), wk =   0.0185185
        k(   31) = (   0.1666667  -1.0584755   0.2294226), wk =   0.0185185
        k(   32) = (   0.1666667  -1.0584755  -0.3441340), wk =   0.0185185
        k(   33) = (   0.1666667  -0.6735753   0.0000000), wk =   0.0370370
        k(   34) = (   0.1666667  -0.6735753   0.1147113), wk =   0.0370370
        k(   35) = (   0.1666667  -0.6735753   0.2294226), wk =   0.0370370
        k(   36) = (   0.1666667  -0.6735753  -0.3441340), wk =   0.0370370
        k(   37) = (   0.1666667  -0.2886751   0.0000000), wk =   0.0185185
        k(   38) = (   0.1666667  -0.2886751   0.1147113), wk =   0.0370370
        k(   39) = (   0.1666667  -0.2886751   0.2294226), wk =   0.0370370
        k(   40) = (   0.1666667  -0.2886751  -0.3441340), wk =   0.0185185
        k(   41) = (   0.3333333   0.1924501   0.0000000), wk =   0.0185185
        k(   42) = (   0.3333333   0.1924501   0.1147113), wk =   0.0185185
        k(   43) = (   0.3333333   0.1924501   0.2294226), wk =   0.0185185
        k(   44) = (   0.3333333   0.1924501  -0.3441340), wk =   0.0185185
        k(   45) = (   0.3333333   0.5773503   0.0000000), wk =   0.0185185
        k(   46) = (   0.3333333   0.5773503   0.1147113), wk =   0.0370370
        k(   47) = (   0.3333333   0.5773503   0.2294226), wk =   0.0370370
        k(   48) = (   0.3333333   0.5773503  -0.3441340), wk =   0.0185185
        k(   49) = (   0.3333333  -0.9622504   0.0000000), wk =   0.0185185
        k(   50) = (   0.3333333  -0.9622504   0.1147113), wk =   0.0185185
        k(   51) = (   0.3333333  -0.9622504   0.2294226), wk =   0.0185185
        k(   52) = (   0.3333333  -0.9622504  -0.3441340), wk =   0.0185185
        k(   53) = (   0.3333333  -0.5773503   0.0000000), wk =   0.0185185
        k(   54) = (   0.3333333  -0.5773503   0.1147113), wk =   0.0370370
        k(   55) = (   0.3333333  -0.5773503   0.2294226), wk =   0.0370370
[...]
        k(   76) = (  -0.5000000   0.3333333  -0.3333333), wk =   0.0370370
        k(   77) = (   0.3333333   0.0000000  -0.1666667), wk =   0.0185185
        k(   78) = (   0.3333333   0.0000000  -0.3333333), wk =   0.0185185
        k(   79) = (  -0.6666667   0.5000000  -0.1666667), wk =   0.0185185
        k(   80) = (  -0.6666667   0.5000000  -0.3333333), wk =   0.0185185

     Check: negative core charge=   -0.000001

     Initial potential from superposition of free atoms

     starting charge     143.9702, renormalised to     144.0000
     Starting wfcs are  104 randomized atomic wfcs

     Self-consistent Calculation

     iteration #  1     ecut=    50.00 Ry     beta= 0.30
     Davidson diagonalization with overlap

     ethr =  1.00E-02,  avg # of iterations =  2.1

     total energy              =   -1445.45687036 Ry
     estimated scf accuracy    <       2.76051864 Ry

[...]

     total energy              =   -1446.01347282 Ry
     estimated scf accuracy    <       0.00000004 Ry

     iteration # 22     ecut=    50.00 Ry     beta= 0.30
     Davidson diagonalization with overlap

     ethr =  2.82E-11,  avg # of iterations =  6.0

     End of self-consistent calculation

          k = 0.0000 0.0000 0.0000 (  6297 PWs)   bands (ev):

    -9.3291  -8.6938  -8.6938  -8.3779  -8.1351  -8.1351  -8.0329  -7.9740
     2.7742   2.7742   3.1655   3.1655   3.2619   3.3961   3.5281   3.7798
     3.7799   3.8007   3.8619   3.8619   3.8620   3.8620   4.0372   4.1170
     4.1171   4.1991   4.1991   4.2068   4.3536   4.3536   4.6125   4.9056
     5.5299   5.5299   5.6156   5.8309   5.8309   5.8309   5.8309   5.8413
     5.8948   5.8948   5.9573   5.9573   6.0194   6.0194   6.0549   6.1073
     6.2811   6.5941   6.6159   6.6159   6.7095   7.2600   7.3599   8.6125
     8.6125   8.6154   8.6154   9.2115   9.2117   9.2127   9.3788   9.3788
     9.6474   9.9123   9.9123   9.9124   9.9124  10.5818  10.5820  10.6632

     occupation numbers
     1.0000   1.0000   1.0000   1.0000   1.0000   1.0000   1.0000   1.0000
     1.0000   1.0000   1.0000   1.0000   1.0000   1.0000   1.0000   1.0000
     1.0000   1.0000   1.0000   1.0000   1.0000   1.0000   1.0000   1.0000
     1.0000   1.0000   1.0000   1.0000   1.0000   1.0000   1.0000   1.0000
     1.0000   1.0000   1.0000   1.0000   1.0000   1.0000   1.0000   1.0000
     1.0000   1.0000   1.0000   1.0000   1.0000   1.0000   1.0000   1.0000
     1.0000   1.0000   1.0000   1.0000   1.0000   1.0000   1.0000   1.0000
     1.0000   1.0000   1.0000   1.0000   1.0000   1.0000   1.0000   1.0000
     1.0000   1.0000   1.0000   1.0000   1.0000   1.0000   1.0000   1.0000

[...]

          k =-0.5000-0.2887 0.0000 (  6272 PWs)   bands (ev):

[...]

          k = 0.3333 0.1925-0.2294 (  6263 PWs)   bands (ev):

[...]

          k =-0.6667 0.7698-0.2294 (  6264 PWs)   bands (ev):

    -8.3536  -8.3536  -8.2561  -8.2561  -8.0402  -8.0402  -7.9827  -7.9827
     3.0326   3.0326   3.0929   3.0929   3.2629   3.2629   3.4497   3.4497
     3.9448   3.9448   3.9656   3.9656   4.0653   4.0653   4.1198   4.1198
     4.4270   4.4270   4.5456   4.5456   4.5796   4.5796   4.7608   4.7608
     5.5520   5.5520   5.6822   5.6822   5.7747   5.7747   5.8150   5.8150
     6.0296   6.0296   6.0428   6.0428   6.1926   6.1926   6.1945   6.1945
     6.3599   6.3599   6.5910   6.5910   6.9410   6.9410   7.0220   7.0220
     7.2527   7.2527   7.5498   7.5498   7.9572   7.9572   8.6039   8.6039
     8.8452   8.8452   9.1192   9.1192   9.4078   9.4078   9.6321   9.6321

     occupation numbers
     1.0000   1.0000   1.0000   1.0000   1.0000   1.0000   1.0000   1.0000
     1.0000   1.0000   1.0000   1.0000   1.0000   1.0000   1.0000   1.0000
     1.0000   1.0000   1.0000   1.0000   1.0000   1.0000   1.0000   1.0000
     1.0000   1.0000   1.0000   1.0000   1.0000   1.0000   1.0000   1.0000
     1.0000   1.0000   1.0000   1.0000   1.0000   1.0000   1.0000   1.0000
     1.0000   1.0000   1.0000   1.0000   1.0000   1.0000   1.0000   1.0000
     1.0000   1.0000   1.0000   1.0000   1.0000   1.0000   1.0000   1.0000
     1.0000   1.0000   1.0000   1.0000   1.0000   1.0000   1.0000   1.0000
     1.0000   1.0000   1.0000   1.0000   1.0000   1.0000   1.0000   1.0000

     highest occupied level (ev):    10.6632

!    total energy              =   -1446.01347284 Ry
     estimated scf accuracy    <          2.0E-09 Ry

     The total energy is the sum of the following terms:
     one-electron contribution =    -516.53359845 Ry
     hartree contribution      =     439.09731754 Ry
     xc contribution           =    -440.41610684 Ry
     ewald contribution        =    -928.16108509 Ry

     convergence has been achieved in  22 iterations

     Forces acting on atoms (cartesian axes, Ry/au):

     atom    1 type  1   force =     0.00001341    0.00000774   -0.12004131
     atom    2 type  1   force =    -0.00001235   -0.00000713   -0.12004055
     atom    3 type  2   force =    -0.00000014   -0.00000008    0.12004140
     atom    4 type  2   force =     0.00000059    0.00000034    0.12004203
     atom    5 type  1   force =     0.00001497    0.00000865   -0.12004360
     atom    6 type  1   force =    -0.00001256   -0.00000725   -0.12004172
     atom    7 type  2   force =    -0.00000044   -0.00000025    0.12004247
     atom    8 type  2   force =     0.00000006    0.00000003    0.12004149
     atom    9 type  1   force =     0.00001268    0.00000732   -0.12004083
     atom   10 type  1   force =    -0.00001349   -0.00000779   -0.12004260
     atom   11 type  2   force =    -0.00000045   -0.00000026    0.12004151
     atom   12 type  2   force =     0.00000053    0.00000031    0.12004190
     atom   13 type  1   force =     0.00001244    0.00000718   -0.12004372
     atom   14 type  1   force =    -0.00001522   -0.00000879   -0.12003990
     atom   15 type  2   force =    -0.00000041   -0.00000024    0.12004220
     atom   16 type  2   force =     0.00000038    0.00000022    0.12004123
     The non-local contrib.  to forces
     atom    1 type  1   force =    -0.00001602   -0.00000925   -0.34949692
     atom    2 type  1   force =     0.00001689    0.00000975   -0.34949649
     atom    3 type  2   force =    -0.00013800   -0.00007968   -0.20754923
     atom    4 type  2   force =     0.00013809    0.00007973   -0.20754769
     atom    5 type  1   force =    -0.00001597   -0.00000922   -0.34949623
     atom    6 type  1   force =     0.00001676    0.00000968   -0.34949649
     atom    7 type  2   force =    -0.00013782   -0.00007957   -0.20754794
     atom    8 type  2   force =     0.00013822    0.00007980   -0.20754942
     atom    9 type  1   force =    -0.00001668   -0.00000963   -0.34949656
     atom   10 type  1   force =     0.00001618    0.00000934   -0.34949708
     atom   11 type  2   force =    -0.00013854   -0.00007999   -0.20754926
     atom   12 type  2   force =     0.00013907    0.00008029   -0.20754851
     atom   13 type  1   force =    -0.00001717   -0.00000991   -0.34949667
     atom   14 type  1   force =     0.00001577    0.00000910   -0.34949542
     atom   15 type  2   force =    -0.00013785   -0.00007959   -0.20754814
     atom   16 type  2   force =     0.00013853    0.00007998   -0.20754965
     The ionic contribution  to forces
     atom    1 type  1   force =     0.00000001    0.00000001   -2.45246308
     atom    2 type  1   force =     0.00000002    0.00000001   -2.45246307
     atom    3 type  2   force =     0.00000001    0.00000001    2.45246308
     atom    4 type  2   force =     0.00000001    0.00000000    2.45246307
     atom    5 type  1   force =     0.00000001    0.00000001   -2.45246308
     atom    6 type  1   force =     0.00000002    0.00000001   -2.45246307
     atom    7 type  2   force =     0.00000001    0.00000001    2.45246308
     atom    8 type  2   force =     0.00000001    0.00000000    2.45246307
     atom    9 type  1   force =    -0.00000002   -0.00000001   -2.45246307
     atom   10 type  1   force =    -0.00000001   -0.00000001   -2.45246308
     atom   11 type  2   force =    -0.00000001   -0.00000000    2.45246307
     atom   12 type  2   force =    -0.00000001   -0.00000001    2.45246308
     atom   13 type  1   force =    -0.00000002   -0.00000001   -2.45246307
     atom   14 type  1   force =    -0.00000001   -0.00000001   -2.45246308
     atom   15 type  2   force =    -0.00000001   -0.00000000    2.45246307
     atom   16 type  2   force =    -0.00000001   -0.00000001    2.45246308
     The local contribution  to forces
     atom    1 type  1   force =     0.00003157    0.00001823    2.64891182
     atom    2 type  1   force =    -0.00003247   -0.00001884    2.64891086
     atom    3 type  2   force =     0.00013483    0.00007785   -2.12599687
     atom    4 type  2   force =    -0.00013739   -0.00007934   -2.12599825
     atom    5 type  1   force =     0.00002971    0.00001715    2.64891251
     atom    6 type  1   force =    -0.00003208   -0.00001862    2.64891074
     atom    7 type  2   force =     0.00013665    0.00007889   -2.12600005
     atom    8 type  2   force =    -0.00013633   -0.00007874   -2.12599538
     atom    9 type  1   force =     0.00003132    0.00001818    2.64891046
     atom   10 type  1   force =    -0.00003130   -0.00001807    2.64891346
     atom   11 type  2   force =     0.00013627    0.00007870   -2.12599660
     atom   12 type  2   force =    -0.00013440   -0.00007760   -2.12599743
     atom   13 type  1   force =     0.00003328    0.00001931    2.64891247
     atom   14 type  1   force =    -0.00003010   -0.00001738    2.64890784
     atom   15 type  2   force =     0.00013544    0.00007822   -2.12599792
     atom   16 type  2   force =    -0.00013523   -0.00007807   -2.12599540
     The core correction contribution to forces
     atom    1 type  1   force =    -0.00000210   -0.00000125    0.03301100
     atom    2 type  1   force =     0.00000179    0.00000106    0.03301107
     atom    3 type  2   force =     0.00000157    0.00000092    0.00111740
     atom    4 type  2   force =    -0.00000159   -0.00000093    0.00111737
     atom    5 type  1   force =    -0.00000204   -0.00000122    0.03301096
     atom    6 type  1   force =     0.00000180    0.00000106    0.03301113
     atom    7 type  2   force =     0.00000158    0.00000092    0.00111738
     atom    8 type  2   force =    -0.00000159   -0.00000093    0.00111740
     atom    9 type  1   force =    -0.00000176   -0.00000104    0.03301111
     atom   10 type  1   force =     0.00000206    0.00000123    0.03301093
     atom   11 type  2   force =     0.00000159    0.00000093    0.00111740
     atom   12 type  2   force =    -0.00000158   -0.00000093    0.00111739
     atom   13 type  1   force =    -0.00000183   -0.00000108    0.03301108
     atom   14 type  1   force =     0.00000207    0.00000124    0.03301107
     atom   15 type  2   force =     0.00000158    0.00000093    0.00111738
     atom   16 type  2   force =    -0.00000158   -0.00000092    0.00111741
     The Hubbard contrib.    to forces
     atom    1 type  1   force =     0.00000000    0.00000000    0.00000000
     atom    2 type  1   force =     0.00000000    0.00000000    0.00000000
     atom    3 type  2   force =     0.00000000    0.00000000    0.00000000
     atom    4 type  2   force =     0.00000000    0.00000000    0.00000000
     atom    5 type  1   force =     0.00000000    0.00000000    0.00000000
     atom    6 type  1   force =     0.00000000    0.00000000    0.00000000
     atom    7 type  2   force =     0.00000000    0.00000000    0.00000000
     atom    8 type  2   force =     0.00000000    0.00000000    0.00000000
     atom    9 type  1   force =     0.00000000    0.00000000    0.00000000
     atom   10 type  1   force =     0.00000000    0.00000000    0.00000000
     atom   11 type  2   force =     0.00000000    0.00000000    0.00000000
     atom   12 type  2   force =     0.00000000    0.00000000    0.00000000
     atom   13 type  1   force =     0.00000000    0.00000000    0.00000000
     atom   14 type  1   force =     0.00000000    0.00000000    0.00000000
     atom   15 type  2   force =     0.00000000    0.00000000    0.00000000
     atom   16 type  2   force =     0.00000000    0.00000000    0.00000000
     The SCF correction term to forces
     atom    1 type  1   force =    -0.00000001   -0.00000001   -0.00000601
     atom    2 type  1   force =     0.00000148    0.00000086   -0.00000481
     atom    3 type  2   force =     0.00000148    0.00000085    0.00000514
     atom    4 type  2   force =     0.00000151    0.00000087    0.00000564
     atom    5 type  1   force =     0.00000330    0.00000191   -0.00000965
     atom    6 type  1   force =     0.00000100    0.00000058   -0.00000592
     atom    7 type  2   force =    -0.00000082   -0.00000047    0.00000812
     atom    8 type  2   force =    -0.00000021   -0.00000012    0.00000393
     atom    9 type  1   force =    -0.00000018   -0.00000011   -0.00000467
     atom   10 type  1   force =    -0.00000039   -0.00000022   -0.00000873
     atom   11 type  2   force =     0.00000025    0.00000015    0.00000502
     atom   12 type  2   force =    -0.00000251   -0.00000145    0.00000548
     atom   13 type  1   force =    -0.00000182   -0.00000105   -0.00000943
     atom   14 type  1   force =    -0.00000293   -0.00000169   -0.00000219
     atom   15 type  2   force =     0.00000044    0.00000026    0.00000592
     atom   16 type  2   force =    -0.00000130   -0.00000075    0.00000391

     Total force =     0.480167     Total SCF correction =     0.000026

     General routines

     Parallel routines

   This run was terminated on:  23:24:19  28Aug2025

   JOB DONE.
Note: The following floating-point exceptions are signalling: IEEE_UNDERFLOW_FLAG IEEE_DENORMAL
Note: The following floating-point exceptions are signalling: IEEE_UNDERFLOW_FLAG IEEE_DENORMAL
Note: The following floating-point exceptions are signalling: IEEE_UNDERFLOW_FLAG IEEE_DENORMAL
Note: The following floating-point exceptions are signalling: IEEE_UNDERFLOW_FLAG IEEE_DENORMAL
Note: The following floating-point exceptions are signalling: IEEE_UNDERFLOW_FLAG IEEE_DENORMAL
Note: The following floating-point exceptions are signalling: IEEE_UNDERFLOW_FLAG IEEE_DENORMAL
Note: The following floating-point exceptions are signalling: IEEE_UNDERFLOW_FLAG IEEE_DENORMAL
Note: The following floating-point exceptions are signalling: IEEE_UNDERFLOW_FLAG IEEE_DENORMAL
Note: The following floating-point exceptions are signalling: IEEE_UNDERFLOW_FLAG IEEE_DENORMAL
Note: The following floating-point exceptions are signalling: IEEE_UNDERFLOW_FLAG IEEE_DENORMAL
Note: The following floating-point exceptions are signalling: IEEE_UNDERFLOW_FLAG IEEE_DENORMAL
Note: The following floating-point exceptions are signalling: IEEE_UNDERFLOW_FLAG IEEE_DENORMAL
Note: The following floating-point exceptions are signalling: IEEE_UNDERFLOW_FLAG IEEE_DENORMAL
Note: The following floating-point exceptions are signalling: IEEE_UNDERFLOW_FLAG IEEE_DENORMAL
Note: The following floating-point exceptions are signalling: IEEE_UNDERFLOW_FLAG IEEE_DENORMAL
Note: The following floating-point exceptions are signalling: IEEE_UNDERFLOW_FLAG IEEE_DENORMAL
Note: The following floating-point exceptions are signalling: IEEE_UNDERFLOW_FLAG IEEE_DENORMAL
Note: The following floating-point exceptions are signalling: IEEE_UNDERFLOW_FLAG IEEE_DENORMAL
Note: The following floating-point exceptions are signalling: IEEE_UNDERFLOW_FLAG IEEE_DENORMAL
Note: The following floating-point exceptions are signalling: IEEE_UNDERFLOW_FLAG IEEE_DENORMAL
Note: The following floating-point exceptions are signalling: IEEE_UNDERFLOW_FLAG IEEE_DENORMAL
Note: The following floating-point exceptions are signalling: IEEE_UNDERFLOW_FLAG IEEE_DENORMAL
Note: The following floating-point exceptions are signalling: IEEE_UNDERFLOW_FLAG IEEE_DENORMAL
Note: The following floating-point exceptions are signalling: IEEE_UNDERFLOW_FLAG IEEE_DENORMAL
Note: The following floating-point exceptions are signalling: IEEE_UNDERFLOW_FLAG IEEE_DENORMAL
Note: The following floating-point exceptions are signalling: IEEE_UNDERFLOW_FLAG IEEE_DENORMAL
Note: The following floating-point exceptions are signalling: IEEE_UNDERFLOW_FLAG IEEE_DENORMAL
Note: The following floating-point exceptions are signalling: IEEE_UNDERFLOW_FLAG IEEE_DENORMAL
Note: The following floating-point exceptions are signalling: IEEE_UNDERFLOW_FLAG IEEE_DENORMAL
Note: The following floating-point exceptions are signalling: IEEE_UNDERFLOW_FLAG IEEE_DENORMAL
Note: The following floating-point exceptions are signalling: IEEE_UNDERFLOW_FLAG IEEE_DENORMAL
Note: The following floating-point exceptions are signalling: IEEE_UNDERFLOW_FLAG IEEE_DENORMAL