     Program PWSCF v.7.0 starts on 29Aug2025 at 18:57:52

     K-points division:     npool     =       8
     R & G space division:  proc/nbgrp/npool/nimage =       4

     Reading input from /home/jvc/QEspresso7.2/ZnO_database/scripts/cell212.in/ZnO-3.60-1.61-212.in
Warning: card &CELL ignored
Warning: card / ignored
Warning: card &FCP ignored
Warning: card / ignored
Warning: card &RISM ignored
Warning: card / ignored

     Current dimensions of program PWSCF are:
     Max number of different atomic species (ntypx) = 10
     Max number of k-points (npk) =  40000
     Max angular momentum in pseudopotentials (lmaxx) =  4
     file Zn.upf: wavefunction(s)  3D renormalized
     Found identity + (  0.0000  0.0000  0.5000) symmetry
     This is a supercell, fractional translations are disabled
     Message from routine setup:
     using ibrav=0 with symmetry is DISCOURAGED, use correct ibrav instead

     Using Slab Decomposition

     bravais-lattice index     =            0
     lattice parameter (alat)  =      13.5935  a.u.
     unit-cell volume          =    1755.8702 (a.u.)^3
     number of atoms/cell      =           16
     number of atomic types    =            2
     number of electrons       =       144.00
     number of Kohn-Sham states=           72
     kinetic-energy cutoff     =      50.0000  Ry
     charge density cutoff     =     400.0000  Ry
     scf convergence threshold =      1.0E-08
     mixing beta               =       0.3000
     number of iterations used =            8  plain     mixing
     Exchange-correlation= PBE
                           (   1   4   3   4   0   0   0)

     celldm(1)=  13.593479  celldm(2)=   0.000000  celldm(3)=   0.000000
     celldm(4)=   0.000000  celldm(5)=   0.000000  celldm(6)=   0.000000

     crystal axes: (cart. coord. in units of alat)
               a(1) = (   1.000000   0.000000   0.000000 )
               a(2) = (  -0.250000   0.433013   0.000000 )
               a(3) = (   0.000000   0.000000   1.614358 )

     reciprocal axes: (cart. coord. in units 2 pi/alat)
               b(1) = (  1.000000  0.577350 -0.000000 )
               b(2) = (  0.000000  2.309401  0.000000 )
               b(3) = (  0.000000 -0.000000  0.619441 )

     PseudoPot. # 1 for Zn read from file:
     /home/jvc/QEspresso7.2/ZnO_database/pseudos/Zn.upf
     MD5 check sum: 7f56cabf9682ed8c977c2f7d0c5985c5
     Pseudo is Ultrasoft + core correction, Zval = 12.0
     Generated using &quot;atomic&quot; code by A. Dal Corso  v.6.2.2
     Using radial grid of 1201 points,  6 beta functions with:
                l(1) =   0
                l(2) =   0
                l(3) =   1
                l(4) =   1
                l(5) =   2
                l(6) =   2
     Q(r) pseudized with 0 coefficients

     PseudoPot. # 2 for O  read from file:
     /home/jvc/QEspresso7.2/ZnO_database/pseudos/O.upf
     MD5 check sum: 91400c9766925bcf19f520983a725ff0
     Pseudo is Ultrasoft + core correction, Zval =  6.0
     Generated using &quot;atomic&quot; code by A. Dal Corso  v.6.3MaX
     Using radial grid of 1095 points,  4 beta functions with:
                l(1) =   0
                l(2) =   0
                l(3) =   1
                l(4) =   1
     Q(r) pseudized with 0 coefficients

     atomic species   valence    mass     pseudopotential
        Zn            12.00    65.38000     Zn( 1.00)
        O              6.00    15.99900     O ( 1.00)

      2 Sym. Ops. (no inversion) found

                                    s                        frac. trans.

      isym =  1     identity

 cryst.   s( 1) = (     1          0          0      )
                  (     0          1          0      )
                  (     0          0          1      )

 cart.    s( 1) = (  1.0000000  0.0000000  0.0000000 )
                  (  0.0000000  1.0000000  0.0000000 )
                  (  0.0000000  0.0000000  1.0000000 )

      isym =  2     inv. 180 deg rotation - cryst. axis [0,1,0]

 cryst.   s( 2) = (     1          2          0      )
                  (     0         -1          0      )
                  (     0          0          1      )

 cart.    s( 2) = (  0.5000000  0.8660254  0.0000000 )
                  (  0.8660254 -0.5000000  0.0000000 )
                  (  0.0000000  0.0000000  1.0000000 )

   Cartesian axes

     site n.     atom                  positions (alat units)
         1           Zn  tau(   1) = (   0.2500000   0.1443376   0.4041010  )
         2           Zn  tau(   2) = (  -0.0000000   0.2886751   0.0005114  )
         3           O   tau(   3) = (   0.2500000   0.1443376   0.7100565  )
         4           O   tau(   4) = (  -0.0000000   0.2886751   0.3064669  )
         5           Zn  tau(   5) = (   0.2500000   0.1443376   1.2112802  )
         6           Zn  tau(   6) = (  -0.0000000   0.2886751   0.8076906  )
         7           O   tau(   7) = (   0.2500000   0.1443376   1.5172357  )
         8           O   tau(   8) = (  -0.0000000   0.2886751   1.1136461  )
         9           Zn  tau(   9) = (   0.7500000   0.1443376   0.4041010  )
        10           Zn  tau(  10) = (   0.5000000   0.2886751   0.0005114  )
        11           O   tau(  11) = (   0.7500000   0.1443376   0.7100565  )
        12           O   tau(  12) = (   0.5000000   0.2886751   0.3064669  )
        13           Zn  tau(  13) = (   0.7500000   0.1443376   1.2112802  )
        14           Zn  tau(  14) = (   0.5000000   0.2886751   0.8076906  )
        15           O   tau(  15) = (   0.7500000   0.1443376   1.5172357  )
        16           O   tau(  16) = (   0.5000000   0.2886751   1.1136461  )

   Crystallographic axes

     site n.     atom                  positions (cryst. coord.)
         1           Zn  tau(   1) = (  0.3333333  0.3333333  0.2503168  )
         2           Zn  tau(   2) = (  0.1666667  0.6666667  0.0003168  )
         3           O   tau(   3) = (  0.3333333  0.3333333  0.4398382  )
         4           O   tau(   4) = (  0.1666667  0.6666667  0.1898382  )
         5           Zn  tau(   5) = (  0.3333333  0.3333333  0.7503168  )
         6           Zn  tau(   6) = (  0.1666667  0.6666667  0.5003168  )
         7           O   tau(   7) = (  0.3333333  0.3333333  0.9398382  )
         8           O   tau(   8) = (  0.1666667  0.6666667  0.6898382  )
         9           Zn  tau(   9) = (  0.8333333  0.3333333  0.2503168  )
        10           Zn  tau(  10) = (  0.6666667  0.6666667  0.0003168  )
        11           O   tau(  11) = (  0.8333333  0.3333333  0.4398382  )
        12           O   tau(  12) = (  0.6666667  0.6666667  0.1898382  )
        13           Zn  tau(  13) = (  0.8333333  0.3333333  0.7503168  )
        14           Zn  tau(  14) = (  0.6666667  0.6666667  0.5003168  )
        15           O   tau(  15) = (  0.8333333  0.3333333  0.9398382  )
        16           O   tau(  16) = (  0.6666667  0.6666667  0.6898382  )

     number of k points=    80
                       cart. coord. in units 2pi/alat
        k(    1) = (   0.0000000   0.0000000   0.0000000), wk =   0.0092593
        k(    2) = (   0.0000000   0.0000000   0.1032402), wk =   0.0185185
        k(    3) = (   0.0000000   0.0000000   0.2064804), wk =   0.0185185
        k(    4) = (   0.0000000   0.0000000  -0.3097206), wk =   0.0092593
        k(    5) = (   0.0000000   0.3849002   0.0000000), wk =   0.0370370
        k(    6) = (   0.0000000   0.3849002   0.1032402), wk =   0.0370370
        k(    7) = (   0.0000000   0.3849002   0.2064804), wk =   0.0370370
        k(    8) = (   0.0000000   0.3849002  -0.3097206), wk =   0.0370370
        k(    9) = (   0.0000000   0.7698004   0.0000000), wk =   0.0370370
        k(   10) = (   0.0000000   0.7698004   0.1032402), wk =   0.0370370
        k(   11) = (   0.0000000   0.7698004   0.2064804), wk =   0.0370370
        k(   12) = (   0.0000000   0.7698004  -0.3097206), wk =   0.0370370
        k(   13) = (   0.0000000  -1.1547005   0.0000000), wk =   0.0092593
        k(   14) = (   0.0000000  -1.1547005   0.1032402), wk =   0.0185185
        k(   15) = (   0.0000000  -1.1547005   0.2064804), wk =   0.0185185
        k(   16) = (   0.0000000  -1.1547005  -0.3097206), wk =   0.0092593
        k(   17) = (   0.1666667   0.0962250   0.0000000), wk =   0.0185185
        k(   18) = (   0.1666667   0.0962250   0.1032402), wk =   0.0185185
        k(   19) = (   0.1666667   0.0962250   0.2064804), wk =   0.0185185
        k(   20) = (   0.1666667   0.0962250  -0.3097206), wk =   0.0185185
        k(   21) = (   0.1666667   0.4811252   0.0000000), wk =   0.0370370
        k(   22) = (   0.1666667   0.4811252   0.1032402), wk =   0.0370370
        k(   23) = (   0.1666667   0.4811252   0.2064804), wk =   0.0370370
        k(   24) = (   0.1666667   0.4811252  -0.3097206), wk =   0.0370370
        k(   25) = (   0.1666667   0.8660254   0.0000000), wk =   0.0185185
        k(   26) = (   0.1666667   0.8660254   0.1032402), wk =   0.0370370
        k(   27) = (   0.1666667   0.8660254   0.2064804), wk =   0.0370370
        k(   28) = (   0.1666667   0.8660254  -0.3097206), wk =   0.0185185
        k(   29) = (   0.1666667  -1.0584755   0.0000000), wk =   0.0185185
        k(   30) = (   0.1666667  -1.0584755   0.1032402), wk =   0.0185185
        k(   31) = (   0.1666667  -1.0584755   0.2064804), wk =   0.0185185
        k(   32) = (   0.1666667  -1.0584755  -0.3097206), wk =   0.0185185
        k(   33) = (   0.1666667  -0.6735753   0.0000000), wk =   0.0370370
        k(   34) = (   0.1666667  -0.6735753   0.1032402), wk =   0.0370370
        k(   35) = (   0.1666667  -0.6735753   0.2064804), wk =   0.0370370
        k(   36) = (   0.1666667  -0.6735753  -0.3097206), wk =   0.0370370
        k(   37) = (   0.1666667  -0.2886751   0.0000000), wk =   0.0185185
        k(   38) = (   0.1666667  -0.2886751   0.1032402), wk =   0.0370370
        k(   39) = (   0.1666667  -0.2886751   0.2064804), wk =   0.0370370
        k(   40) = (   0.1666667  -0.2886751  -0.3097206), wk =   0.0185185
        k(   41) = (   0.3333333   0.1924501   0.0000000), wk =   0.0185185
        k(   42) = (   0.3333333   0.1924501   0.1032402), wk =   0.0185185
        k(   43) = (   0.3333333   0.1924501   0.2064804), wk =   0.0185185
        k(   44) = (   0.3333333   0.1924501  -0.3097206), wk =   0.0185185
        k(   45) = (   0.3333333   0.5773503   0.0000000), wk =   0.0185185
        k(   46) = (   0.3333333   0.5773503   0.1032402), wk =   0.0370370
        k(   47) = (   0.3333333   0.5773503   0.2064804), wk =   0.0370370
        k(   48) = (   0.3333333   0.5773503  -0.3097206), wk =   0.0185185
        k(   49) = (   0.3333333  -0.9622504   0.0000000), wk =   0.0185185
        k(   50) = (   0.3333333  -0.9622504   0.1032402), wk =   0.0185185
        k(   51) = (   0.3333333  -0.9622504   0.2064804), wk =   0.0185185
        k(   52) = (   0.3333333  -0.9622504  -0.3097206), wk =   0.0185185
        k(   53) = (   0.3333333  -0.5773503   0.0000000), wk =   0.0185185
        k(   54) = (   0.3333333  -0.5773503   0.1032402), wk =   0.0370370
        k(   55) = (   0.3333333  -0.5773503   0.2064804), wk =   0.0370370
[...]

     Check: negative core charge=   -0.000002

     Initial potential from superposition of free atoms

     starting charge     143.9702, renormalised to     144.0000
     Starting wfcs are  104 randomized atomic wfcs

     Self-consistent Calculation

     iteration #  1     ecut=    50.00 Ry     beta= 0.30
     Davidson diagonalization with overlap

     ethr =  1.00E-02,  avg # of iterations =  1.3

     total energy              =   -1445.36874162 Ry
     estimated scf accuracy    <       3.39511806 Ry

[...]

     c_bands:  1 eigenvalues not converged
     c_bands:  1 eigenvalues not converged
     ethr =  1.18E-07,  avg # of iterations = 14.1

[...]

     c_bands:  1 eigenvalues not converged
     ethr =  8.10E-11,  avg # of iterations = 13.3

[...]

     total energy              =   -1446.19102197 Ry
     estimated scf accuracy    <       0.00000005 Ry

     iteration # 29     ecut=    50.00 Ry     beta= 0.30
     Davidson diagonalization with overlap

     ethr =  1.84E-11,  avg # of iterations =  5.8

     End of self-consistent calculation

          k = 0.0000 0.0000 0.0000 ( 10489 PWs)   bands (ev):

   -12.7780 -12.6067 -12.6066 -12.4463 -12.4309 -12.3900 -12.3900 -12.3389
    -1.4486  -1.4484  -1.4401  -1.4401  -1.4389  -1.4362  -1.4110  -1.4110
    -1.4108  -1.4108  -1.4032  -1.4032  -1.3497  -1.3496  -1.3229  -1.2070
    -1.2004  -1.2004  -1.1334  -1.0780  -1.0780  -1.0650  -1.0081  -0.9826
    -0.9825  -0.9239  -0.9239  -0.9239  -0.9238  -0.8994  -0.8894  -0.8893
    -0.8858  -0.8841  -0.8841  -0.8763  -0.8629  -0.8362  -0.8362  -0.8242
    -0.1118   0.2098   0.2742   0.2742   0.7210   1.3576   1.3576   1.4686
     2.0200   2.4524   2.4524   2.4973   2.4973   2.5503   2.8711   2.8801
     2.8807   3.1247   3.1248   3.1254   3.1254   3.3461   3.3637   3.3644

     occupation numbers
     1.0000   1.0000   1.0000   1.0000   1.0000   1.0000   1.0000   1.0000
     1.0000   1.0000   1.0000   1.0000   1.0000   1.0000   1.0000   1.0000
     1.0000   1.0000   1.0000   1.0000   1.0000   1.0000   1.0000   1.0000
     1.0000   1.0000   1.0000   1.0000   1.0000   1.0000   1.0000   1.0000
     1.0000   1.0000   1.0000   1.0000   1.0000   1.0000   1.0000   1.0000
     1.0000   1.0000   1.0000   1.0000   1.0000   1.0000   1.0000   1.0000
     1.0000   1.0000   1.0000   1.0000   1.0000   1.0000   1.0000   1.0000
     1.0000   1.0000   1.0000   1.0000   1.0000   1.0000   1.0000   1.0000
     1.0000   1.0000   1.0000   1.0000   1.0000   1.0000   1.0000   1.0000

[...]

          k =-0.5000-0.2887 0.0000 ( 10502 PWs)   bands (ev):

[...]

          k = 0.3333 0.1925-0.2065 ( 10490 PWs)   bands (ev):

[...]

          k =-0.6667 0.7698-0.2065 ( 10472 PWs)   bands (ev):

   -12.4409 -12.4409 -12.4192 -12.4192 -12.3633 -12.3632 -12.3441 -12.3441
    -1.4101  -1.4101  -1.4043  -1.4043  -1.3329  -1.3329  -1.3168  -1.3168
    -1.2655  -1.2655  -1.2167  -1.2167  -1.1505  -1.1505  -1.1294  -1.1294
    -1.1189  -1.1189  -1.1025  -1.1025  -1.0768  -1.0768  -1.0568  -1.0568
    -0.9630  -0.9630  -0.9336  -0.9336  -0.9192  -0.9192  -0.9083  -0.9083
    -0.8478  -0.8478  -0.8375  -0.8375  -0.7817  -0.7817  -0.7570  -0.7570
     0.3719   0.3719   0.3808   0.3808   0.5816   0.5816   0.7203   0.7203
     1.5749   1.5750   1.7930   1.7930   1.8767   1.8767   2.2217   2.2218
     2.3533   2.3533   2.5242   2.5243   2.6631   2.6631   2.7266   2.7266

     occupation numbers
     1.0000   1.0000   1.0000   1.0000   1.0000   1.0000   1.0000   1.0000
     1.0000   1.0000   1.0000   1.0000   1.0000   1.0000   1.0000   1.0000
     1.0000   1.0000   1.0000   1.0000   1.0000   1.0000   1.0000   1.0000
     1.0000   1.0000   1.0000   1.0000   1.0000   1.0000   1.0000   1.0000
     1.0000   1.0000   1.0000   1.0000   1.0000   1.0000   1.0000   1.0000
     1.0000   1.0000   1.0000   1.0000   1.0000   1.0000   1.0000   1.0000
     1.0000   1.0000   1.0000   1.0000   1.0000   1.0000   1.0000   1.0000
     1.0000   1.0000   1.0000   1.0000   1.0000   1.0000   1.0000   1.0000
     1.0000   1.0000   1.0000   1.0000   1.0000   1.0000   1.0000   1.0000

     highest occupied level (ev):     3.3644

!    total energy              =   -1446.19102197 Ry
     estimated scf accuracy    <          5.8E-09 Ry

     The total energy is the sum of the following terms:
     one-electron contribution =    -744.43815975 Ry
     hartree contribution      =     519.35261186 Ry
     xc contribution           =    -436.18325640 Ry
     ewald contribution        =    -784.92221767 Ry

     convergence has been achieved in  29 iterations

     Forces acting on atoms (cartesian axes, Ry/au):

     atom    1 type  1   force =    -0.00001127   -0.00000651   -0.00006238
     atom    2 type  1   force =     0.00000315    0.00000182   -0.00010224
     atom    3 type  2   force =    -0.00000698   -0.00000403    0.00008840
     atom    4 type  2   force =     0.00000684    0.00000395    0.00008760
     atom    5 type  1   force =    -0.00002065   -0.00001192   -0.00011567
     atom    6 type  1   force =    -0.00000269   -0.00000156   -0.00007941
     atom    7 type  2   force =    -0.00000717   -0.00000414    0.00009154
     atom    8 type  2   force =     0.00000642    0.00000371    0.00009251
     atom    9 type  1   force =    -0.00000195   -0.00000113   -0.00005230
     atom   10 type  1   force =     0.00001046    0.00000604   -0.00010136
     atom   11 type  2   force =    -0.00000664   -0.00000383    0.00008847
     atom   12 type  2   force =     0.00000716    0.00000413    0.00008774
     atom   13 type  1   force =     0.00000629    0.00000363   -0.00011422
     atom   14 type  1   force =     0.00001638    0.00000946   -0.00009233
     atom   15 type  2   force =    -0.00000620   -0.00000358    0.00009146
     atom   16 type  2   force =     0.00000685    0.00000395    0.00009220
     The non-local contrib.  to forces
     atom    1 type  1   force =     0.00001499    0.00000866   -0.00456084
     atom    2 type  1   force =    -0.00001860   -0.00001074   -0.00459118
     atom    3 type  2   force =    -0.00019735   -0.00011394    0.00638981
     atom    4 type  2   force =     0.00019978    0.00011534    0.00639124
     atom    5 type  1   force =     0.00001079    0.00000623   -0.00459678
     atom    6 type  1   force =    -0.00002266   -0.00001308   -0.00457082
     atom    7 type  2   force =    -0.00019654   -0.00011347    0.00641140
     atom    8 type  2   force =     0.00019766    0.00011412    0.00641207
     atom    9 type  1   force =     0.00001908    0.00001101   -0.00455597
     atom   10 type  1   force =    -0.00001583   -0.00000914   -0.00458891
     atom   11 type  2   force =    -0.00019892   -0.00011485    0.00639205
     atom   12 type  2   force =     0.00019585    0.00011308    0.00639037
     atom   13 type  1   force =     0.00002321    0.00001340   -0.00459825
     atom   14 type  1   force =    -0.00001185   -0.00000684   -0.00457552
     atom   15 type  2   force =    -0.00019886   -0.00011481    0.00640868
     atom   16 type  2   force =     0.00019737    0.00011395    0.00641449
     The ionic contribution  to forces
     atom    1 type  1   force =     0.00000000    0.00000001    0.05183208
     atom    2 type  1   force =     0.00000001    0.00000000    0.05183209
     atom    3 type  2   force =     0.00000000    0.00000000   -0.05183208
     atom    4 type  2   force =     0.00000001    0.00000000   -0.05183209
     atom    5 type  1   force =     0.00000000    0.00000001    0.05183208
     atom    6 type  1   force =     0.00000001    0.00000000    0.05183209
     atom    7 type  2   force =     0.00000000    0.00000000   -0.05183208
     atom    8 type  2   force =     0.00000001    0.00000000   -0.05183209
     atom    9 type  1   force =    -0.00000002   -0.00000000    0.05183208
     atom   10 type  1   force =     0.00000000   -0.00000001    0.05183208
     atom   11 type  2   force =    -0.00000001    0.00000000   -0.05183208
     atom   12 type  2   force =     0.00000000   -0.00000000   -0.05183208
     atom   13 type  1   force =    -0.00000002   -0.00000000    0.05183208
     atom   14 type  1   force =     0.00000000   -0.00000001    0.05183208
     atom   15 type  2   force =    -0.00000001    0.00000000   -0.05183208
     atom   16 type  2   force =     0.00000000   -0.00000000   -0.05183208
     The local contribution  to forces
     atom    1 type  1   force =    -0.00000995   -0.00000574   -0.04763723
     atom    2 type  1   force =     0.00002232    0.00001278   -0.04756952
     atom    3 type  2   force =     0.00019037    0.00010991    0.04558540
     atom    4 type  2   force =    -0.00018823   -0.00010870    0.04557017
     atom    5 type  1   force =     0.00000453    0.00000262   -0.04754770
     atom    6 type  1   force =     0.00003402    0.00001953   -0.04761020
     atom    7 type  2   force =     0.00019040    0.00010993    0.04559322
     atom    8 type  2   force =    -0.00018654   -0.00010773    0.04560056
     atom    9 type  1   force =    -0.00002416   -0.00001384   -0.04765475
     atom   10 type  1   force =     0.00001199    0.00000681   -0.04757033
     atom   11 type  2   force =     0.00018837    0.00010878    0.04558430
     atom   12 type  2   force =    -0.00018955   -0.00010947    0.04556984
     atom   13 type  1   force =    -0.00003803   -0.00002185   -0.04755031
     atom   14 type  1   force =     0.00000052    0.00000019   -0.04758860
     atom   15 type  2   force =     0.00018735    0.00010820    0.04559446
     atom   16 type  2   force =    -0.00019172   -0.00011072    0.04560317
     The core correction contribution to forces
     atom    1 type  1   force =    -0.00000599   -0.00000346    0.00025158
     atom    2 type  1   force =     0.00000585    0.00000336    0.00025130
     atom    3 type  2   force =     0.00000223    0.00000129   -0.00007146
     atom    4 type  2   force =    -0.00000226   -0.00000131   -0.00007149
     atom    5 type  1   force =    -0.00000629   -0.00000363    0.00025069
     atom    6 type  1   force =     0.00000557    0.00000320    0.00025118
     atom    7 type  2   force =     0.00000222    0.00000128   -0.00007174
     atom    8 type  2   force =    -0.00000223   -0.00000129   -0.00007174
     atom    9 type  1   force =    -0.00000578   -0.00000333    0.00025202
     atom   10 type  1   force =     0.00000595    0.00000342    0.00025113
     atom   11 type  2   force =     0.00000225    0.00000130   -0.00007149
     atom   12 type  2   force =    -0.00000221   -0.00000128   -0.00007148
     atom   13 type  1   force =    -0.00000547   -0.00000315    0.00025096
     atom   14 type  1   force =     0.00000625    0.00000359    0.00025053
     atom   15 type  2   force =     0.00000225    0.00000130   -0.00007170
     atom   16 type  2   force =    -0.00000223   -0.00000129   -0.00007176
     The Hubbard contrib.    to forces
     atom    1 type  1   force =     0.00000000    0.00000000    0.00000000
     atom    2 type  1   force =     0.00000000    0.00000000    0.00000000
     atom    3 type  2   force =     0.00000000    0.00000000    0.00000000
     atom    4 type  2   force =     0.00000000    0.00000000    0.00000000
     atom    5 type  1   force =     0.00000000    0.00000000    0.00000000
     atom    6 type  1   force =     0.00000000    0.00000000    0.00000000
     atom    7 type  2   force =     0.00000000    0.00000000    0.00000000
     atom    8 type  2   force =     0.00000000    0.00000000    0.00000000
     atom    9 type  1   force =     0.00000000    0.00000000    0.00000000
     atom   10 type  1   force =     0.00000000    0.00000000    0.00000000
     atom   11 type  2   force =     0.00000000    0.00000000    0.00000000
     atom   12 type  2   force =     0.00000000    0.00000000    0.00000000
     atom   13 type  1   force =     0.00000000    0.00000000    0.00000000
     atom   14 type  1   force =     0.00000000    0.00000000    0.00000000
     atom   15 type  2   force =     0.00000000    0.00000000    0.00000000
     atom   16 type  2   force =     0.00000000    0.00000000    0.00000000
     The SCF correction term to forces
     atom    1 type  1   force =    -0.00001039   -0.00000600    0.00005021
     atom    2 type  1   force =    -0.00000644   -0.00000372   -0.00002674
     atom    3 type  2   force =    -0.00000230   -0.00000133    0.00001492
     atom    4 type  2   force =    -0.00000250   -0.00000144    0.00002795
     atom    5 type  1   force =    -0.00002975   -0.00001718   -0.00005577
     atom    6 type  1   force =    -0.00001964   -0.00001134    0.00001654
     atom    7 type  2   force =    -0.00000331   -0.00000191   -0.00001107
     atom    8 type  2   force =    -0.00000252   -0.00000146   -0.00001810
     atom    9 type  1   force =     0.00000880    0.00000508    0.00007250
     atom   10 type  1   force =     0.00000833    0.00000481   -0.00002715
     atom   11 type  2   force =     0.00000159    0.00000092    0.00001389
     atom   12 type  2   force =     0.00000301    0.00000174    0.00002929
     atom   13 type  1   force =     0.00002648    0.00001529   -0.00005051
     atom   14 type  1   force =     0.00002145    0.00001239   -0.00001263
     atom   15 type  2   force =     0.00000298    0.00000172   -0.00000970
     atom   16 type  2   force =     0.00000337    0.00000195   -0.00002342

     Total force =     0.000368     Total SCF correction =     0.000149
     SCF correction compared to forces is large: reduce conv_thr to get better values

     General routines

     Parallel routines

   This run was terminated on:  19:15:43  29Aug2025

   JOB DONE.
Note: The following floating-point exceptions are signalling: IEEE_UNDERFLOW_FLAG IEEE_DENORMAL
Note: The following floating-point exceptions are signalling: IEEE_UNDERFLOW_FLAG IEEE_DENORMAL
Note: The following floating-point exceptions are signalling: IEEE_UNDERFLOW_FLAG IEEE_DENORMAL
Note: The following floating-point exceptions are signalling: IEEE_UNDERFLOW_FLAG IEEE_DENORMAL
Note: The following floating-point exceptions are signalling: IEEE_UNDERFLOW_FLAG IEEE_DENORMAL
Note: The following floating-point exceptions are signalling: IEEE_UNDERFLOW_FLAG IEEE_DENORMAL
Note: The following floating-point exceptions are signalling: IEEE_UNDERFLOW_FLAG IEEE_DENORMAL
Note: The following floating-point exceptions are signalling: IEEE_UNDERFLOW_FLAG IEEE_DENORMAL
Note: The following floating-point exceptions are signalling: IEEE_UNDERFLOW_FLAG IEEE_DENORMAL
Note: The following floating-point exceptions are signalling: IEEE_UNDERFLOW_FLAG IEEE_DENORMAL
Note: The following floating-point exceptions are signalling: IEEE_UNDERFLOW_FLAG IEEE_DENORMAL
Note: The following floating-point exceptions are signalling: IEEE_UNDERFLOW_FLAG IEEE_DENORMAL
Note: The following floating-point exceptions are signalling: IEEE_UNDERFLOW_FLAG IEEE_DENORMAL
Note: The following floating-point exceptions are signalling: IEEE_UNDERFLOW_FLAG IEEE_DENORMAL
Note: The following floating-point exceptions are signalling: IEEE_UNDERFLOW_FLAG IEEE_DENORMAL
Note: The following floating-point exceptions are signalling: IEEE_UNDERFLOW_FLAG IEEE_DENORMAL
Note: The following floating-point exceptions are signalling: IEEE_UNDERFLOW_FLAG IEEE_DENORMAL
Note: The following floating-point exceptions are signalling: IEEE_UNDERFLOW_FLAG IEEE_DENORMAL
Note: The following floating-point exceptions are signalling: IEEE_UNDERFLOW_FLAG IEEE_DENORMAL
Note: The following floating-point exceptions are signalling: IEEE_UNDERFLOW_FLAG IEEE_DENORMAL
Note: The following floating-point exceptions are signalling: IEEE_UNDERFLOW_FLAG IEEE_DENORMAL
Note: The following floating-point exceptions are signalling: IEEE_UNDERFLOW_FLAG IEEE_DENORMAL
Note: The following floating-point exceptions are signalling: IEEE_UNDERFLOW_FLAG IEEE_DENORMAL
Note: The following floating-point exceptions are signalling: IEEE_UNDERFLOW_FLAG IEEE_DENORMAL
Note: The following floating-point exceptions are signalling: IEEE_UNDERFLOW_FLAG IEEE_DENORMAL
Note: The following floating-point exceptions are signalling: IEEE_UNDERFLOW_FLAG IEEE_DENORMAL
Note: The following floating-point exceptions are signalling: IEEE_UNDERFLOW_FLAG IEEE_DENORMAL
Note: The following floating-point exceptions are signalling: IEEE_UNDERFLOW_FLAG IEEE_DENORMAL
Note: The following floating-point exceptions are signalling: IEEE_UNDERFLOW_FLAG IEEE_DENORMAL
Note: The following floating-point exceptions are signalling: IEEE_UNDERFLOW_FLAG IEEE_DENORMAL
Note: The following floating-point exceptions are signalling: IEEE_UNDERFLOW_FLAG IEEE_DENORMAL
Note: The following floating-point exceptions are signalling: IEEE_UNDERFLOW_FLAG IEEE_DENORMAL