     Program PWSCF v.7.0 starts on 29Aug2025 at  4: 2:24

     K-points division:     npool     =       8
     R & G space division:  proc/nbgrp/npool/nimage =       4

     Reading input from /home/jvc/QEspresso7.2/ZnO_database/scripts/cell212.in/ZnO-3.27-1.55-212.in
Warning: card &CELL ignored
Warning: card / ignored
Warning: card &FCP ignored
Warning: card / ignored
Warning: card &RISM ignored
Warning: card / ignored

     Current dimensions of program PWSCF are:
     Max number of different atomic species (ntypx) = 10
     Max number of k-points (npk) =  40000
     Max angular momentum in pseudopotentials (lmaxx) =  4
     file Zn.upf: wavefunction(s)  3D renormalized
     Found identity + (  0.0000  0.0000 -0.5000) symmetry
     This is a supercell, fractional translations are disabled
     Message from routine setup:
     using ibrav=0 with symmetry is DISCOURAGED, use correct ibrav instead

     Using Slab Decomposition

     bravais-lattice index     =            0
     lattice parameter (alat)  =      12.3577  a.u.
     unit-cell volume          =    1266.4429 (a.u.)^3
     number of atoms/cell      =           16
     number of atomic types    =            2
     number of electrons       =       144.00
     number of Kohn-Sham states=           72
     kinetic-energy cutoff     =      50.0000  Ry
     charge density cutoff     =     400.0000  Ry
     scf convergence threshold =      1.0E-08
     mixing beta               =       0.3000
     number of iterations used =            8  plain     mixing
     Exchange-correlation= PBE
                           (   1   4   3   4   0   0   0)

     celldm(1)=  12.357708  celldm(2)=   0.000000  celldm(3)=   0.000000
     celldm(4)=   0.000000  celldm(5)=   0.000000  celldm(6)=   0.000000

     crystal axes: (cart. coord. in units of alat)
               a(1) = (   1.000000   0.000000   0.000000 )
               a(2) = (  -0.250000   0.433013   0.000000 )
               a(3) = (   0.000000   0.000000   1.549784 )

     reciprocal axes: (cart. coord. in units 2 pi/alat)
               b(1) = (  1.000000  0.577350 -0.000000 )
               b(2) = (  0.000000  2.309401  0.000000 )
               b(3) = (  0.000000 -0.000000  0.645251 )

     PseudoPot. # 1 for Zn read from file:
     /home/jvc/QEspresso7.2/ZnO_database/pseudos/Zn.upf
     MD5 check sum: 7f56cabf9682ed8c977c2f7d0c5985c5
     Pseudo is Ultrasoft + core correction, Zval = 12.0
     Generated using &quot;atomic&quot; code by A. Dal Corso  v.6.2.2
     Using radial grid of 1201 points,  6 beta functions with:
                l(1) =   0
                l(2) =   0
                l(3) =   1
                l(4) =   1
                l(5) =   2
                l(6) =   2
     Q(r) pseudized with 0 coefficients

     PseudoPot. # 2 for O  read from file:
     /home/jvc/QEspresso7.2/ZnO_database/pseudos/O.upf
     MD5 check sum: 91400c9766925bcf19f520983a725ff0
     Pseudo is Ultrasoft + core correction, Zval =  6.0
     Generated using &quot;atomic&quot; code by A. Dal Corso  v.6.3MaX
     Using radial grid of 1095 points,  4 beta functions with:
                l(1) =   0
                l(2) =   0
                l(3) =   1
                l(4) =   1
     Q(r) pseudized with 0 coefficients

     atomic species   valence    mass     pseudopotential
        Zn            12.00    65.38000     Zn( 1.00)
        O              6.00    15.99900     O ( 1.00)

      2 Sym. Ops. (no inversion) found

                                    s                        frac. trans.

      isym =  1     identity

 cryst.   s( 1) = (     1          0          0      )
                  (     0          1          0      )
                  (     0          0          1      )

 cart.    s( 1) = (  1.0000000  0.0000000  0.0000000 )
                  (  0.0000000  1.0000000  0.0000000 )
                  (  0.0000000  0.0000000  1.0000000 )

      isym =  2     inv. 180 deg rotation - cryst. axis [0,1,0]

 cryst.   s( 2) = (     1          2          0      )
                  (     0         -1          0      )
                  (     0          0          1      )

 cart.    s( 2) = (  0.5000000  0.8660254  0.0000000 )
                  (  0.8660254 -0.5000000  0.0000000 )
                  (  0.0000000  0.0000000  1.0000000 )

   Cartesian axes

     site n.     atom                  positions (alat units)
         1           Zn  tau(   1) = (   0.2500000   0.1443376   0.3879370  )
         2           Zn  tau(   2) = (  -0.0000000   0.2886751   0.0004910  )
         3           O   tau(   3) = (   0.2500000   0.1443376   0.6816542  )
         4           O   tau(   4) = (  -0.0000000   0.2886751   0.2942082  )
         5           Zn  tau(   5) = (   0.2500000   0.1443376   1.1628290  )
         6           Zn  tau(   6) = (  -0.0000000   0.2886751   0.7753830  )
         7           O   tau(   7) = (   0.2500000   0.1443376   1.4565462  )
         8           O   tau(   8) = (  -0.0000000   0.2886751   1.0691002  )
         9           Zn  tau(   9) = (   0.7500000   0.1443376   0.3879370  )
        10           Zn  tau(  10) = (   0.5000000   0.2886751   0.0004910  )
        11           O   tau(  11) = (   0.7500000   0.1443376   0.6816542  )
        12           O   tau(  12) = (   0.5000000   0.2886751   0.2942082  )
        13           Zn  tau(  13) = (   0.7500000   0.1443376   1.1628290  )
        14           Zn  tau(  14) = (   0.5000000   0.2886751   0.7753830  )
        15           O   tau(  15) = (   0.7500000   0.1443376   1.4565462  )
        16           O   tau(  16) = (   0.5000000   0.2886751   1.0691002  )

   Crystallographic axes

     site n.     atom                  positions (cryst. coord.)
         1           Zn  tau(   1) = (  0.3333333  0.3333333  0.2503168  )
         2           Zn  tau(   2) = (  0.1666667  0.6666667  0.0003168  )
         3           O   tau(   3) = (  0.3333333  0.3333333  0.4398382  )
         4           O   tau(   4) = (  0.1666667  0.6666667  0.1898382  )
         5           Zn  tau(   5) = (  0.3333333  0.3333333  0.7503168  )
         6           Zn  tau(   6) = (  0.1666667  0.6666667  0.5003168  )
         7           O   tau(   7) = (  0.3333333  0.3333333  0.9398382  )
         8           O   tau(   8) = (  0.1666667  0.6666667  0.6898382  )
         9           Zn  tau(   9) = (  0.8333333  0.3333333  0.2503168  )
        10           Zn  tau(  10) = (  0.6666667  0.6666667  0.0003168  )
        11           O   tau(  11) = (  0.8333333  0.3333333  0.4398382  )
        12           O   tau(  12) = (  0.6666667  0.6666667  0.1898382  )
        13           Zn  tau(  13) = (  0.8333333  0.3333333  0.7503168  )
        14           Zn  tau(  14) = (  0.6666667  0.6666667  0.5003168  )
        15           O   tau(  15) = (  0.8333333  0.3333333  0.9398382  )
        16           O   tau(  16) = (  0.6666667  0.6666667  0.6898382  )

     number of k points=    80
                       cart. coord. in units 2pi/alat
        k(    1) = (   0.0000000   0.0000000   0.0000000), wk =   0.0092593
        k(    2) = (   0.0000000   0.0000000   0.1075419), wk =   0.0185185
        k(    3) = (   0.0000000   0.0000000   0.2150837), wk =   0.0185185
        k(    4) = (   0.0000000   0.0000000  -0.3226256), wk =   0.0092593
        k(    5) = (   0.0000000   0.3849002   0.0000000), wk =   0.0370370
        k(    6) = (   0.0000000   0.3849002   0.1075419), wk =   0.0370370
        k(    7) = (   0.0000000   0.3849002   0.2150837), wk =   0.0370370
        k(    8) = (   0.0000000   0.3849002  -0.3226256), wk =   0.0370370
        k(    9) = (   0.0000000   0.7698004   0.0000000), wk =   0.0370370
        k(   10) = (   0.0000000   0.7698004   0.1075419), wk =   0.0370370
        k(   11) = (   0.0000000   0.7698004   0.2150837), wk =   0.0370370
        k(   12) = (   0.0000000   0.7698004  -0.3226256), wk =   0.0370370
        k(   13) = (   0.0000000  -1.1547005   0.0000000), wk =   0.0092593
        k(   14) = (   0.0000000  -1.1547005   0.1075419), wk =   0.0185185
        k(   15) = (   0.0000000  -1.1547005   0.2150837), wk =   0.0185185
        k(   16) = (   0.0000000  -1.1547005  -0.3226256), wk =   0.0092593
        k(   17) = (   0.1666667   0.0962250   0.0000000), wk =   0.0185185
        k(   18) = (   0.1666667   0.0962250   0.1075419), wk =   0.0185185
        k(   19) = (   0.1666667   0.0962250   0.2150837), wk =   0.0185185
        k(   20) = (   0.1666667   0.0962250  -0.3226256), wk =   0.0185185
        k(   21) = (   0.1666667   0.4811252   0.0000000), wk =   0.0370370
        k(   22) = (   0.1666667   0.4811252   0.1075419), wk =   0.0370370
        k(   23) = (   0.1666667   0.4811252   0.2150837), wk =   0.0370370
        k(   24) = (   0.1666667   0.4811252  -0.3226256), wk =   0.0370370
        k(   25) = (   0.1666667   0.8660254   0.0000000), wk =   0.0185185
        k(   26) = (   0.1666667   0.8660254   0.1075419), wk =   0.0370370
        k(   27) = (   0.1666667   0.8660254   0.2150837), wk =   0.0370370
        k(   28) = (   0.1666667   0.8660254  -0.3226256), wk =   0.0185185
        k(   29) = (   0.1666667  -1.0584755   0.0000000), wk =   0.0185185
        k(   30) = (   0.1666667  -1.0584755   0.1075419), wk =   0.0185185
        k(   31) = (   0.1666667  -1.0584755   0.2150837), wk =   0.0185185
        k(   32) = (   0.1666667  -1.0584755  -0.3226256), wk =   0.0185185
        k(   33) = (   0.1666667  -0.6735753   0.0000000), wk =   0.0370370
        k(   34) = (   0.1666667  -0.6735753   0.1075419), wk =   0.0370370
        k(   35) = (   0.1666667  -0.6735753   0.2150837), wk =   0.0370370
        k(   36) = (   0.1666667  -0.6735753  -0.3226256), wk =   0.0370370
        k(   37) = (   0.1666667  -0.2886751   0.0000000), wk =   0.0185185
        k(   38) = (   0.1666667  -0.2886751   0.1075419), wk =   0.0370370
        k(   39) = (   0.1666667  -0.2886751   0.2150837), wk =   0.0370370
        k(   40) = (   0.1666667  -0.2886751  -0.3226256), wk =   0.0185185
        k(   41) = (   0.3333333   0.1924501   0.0000000), wk =   0.0185185
        k(   42) = (   0.3333333   0.1924501   0.1075419), wk =   0.0185185
        k(   43) = (   0.3333333   0.1924501   0.2150837), wk =   0.0185185
        k(   44) = (   0.3333333   0.1924501  -0.3226256), wk =   0.0185185
        k(   45) = (   0.3333333   0.5773503   0.0000000), wk =   0.0185185
        k(   46) = (   0.3333333   0.5773503   0.1075419), wk =   0.0370370
        k(   47) = (   0.3333333   0.5773503   0.2150837), wk =   0.0370370
        k(   48) = (   0.3333333   0.5773503  -0.3226256), wk =   0.0185185
        k(   49) = (   0.3333333  -0.9622504   0.0000000), wk =   0.0185185
        k(   50) = (   0.3333333  -0.9622504   0.1075419), wk =   0.0185185
        k(   51) = (   0.3333333  -0.9622504   0.2150837), wk =   0.0185185
        k(   52) = (   0.3333333  -0.9622504  -0.3226256), wk =   0.0185185
        k(   53) = (   0.3333333  -0.5773503   0.0000000), wk =   0.0185185
        k(   54) = (   0.3333333  -0.5773503   0.1075419), wk =   0.0370370
        k(   55) = (   0.3333333  -0.5773503   0.2150837), wk =   0.0370370
[...]
        k(   79) = (  -0.6666667   0.5000000  -0.1666667), wk =   0.0185185
        k(   80) = (  -0.6666667   0.5000000  -0.3333333), wk =   0.0185185

     Check: negative core charge=   -0.000002

     Initial potential from superposition of free atoms

     starting charge     143.9702, renormalised to     144.0000
     Starting wfcs are  104 randomized atomic wfcs

     Self-consistent Calculation

     iteration #  1     ecut=    50.00 Ry     beta= 0.30
     Davidson diagonalization with overlap

     ethr =  1.00E-02,  avg # of iterations =  2.0

     total energy              =   -1445.90792885 Ry
     estimated scf accuracy    <       2.74733046 Ry

[...]

     c_bands:  1 eigenvalues not converged
     ethr =  1.86E-04,  avg # of iterations = 10.4

[...]

     c_bands:  1 eigenvalues not converged
     c_bands:  1 eigenvalues not converged
     ethr =  3.48E-08,  avg # of iterations = 14.0

[...]

     total energy              =   -1446.52105636 Ry
     estimated scf accuracy    <       0.00000004 Ry

     iteration # 29     ecut=    50.00 Ry     beta= 0.30
     Davidson diagonalization with overlap

     ethr =  2.69E-11,  avg # of iterations =  7.5

     End of self-consistent calculation

          k = 0.0000 0.0000 0.0000 (  7531 PWs)   bands (ev):

   -10.7201 -10.3260 -10.3260 -10.0325  -9.9119  -9.8945  -9.8945  -9.7826
     1.2568   1.2568   1.4642   1.4642   1.4936   1.7215   1.7533   1.7535
     1.7771   1.8218   1.8276   1.8277   1.8278   1.8278   1.9753   1.9755
     1.9882   2.2373   2.2373   2.2373   2.2373   2.2958   2.3896   2.5916
     2.9470   2.9471   2.9911   3.1027   3.1027   3.1027   3.1028   3.1322
     3.1617   3.1617   3.1930   3.1931   3.2425   3.2592   3.2592   3.3061
     3.4352   3.7686   3.7686   3.8120   3.9798   4.6263   5.0417   5.3413
     5.3413   5.9184   5.9185   6.2155   6.2156   6.2167   6.5471   6.5474
     6.6664   7.0115   7.0116   7.0118   7.0119   7.4544   7.4592   7.4595

     occupation numbers
     1.0000   1.0000   1.0000   1.0000   1.0000   1.0000   1.0000   1.0000
     1.0000   1.0000   1.0000   1.0000   1.0000   1.0000   1.0000   1.0000
     1.0000   1.0000   1.0000   1.0000   1.0000   1.0000   1.0000   1.0000
     1.0000   1.0000   1.0000   1.0000   1.0000   1.0000   1.0000   1.0000
     1.0000   1.0000   1.0000   1.0000   1.0000   1.0000   1.0000   1.0000
     1.0000   1.0000   1.0000   1.0000   1.0000   1.0000   1.0000   1.0000
     1.0000   1.0000   1.0000   1.0000   1.0000   1.0000   1.0000   1.0000
     1.0000   1.0000   1.0000   1.0000   1.0000   1.0000   1.0000   1.0000
     1.0000   1.0000   1.0000   1.0000   1.0000   1.0000   1.0000   1.0000

[...]

          k =-0.5000-0.2887 0.0000 (  7528 PWs)   bands (ev):

[...]

          k = 0.3333 0.1925-0.2151 (  7543 PWs)   bands (ev):

[...]

          k =-0.6667 0.7698-0.2151 (  7590 PWs)   bands (ev):

   -10.0201 -10.0201  -9.9657  -9.9657  -9.8336  -9.8336  -9.7920  -9.7920
     1.4277   1.4277   1.5143   1.5143   1.5444   1.5444   1.7467   1.7467
     1.9737   1.9737   1.9955   1.9955   2.1283   2.1284   2.1599   2.1599
     2.3207   2.3207   2.3808   2.3808   2.4259   2.4259   2.5294   2.5294
     2.9511   2.9511   3.0365   3.0365   3.0835   3.0835   3.1125   3.1125
     3.2433   3.2433   3.2551   3.2551   3.3811   3.3811   3.4295   3.4295
     3.6405   3.6405   3.8046   3.8046   4.1596   4.1596   4.2602   4.2602
     4.6291   4.6291   4.9830   4.9830   5.1408   5.1408   5.6825   5.6825
     5.9366   5.9366   6.1844   6.1844   6.3862   6.3862   6.4894   6.4894

     occupation numbers
     1.0000   1.0000   1.0000   1.0000   1.0000   1.0000   1.0000   1.0000
     1.0000   1.0000   1.0000   1.0000   1.0000   1.0000   1.0000   1.0000
     1.0000   1.0000   1.0000   1.0000   1.0000   1.0000   1.0000   1.0000
     1.0000   1.0000   1.0000   1.0000   1.0000   1.0000   1.0000   1.0000
     1.0000   1.0000   1.0000   1.0000   1.0000   1.0000   1.0000   1.0000
     1.0000   1.0000   1.0000   1.0000   1.0000   1.0000   1.0000   1.0000
     1.0000   1.0000   1.0000   1.0000   1.0000   1.0000   1.0000   1.0000
     1.0000   1.0000   1.0000   1.0000   1.0000   1.0000   1.0000   1.0000
     1.0000   1.0000   1.0000   1.0000   1.0000   1.0000   1.0000   1.0000

     highest occupied level (ev):     7.4595

!    total energy              =   -1446.52105639 Ry
     estimated scf accuracy    <          2.8E-09 Ry

     The total energy is the sum of the following terms:
     one-electron contribution =    -600.49567083 Ry
     hartree contribution      =     467.12775758 Ry
     xc contribution           =    -438.53801301 Ry
     ewald contribution        =    -874.61513014 Ry

     convergence has been achieved in  29 iterations

     Forces acting on atoms (cartesian axes, Ry/au):

     atom    1 type  1   force =     0.00000921    0.00000531   -0.01811149
     atom    2 type  1   force =    -0.00000513   -0.00000296   -0.01812525
     atom    3 type  2   force =    -0.00000142   -0.00000082    0.01811421
     atom    4 type  2   force =     0.00000121    0.00000070    0.01811439
     atom    5 type  1   force =     0.00000309    0.00000178   -0.01810802
     atom    6 type  1   force =    -0.00000891   -0.00000514   -0.01811440
     atom    7 type  2   force =    -0.00000132   -0.00000076    0.01811351
     atom    8 type  2   force =     0.00000161    0.00000093    0.01811713
     atom    9 type  1   force =     0.00000646    0.00000373   -0.01810967
     atom   10 type  1   force =    -0.00000912   -0.00000527   -0.01812414
     atom   11 type  2   force =    -0.00000155   -0.00000089    0.01811410
     atom   12 type  2   force =     0.00000126    0.00000073    0.01811475
     atom   13 type  1   force =     0.00001052    0.00000607   -0.01810689
     atom   14 type  1   force =    -0.00000487   -0.00000281   -0.01811993
     atom   15 type  2   force =    -0.00000169   -0.00000097    0.01811409
     atom   16 type  2   force =     0.00000067    0.00000038    0.01811761
     The non-local contrib.  to forces
     atom    1 type  1   force =    -0.00001580   -0.00000912   -0.12500756
     atom    2 type  1   force =     0.00001725    0.00000996   -0.12501254
     atom    3 type  2   force =    -0.00016693   -0.00009638   -0.08986133
     atom    4 type  2   force =     0.00016699    0.00009641   -0.08985863
     atom    5 type  1   force =    -0.00001782   -0.00001029   -0.12500033
     atom    6 type  1   force =     0.00001577    0.00000910   -0.12499873
     atom    7 type  2   force =    -0.00016771   -0.00009682   -0.08985739
     atom    8 type  2   force =     0.00016756    0.00009674   -0.08985966
     atom    9 type  1   force =    -0.00001717   -0.00000991   -0.12500661
     atom   10 type  1   force =     0.00001646    0.00000950   -0.12501232
     atom   11 type  2   force =    -0.00016734   -0.00009662   -0.08986153
     atom   12 type  2   force =     0.00016740    0.00009665   -0.08985808
     atom   13 type  1   force =    -0.00001573   -0.00000908   -0.12500032
     atom   14 type  1   force =     0.00001792    0.00001034   -0.12500008
     atom   15 type  2   force =    -0.00016682   -0.00009631   -0.08985765
     atom   16 type  2   force =     0.00016659    0.00009618   -0.08986010
     The ionic contribution  to forces
     atom    1 type  1   force =     0.00000000    0.00000001   -0.79927989
     atom    2 type  1   force =     0.00000001    0.00000000   -0.79927989
     atom    3 type  2   force =     0.00000000    0.00000001    0.79927989
     atom    4 type  2   force =     0.00000001   -0.00000000    0.79927989
     atom    5 type  1   force =     0.00000000    0.00000001   -0.79927989
     atom    6 type  1   force =     0.00000001    0.00000000   -0.79927989
     atom    7 type  2   force =     0.00000000    0.00000001    0.79927989
     atom    8 type  2   force =     0.00000001   -0.00000000    0.79927989
     atom    9 type  1   force =    -0.00000000   -0.00000000   -0.79927988
     atom   10 type  1   force =    -0.00000001   -0.00000001   -0.79927989
     atom   11 type  2   force =    -0.00000000   -0.00000000    0.79927988
     atom   12 type  2   force =    -0.00000001   -0.00000000    0.79927989
     atom   13 type  1   force =    -0.00000000   -0.00000000   -0.79927988
     atom   14 type  1   force =    -0.00000001   -0.00000001   -0.79927989
     atom   15 type  2   force =    -0.00000000   -0.00000000    0.79927988
     atom   16 type  2   force =    -0.00000001   -0.00000000    0.79927989
     The local contribution  to forces
     atom    1 type  1   force =     0.00002632    0.00001519    0.89643133
     atom    2 type  1   force =    -0.00003067   -0.00001781    0.89643812
     atom    3 type  2   force =     0.00016441    0.00009492   -0.69194876
     atom    4 type  2   force =    -0.00016394   -0.00009468   -0.69194844
     atom    5 type  1   force =     0.00003196    0.00001845    0.89641886
     atom    6 type  1   force =    -0.00002541   -0.00001477    0.89642984
     atom    7 type  2   force =     0.00016301    0.00009412   -0.69194777
     atom    8 type  2   force =    -0.00016247   -0.00009383   -0.69194652
     atom    9 type  1   force =     0.00003068    0.00001772    0.89642786
     atom   10 type  1   force =    -0.00002733   -0.00001578    0.89643588
     atom   11 type  2   force =     0.00016168    0.00009335   -0.69194767
     atom   12 type  2   force =    -0.00016335   -0.00009431   -0.69194875
     atom   13 type  1   force =     0.00002592    0.00001496    0.89641854
     atom   14 type  1   force =    -0.00003252   -0.00001878    0.89643472
     atom   15 type  2   force =     0.00016473    0.00009511   -0.69194592
     atom   16 type  2   force =    -0.00016447   -0.00009496   -0.69195068
     The core correction contribution to forces
     atom    1 type  1   force =    -0.00000372   -0.00000215    0.00974024
     atom    2 type  1   force =     0.00000374    0.00000215    0.00974262
     atom    3 type  2   force =     0.00000190    0.00000110    0.00064510
     atom    4 type  2   force =    -0.00000190   -0.00000110    0.00064451
     atom    5 type  1   force =    -0.00000376   -0.00000217    0.00973928
     atom    6 type  1   force =     0.00000369    0.00000212    0.00973659
     atom    7 type  2   force =     0.00000191    0.00000110    0.00064277
     atom    8 type  2   force =    -0.00000191   -0.00000110    0.00064337
     atom    9 type  1   force =    -0.00000384   -0.00000222    0.00974032
     atom   10 type  1   force =     0.00000377    0.00000218    0.00974266
     atom   11 type  2   force =     0.00000190    0.00000110    0.00064510
     atom   12 type  2   force =    -0.00000191   -0.00000110    0.00064450
     atom   13 type  1   force =    -0.00000377   -0.00000218    0.00973930
     atom   14 type  1   force =     0.00000383    0.00000221    0.00973655
     atom   15 type  2   force =     0.00000191    0.00000110    0.00064278
     atom   16 type  2   force =    -0.00000190   -0.00000110    0.00064337
     The Hubbard contrib.    to forces
     atom    1 type  1   force =     0.00000000    0.00000000    0.00000000
     atom    2 type  1   force =     0.00000000    0.00000000    0.00000000
     atom    3 type  2   force =     0.00000000    0.00000000    0.00000000
     atom    4 type  2   force =     0.00000000    0.00000000    0.00000000
     atom    5 type  1   force =     0.00000000    0.00000000    0.00000000
     atom    6 type  1   force =     0.00000000    0.00000000    0.00000000
     atom    7 type  2   force =     0.00000000    0.00000000    0.00000000
     atom    8 type  2   force =     0.00000000    0.00000000    0.00000000
     atom    9 type  1   force =     0.00000000    0.00000000    0.00000000
     atom   10 type  1   force =     0.00000000    0.00000000    0.00000000
     atom   11 type  2   force =     0.00000000    0.00000000    0.00000000
     atom   12 type  2   force =     0.00000000    0.00000000    0.00000000
     atom   13 type  1   force =     0.00000000    0.00000000    0.00000000
     atom   14 type  1   force =     0.00000000    0.00000000    0.00000000
     atom   15 type  2   force =     0.00000000    0.00000000    0.00000000
     atom   16 type  2   force =     0.00000000    0.00000000    0.00000000
     The SCF correction term to forces
     atom    1 type  1   force =     0.00000260    0.00000150    0.00000535
     atom    2 type  1   force =     0.00000478    0.00000276   -0.00001260
     atom    3 type  2   force =    -0.00000062   -0.00000036    0.00000027
     atom    4 type  2   force =     0.00000026    0.00000015   -0.00000197
     atom    5 type  1   force =    -0.00000711   -0.00000410    0.00001503
     atom    6 type  1   force =    -0.00000273   -0.00000158   -0.00000125
     atom    7 type  2   force =     0.00000165    0.00000095   -0.00000302
     atom    8 type  2   force =    -0.00000138   -0.00000079    0.00000102
     atom    9 type  1   force =    -0.00000302   -0.00000175    0.00000962
     atom   10 type  1   force =    -0.00000182   -0.00000105   -0.00000951
     atom   11 type  2   force =     0.00000240    0.00000139   -0.00000071
     atom   12 type  2   force =    -0.00000068   -0.00000040   -0.00000184
     atom   13 type  1   force =     0.00000430    0.00000248    0.00001645
     atom   14 type  1   force =     0.00000611    0.00000353   -0.00001026
     atom   15 type  2   force =    -0.00000132   -0.00000076   -0.00000404
     atom   16 type  2   force =     0.00000065    0.00000037    0.00000611

     Total force =     0.072460     Total SCF correction =     0.000036

     General routines

     Parallel routines

   This run was terminated on:   4:14:26  29Aug2025

   JOB DONE.
Note: The following floating-point exceptions are signalling: IEEE_UNDERFLOW_FLAG IEEE_DENORMAL
Note: The following floating-point exceptions are signalling: IEEE_UNDERFLOW_FLAG IEEE_DENORMAL
Note: The following floating-point exceptions are signalling: IEEE_UNDERFLOW_FLAG IEEE_DENORMAL
Note: The following floating-point exceptions are signalling: IEEE_UNDERFLOW_FLAG IEEE_DENORMAL
Note: The following floating-point exceptions are signalling: IEEE_UNDERFLOW_FLAG IEEE_DENORMAL
Note: The following floating-point exceptions are signalling: IEEE_UNDERFLOW_FLAG IEEE_DENORMAL
Note: The following floating-point exceptions are signalling: IEEE_UNDERFLOW_FLAG IEEE_DENORMAL
Note: The following floating-point exceptions are signalling: IEEE_UNDERFLOW_FLAG IEEE_DENORMAL
Note: The following floating-point exceptions are signalling: IEEE_UNDERFLOW_FLAG IEEE_DENORMAL
Note: The following floating-point exceptions are signalling: IEEE_UNDERFLOW_FLAG IEEE_DENORMAL
Note: The following floating-point exceptions are signalling: IEEE_UNDERFLOW_FLAG IEEE_DENORMAL
Note: The following floating-point exceptions are signalling: IEEE_UNDERFLOW_FLAG IEEE_DENORMAL
Note: The following floating-point exceptions are signalling: IEEE_UNDERFLOW_FLAG IEEE_DENORMAL
Note: The following floating-point exceptions are signalling: IEEE_UNDERFLOW_FLAG IEEE_DENORMAL
Note: The following floating-point exceptions are signalling: IEEE_UNDERFLOW_FLAG IEEE_DENORMAL
Note: The following floating-point exceptions are signalling: IEEE_UNDERFLOW_FLAG IEEE_DENORMAL
Note: The following floating-point exceptions are signalling: IEEE_UNDERFLOW_FLAG IEEE_DENORMAL
Note: The following floating-point exceptions are signalling: IEEE_UNDERFLOW_FLAG IEEE_DENORMAL
Note: The following floating-point exceptions are signalling: IEEE_UNDERFLOW_FLAG IEEE_DENORMAL
Note: The following floating-point exceptions are signalling: IEEE_UNDERFLOW_FLAG IEEE_DENORMAL
Note: The following floating-point exceptions are signalling: IEEE_UNDERFLOW_FLAG IEEE_DENORMAL
Note: The following floating-point exceptions are signalling: IEEE_UNDERFLOW_FLAG IEEE_DENORMAL
Note: The following floating-point exceptions are signalling: IEEE_UNDERFLOW_FLAG IEEE_DENORMAL
Note: The following floating-point exceptions are signalling: IEEE_UNDERFLOW_FLAG IEEE_DENORMAL
Note: The following floating-point exceptions are signalling: IEEE_UNDERFLOW_FLAG IEEE_DENORMAL
Note: The following floating-point exceptions are signalling: IEEE_UNDERFLOW_FLAG IEEE_DENORMAL
Note: The following floating-point exceptions are signalling: IEEE_UNDERFLOW_FLAG IEEE_DENORMAL
Note: The following floating-point exceptions are signalling: IEEE_UNDERFLOW_FLAG IEEE_DENORMAL
Note: The following floating-point exceptions are signalling: IEEE_UNDERFLOW_FLAG IEEE_DENORMAL
Note: The following floating-point exceptions are signalling: IEEE_UNDERFLOW_FLAG IEEE_DENORMAL
Note: The following floating-point exceptions are signalling: IEEE_UNDERFLOW_FLAG IEEE_DENORMAL
Note: The following floating-point exceptions are signalling: IEEE_UNDERFLOW_FLAG IEEE_DENORMAL