     Program PWSCF v.7.0 starts on 29Aug2025 at 15:44:36

     K-points division:     npool     =       8
     R & G space division:  proc/nbgrp/npool/nimage =       4

     Reading input from /home/jvc/QEspresso7.2/ZnO_database/scripts/cell212.in/ZnO-3.53-1.61-212.in
Warning: card &CELL ignored
Warning: card / ignored
Warning: card &FCP ignored
Warning: card / ignored
Warning: card &RISM ignored
Warning: card / ignored

     Current dimensions of program PWSCF are:
     Max number of different atomic species (ntypx) = 10
     Max number of k-points (npk) =  40000
     Max angular momentum in pseudopotentials (lmaxx) =  4
     file Zn.upf: wavefunction(s)  3D renormalized
     Found identity + (  0.0000  0.0000  0.5000) symmetry
     This is a supercell, fractional translations are disabled
     Message from routine setup:
     using ibrav=0 with symmetry is DISCOURAGED, use correct ibrav instead

     Using Slab Decomposition

     bravais-lattice index     =            0
     lattice parameter (alat)  =      13.3463  a.u.
     unit-cell volume          =    1661.8263 (a.u.)^3
     number of atoms/cell      =           16
     number of atomic types    =            2
     number of electrons       =       144.00
     number of Kohn-Sham states=           72
     kinetic-energy cutoff     =      50.0000  Ry
     charge density cutoff     =     400.0000  Ry
     scf convergence threshold =      1.0E-08
     mixing beta               =       0.3000
     number of iterations used =            8  plain     mixing
     Exchange-correlation= PBE
                           (   1   4   3   4   0   0   0)

     celldm(1)=  13.346325  celldm(2)=   0.000000  celldm(3)=   0.000000
     celldm(4)=   0.000000  celldm(5)=   0.000000  celldm(6)=   0.000000

     crystal axes: (cart. coord. in units of alat)
               a(1) = (   1.000000   0.000000   0.000000 )
               a(2) = (  -0.250000   0.433013   0.000000 )
               a(3) = (   0.000000   0.000000   1.614358 )

     reciprocal axes: (cart. coord. in units 2 pi/alat)
               b(1) = (  1.000000  0.577350 -0.000000 )
               b(2) = (  0.000000  2.309401  0.000000 )
               b(3) = (  0.000000 -0.000000  0.619441 )

     PseudoPot. # 1 for Zn read from file:
     /home/jvc/QEspresso7.2/ZnO_database/pseudos/Zn.upf
     MD5 check sum: 7f56cabf9682ed8c977c2f7d0c5985c5
     Pseudo is Ultrasoft + core correction, Zval = 12.0
     Generated using &quot;atomic&quot; code by A. Dal Corso  v.6.2.2
     Using radial grid of 1201 points,  6 beta functions with:
                l(1) =   0
                l(2) =   0
                l(3) =   1
                l(4) =   1
                l(5) =   2
                l(6) =   2
     Q(r) pseudized with 0 coefficients

     PseudoPot. # 2 for O  read from file:
     /home/jvc/QEspresso7.2/ZnO_database/pseudos/O.upf
     MD5 check sum: 91400c9766925bcf19f520983a725ff0
     Pseudo is Ultrasoft + core correction, Zval =  6.0
     Generated using &quot;atomic&quot; code by A. Dal Corso  v.6.3MaX
     Using radial grid of 1095 points,  4 beta functions with:
                l(1) =   0
                l(2) =   0
                l(3) =   1
                l(4) =   1
     Q(r) pseudized with 0 coefficients

     atomic species   valence    mass     pseudopotential
        Zn            12.00    65.38000     Zn( 1.00)
        O              6.00    15.99900     O ( 1.00)

      2 Sym. Ops. (no inversion) found

                                    s                        frac. trans.

      isym =  1     identity

 cryst.   s( 1) = (     1          0          0      )
                  (     0          1          0      )
                  (     0          0          1      )

 cart.    s( 1) = (  1.0000000  0.0000000  0.0000000 )
                  (  0.0000000  1.0000000  0.0000000 )
                  (  0.0000000  0.0000000  1.0000000 )

      isym =  2     inv. 180 deg rotation - cryst. axis [0,1,0]

 cryst.   s( 2) = (     1          2          0      )
                  (     0         -1          0      )
                  (     0          0          1      )

 cart.    s( 2) = (  0.5000000  0.8660254  0.0000000 )
                  (  0.8660254 -0.5000000  0.0000000 )
                  (  0.0000000  0.0000000  1.0000000 )

   Cartesian axes

     site n.     atom                  positions (alat units)
         1           Zn  tau(   1) = (   0.2500000   0.1443376   0.4041010  )
         2           Zn  tau(   2) = (  -0.0000000   0.2886751   0.0005114  )
         3           O   tau(   3) = (   0.2500000   0.1443376   0.7100565  )
         4           O   tau(   4) = (  -0.0000000   0.2886751   0.3064669  )
         5           Zn  tau(   5) = (   0.2500000   0.1443376   1.2112802  )
         6           Zn  tau(   6) = (  -0.0000000   0.2886751   0.8076906  )
         7           O   tau(   7) = (   0.2500000   0.1443376   1.5172357  )
         8           O   tau(   8) = (  -0.0000000   0.2886751   1.1136461  )
         9           Zn  tau(   9) = (   0.7500000   0.1443376   0.4041010  )
        10           Zn  tau(  10) = (   0.5000000   0.2886751   0.0005114  )
        11           O   tau(  11) = (   0.7500000   0.1443376   0.7100565  )
        12           O   tau(  12) = (   0.5000000   0.2886751   0.3064669  )
        13           Zn  tau(  13) = (   0.7500000   0.1443376   1.2112802  )
        14           Zn  tau(  14) = (   0.5000000   0.2886751   0.8076906  )
        15           O   tau(  15) = (   0.7500000   0.1443376   1.5172357  )
        16           O   tau(  16) = (   0.5000000   0.2886751   1.1136461  )

   Crystallographic axes

     site n.     atom                  positions (cryst. coord.)
         1           Zn  tau(   1) = (  0.3333333  0.3333333  0.2503168  )
         2           Zn  tau(   2) = (  0.1666667  0.6666667  0.0003168  )
         3           O   tau(   3) = (  0.3333333  0.3333333  0.4398382  )
         4           O   tau(   4) = (  0.1666667  0.6666667  0.1898382  )
         5           Zn  tau(   5) = (  0.3333333  0.3333333  0.7503168  )
         6           Zn  tau(   6) = (  0.1666667  0.6666667  0.5003168  )
         7           O   tau(   7) = (  0.3333333  0.3333333  0.9398382  )
         8           O   tau(   8) = (  0.1666667  0.6666667  0.6898382  )
         9           Zn  tau(   9) = (  0.8333333  0.3333333  0.2503168  )
        10           Zn  tau(  10) = (  0.6666667  0.6666667  0.0003168  )
        11           O   tau(  11) = (  0.8333333  0.3333333  0.4398382  )
        12           O   tau(  12) = (  0.6666667  0.6666667  0.1898382  )
        13           Zn  tau(  13) = (  0.8333333  0.3333333  0.7503168  )
        14           Zn  tau(  14) = (  0.6666667  0.6666667  0.5003168  )
        15           O   tau(  15) = (  0.8333333  0.3333333  0.9398382  )
        16           O   tau(  16) = (  0.6666667  0.6666667  0.6898382  )

     number of k points=    80
                       cart. coord. in units 2pi/alat
        k(    1) = (   0.0000000   0.0000000   0.0000000), wk =   0.0092593
        k(    2) = (   0.0000000   0.0000000   0.1032402), wk =   0.0185185
        k(    3) = (   0.0000000   0.0000000   0.2064804), wk =   0.0185185
        k(    4) = (   0.0000000   0.0000000  -0.3097206), wk =   0.0092593
        k(    5) = (   0.0000000   0.3849002   0.0000000), wk =   0.0370370
        k(    6) = (   0.0000000   0.3849002   0.1032402), wk =   0.0370370
        k(    7) = (   0.0000000   0.3849002   0.2064804), wk =   0.0370370
        k(    8) = (   0.0000000   0.3849002  -0.3097206), wk =   0.0370370
        k(    9) = (   0.0000000   0.7698004   0.0000000), wk =   0.0370370
        k(   10) = (   0.0000000   0.7698004   0.1032402), wk =   0.0370370
        k(   11) = (   0.0000000   0.7698004   0.2064804), wk =   0.0370370
        k(   12) = (   0.0000000   0.7698004  -0.3097206), wk =   0.0370370
        k(   13) = (   0.0000000  -1.1547005   0.0000000), wk =   0.0092593
        k(   14) = (   0.0000000  -1.1547005   0.1032402), wk =   0.0185185
        k(   15) = (   0.0000000  -1.1547005   0.2064804), wk =   0.0185185
        k(   16) = (   0.0000000  -1.1547005  -0.3097206), wk =   0.0092593
        k(   17) = (   0.1666667   0.0962250   0.0000000), wk =   0.0185185
        k(   18) = (   0.1666667   0.0962250   0.1032402), wk =   0.0185185
        k(   19) = (   0.1666667   0.0962250   0.2064804), wk =   0.0185185
        k(   20) = (   0.1666667   0.0962250  -0.3097206), wk =   0.0185185
        k(   21) = (   0.1666667   0.4811252   0.0000000), wk =   0.0370370
        k(   22) = (   0.1666667   0.4811252   0.1032402), wk =   0.0370370
        k(   23) = (   0.1666667   0.4811252   0.2064804), wk =   0.0370370
        k(   24) = (   0.1666667   0.4811252  -0.3097206), wk =   0.0370370
        k(   25) = (   0.1666667   0.8660254   0.0000000), wk =   0.0185185
        k(   26) = (   0.1666667   0.8660254   0.1032402), wk =   0.0370370
        k(   27) = (   0.1666667   0.8660254   0.2064804), wk =   0.0370370
        k(   28) = (   0.1666667   0.8660254  -0.3097206), wk =   0.0185185
        k(   29) = (   0.1666667  -1.0584755   0.0000000), wk =   0.0185185
        k(   30) = (   0.1666667  -1.0584755   0.1032402), wk =   0.0185185
        k(   31) = (   0.1666667  -1.0584755   0.2064804), wk =   0.0185185
        k(   32) = (   0.1666667  -1.0584755  -0.3097206), wk =   0.0185185
        k(   33) = (   0.1666667  -0.6735753   0.0000000), wk =   0.0370370
        k(   34) = (   0.1666667  -0.6735753   0.1032402), wk =   0.0370370
        k(   35) = (   0.1666667  -0.6735753   0.2064804), wk =   0.0370370
        k(   36) = (   0.1666667  -0.6735753  -0.3097206), wk =   0.0370370
        k(   37) = (   0.1666667  -0.2886751   0.0000000), wk =   0.0185185
        k(   38) = (   0.1666667  -0.2886751   0.1032402), wk =   0.0370370
        k(   39) = (   0.1666667  -0.2886751   0.2064804), wk =   0.0370370
        k(   40) = (   0.1666667  -0.2886751  -0.3097206), wk =   0.0185185
        k(   41) = (   0.3333333   0.1924501   0.0000000), wk =   0.0185185
        k(   42) = (   0.3333333   0.1924501   0.1032402), wk =   0.0185185
        k(   43) = (   0.3333333   0.1924501   0.2064804), wk =   0.0185185
        k(   44) = (   0.3333333   0.1924501  -0.3097206), wk =   0.0185185
        k(   45) = (   0.3333333   0.5773503   0.0000000), wk =   0.0185185
        k(   46) = (   0.3333333   0.5773503   0.1032402), wk =   0.0370370
        k(   47) = (   0.3333333   0.5773503   0.2064804), wk =   0.0370370
        k(   48) = (   0.3333333   0.5773503  -0.3097206), wk =   0.0185185
        k(   49) = (   0.3333333  -0.9622504   0.0000000), wk =   0.0185185
        k(   50) = (   0.3333333  -0.9622504   0.1032402), wk =   0.0185185
        k(   51) = (   0.3333333  -0.9622504   0.2064804), wk =   0.0185185
        k(   52) = (   0.3333333  -0.9622504  -0.3097206), wk =   0.0185185
        k(   53) = (   0.3333333  -0.5773503   0.0000000), wk =   0.0185185
        k(   54) = (   0.3333333  -0.5773503   0.1032402), wk =   0.0370370
        k(   55) = (   0.3333333  -0.5773503   0.2064804), wk =   0.0370370
[...]

     starting charge     143.9702, renormalised to     144.0000
     Starting wfcs are  104 randomized atomic wfcs

     Self-consistent Calculation

     iteration #  1     ecut=    50.00 Ry     beta= 0.30
     Davidson diagonalization with overlap

     ethr =  1.00E-02,  avg # of iterations =  1.4

     total energy              =   -1445.53300795 Ry
     estimated scf accuracy    <       3.23152891 Ry

[...]

     c_bands:  1 eigenvalues not converged
     c_bands:  1 eigenvalues not converged
     ethr =  2.61E-06,  avg # of iterations = 14.8

[...]

     c_bands:  1 eigenvalues not converged
     c_bands:  1 eigenvalues not converged
     c_bands:  1 eigenvalues not converged
     c_bands:  1 eigenvalues not converged
     ethr =  4.08E-08,  avg # of iterations = 15.6

[...]

     total energy              =   -1446.30881289 Ry
     estimated scf accuracy    <       0.00000001 Ry

     iteration # 56     ecut=    50.00 Ry     beta= 0.30
     Davidson diagonalization with overlap

     ethr =  7.59E-12,  avg # of iterations =  1.0

     End of self-consistent calculation

          k = 0.0000 0.0000 0.0000 (  9917 PWs)   bands (ev):

   -12.4610 -12.2647 -12.2646 -12.0801 -12.0622 -12.0153 -12.0152 -11.9569
    -0.9618  -0.9618  -0.9468  -0.9357  -0.9355  -0.9190  -0.9165  -0.9165
    -0.8918  -0.8918  -0.8916  -0.8916  -0.8211  -0.8210  -0.7889  -0.6876
    -0.6486  -0.6486  -0.5663  -0.5211  -0.5211  -0.4874  -0.4246  -0.3748
    -0.3748  -0.3229  -0.3072  -0.3072  -0.3072  -0.3072  -0.2805  -0.2795
    -0.2674  -0.2674  -0.2616  -0.2616  -0.2365  -0.2081  -0.2081  -0.1923
     0.2568   0.6339   0.7145   0.7145   1.1573   1.8867   1.8867   1.8892
     2.4603   2.9410   2.9411   2.9962   2.9963   3.0533   3.3996   3.4135
     3.4140   3.6822   3.6823   3.6828   3.6829   3.9179   3.9442   3.9448

     occupation numbers
     1.0000   1.0000   1.0000   1.0000   1.0000   1.0000   1.0000   1.0000
     1.0000   1.0000   1.0000   1.0000   1.0000   1.0000   1.0000   1.0000
     1.0000   1.0000   1.0000   1.0000   1.0000   1.0000   1.0000   1.0000
     1.0000   1.0000   1.0000   1.0000   1.0000   1.0000   1.0000   1.0000
     1.0000   1.0000   1.0000   1.0000   1.0000   1.0000   1.0000   1.0000
     1.0000   1.0000   1.0000   1.0000   1.0000   1.0000   1.0000   1.0000
     1.0000   1.0000   1.0000   1.0000   1.0000   1.0000   1.0000   1.0000
     1.0000   1.0000   1.0000   1.0000   1.0000   1.0000   1.0000   1.0000
     1.0000   1.0000   1.0000   1.0000   1.0000   1.0000   1.0000   1.0000

[...]

          k =-0.5000-0.2887 0.0000 (  9970 PWs)   bands (ev):

[...]

          k = 0.3333 0.1925-0.2065 (  9965 PWs)   bands (ev):

[...]

          k =-0.6667 0.7698-0.2065 (  9884 PWs)   bands (ev):

   -12.0741 -12.0740 -12.0490 -12.0489 -11.9847 -11.9847 -11.9628 -11.9628
    -0.9114  -0.9114  -0.9087  -0.9087  -0.8268  -0.8268  -0.7908  -0.7908
    -0.7317  -0.7317  -0.6868  -0.6868  -0.5951  -0.5951  -0.5760  -0.5760
    -0.5656  -0.5656  -0.5462  -0.5462  -0.5044  -0.5044  -0.4884  -0.4884
    -0.3587  -0.3587  -0.3214  -0.3214  -0.3032  -0.3032  -0.2901  -0.2901
    -0.2217  -0.2217  -0.2108  -0.2108  -0.1447  -0.1447  -0.1151  -0.1151
     0.7962   0.7962   0.8098   0.8098   1.0458   1.0458   1.1809   1.1809
     1.9965   1.9965   2.2329   2.2329   2.3165   2.3165   2.6888   2.6888
     2.8452   2.8452   3.0275   3.0275   3.1751   3.1752   3.2384   3.2384

     occupation numbers
     1.0000   1.0000   1.0000   1.0000   1.0000   1.0000   1.0000   1.0000
     1.0000   1.0000   1.0000   1.0000   1.0000   1.0000   1.0000   1.0000
     1.0000   1.0000   1.0000   1.0000   1.0000   1.0000   1.0000   1.0000
     1.0000   1.0000   1.0000   1.0000   1.0000   1.0000   1.0000   1.0000
     1.0000   1.0000   1.0000   1.0000   1.0000   1.0000   1.0000   1.0000
     1.0000   1.0000   1.0000   1.0000   1.0000   1.0000   1.0000   1.0000
     1.0000   1.0000   1.0000   1.0000   1.0000   1.0000   1.0000   1.0000
     1.0000   1.0000   1.0000   1.0000   1.0000   1.0000   1.0000   1.0000
     1.0000   1.0000   1.0000   1.0000   1.0000   1.0000   1.0000   1.0000

     highest occupied level (ev):     3.9448

!    total energy              =   -1446.30881288 Ry
     estimated scf accuracy    <          8.0E-09 Ry

     The total energy is the sum of the following terms:
     one-electron contribution =    -720.86287049 Ry
     hartree contribution      =     510.53295025 Ry
     xc contribution           =    -436.52107834 Ry
     ewald contribution        =    -799.45781430 Ry

     convergence has been achieved in  56 iterations

     Forces acting on atoms (cartesian axes, Ry/au):

     atom    1 type  1   force =     0.00000186    0.00000107   -0.00009902
     atom    2 type  1   force =     0.00001336    0.00000771   -0.00012490
     atom    3 type  2   force =    -0.00000419   -0.00000242    0.00011406
     atom    4 type  2   force =     0.00000495    0.00000286    0.00011240
     atom    5 type  1   force =    -0.00000862   -0.00000498   -0.00013079
     atom    6 type  1   force =     0.00001852    0.00001069   -0.00008571
     atom    7 type  2   force =    -0.00000458   -0.00000265    0.00011118
     atom    8 type  2   force =     0.00000529    0.00000306    0.00010806
     atom    9 type  1   force =    -0.00000841   -0.00000486   -0.00010848
     atom   10 type  1   force =    -0.00000766   -0.00000442   -0.00011936
     atom   11 type  2   force =    -0.00000642   -0.00000370    0.00011212
     atom   12 type  2   force =     0.00000562    0.00000324    0.00011257
     atom   13 type  1   force =     0.00000268    0.00000154   -0.00013172
     atom   14 type  1   force =    -0.00001202   -0.00000694   -0.00008965
     atom   15 type  2   force =    -0.00000585   -0.00000338    0.00011111
     atom   16 type  2   force =     0.00000548    0.00000316    0.00010813
     The non-local contrib.  to forces
     atom    1 type  1   force =     0.00001092    0.00000630   -0.00453009
     atom    2 type  1   force =    -0.00000259   -0.00000149   -0.00454585
     atom    3 type  2   force =    -0.00019325   -0.00011157    0.00640605
     atom    4 type  2   force =     0.00019030    0.00010987    0.00640937
     atom    5 type  1   force =     0.00000628    0.00000363   -0.00454484
     atom    6 type  1   force =    -0.00000133   -0.00000077   -0.00452142
     atom    7 type  2   force =    -0.00019318   -0.00011153    0.00641972
     atom    8 type  2   force =     0.00019195    0.00011082    0.00641200
     atom    9 type  1   force =     0.00000449    0.00000259   -0.00453233
     atom   10 type  1   force =    -0.00001275   -0.00000736   -0.00454298
     atom   11 type  2   force =    -0.00019557   -0.00011291    0.00640388
     atom   12 type  2   force =     0.00019933    0.00011508    0.00641000
     atom   13 type  1   force =     0.00000925    0.00000534   -0.00454423
     atom   14 type  1   force =    -0.00001410   -0.00000814   -0.00452264
     atom   15 type  2   force =    -0.00019563   -0.00011295    0.00641872
     atom   16 type  2   force =     0.00019799    0.00011431    0.00641249
     The ionic contribution  to forces
     atom    1 type  1   force =    -0.00000000    0.00000000    0.05376956
     atom    2 type  1   force =     0.00000000   -0.00000000    0.05376956
     atom    3 type  2   force =    -0.00000000    0.00000000   -0.05376956
     atom    4 type  2   force =     0.00000000   -0.00000000   -0.05376956
     atom    5 type  1   force =    -0.00000000    0.00000000    0.05376956
     atom    6 type  1   force =     0.00000000   -0.00000000    0.05376956
     atom    7 type  2   force =    -0.00000000    0.00000000   -0.05376956
     atom    8 type  2   force =     0.00000000   -0.00000000   -0.05376956
     atom    9 type  1   force =    -0.00000000    0.00000000    0.05376956
     atom   10 type  1   force =     0.00000000   -0.00000000    0.05376956
     atom   11 type  2   force =    -0.00000000    0.00000000   -0.05376956
     atom   12 type  2   force =     0.00000000   -0.00000000   -0.05376956
     atom   13 type  1   force =    -0.00000000    0.00000000    0.05376956
     atom   14 type  1   force =     0.00000000   -0.00000000    0.05376956
     atom   15 type  2   force =    -0.00000000    0.00000000   -0.05376956
     atom   16 type  2   force =     0.00000000   -0.00000000   -0.05376956
     The local contribution  to forces
     atom    1 type  1   force =    -0.00001239   -0.00000715   -0.04964421
     atom    2 type  1   force =    -0.00001105   -0.00000649   -0.04960202
     atom    3 type  2   force =     0.00018251    0.00010537    0.04752990
     atom    4 type  2   force =    -0.00019108   -0.00011035    0.04753726
     atom    5 type  1   force =     0.00000297    0.00000171   -0.04959557
     atom    6 type  1   force =    -0.00001806   -0.00001053   -0.04966228
     atom    7 type  2   force =     0.00018471    0.00010664    0.04754631
     atom    8 type  2   force =    -0.00018798   -0.00010856    0.04755011
     atom    9 type  1   force =     0.00000220    0.00000127   -0.04962842
     atom   10 type  1   force =     0.00002145    0.00001227   -0.04961042
     atom   11 type  2   force =     0.00019230    0.00011102    0.04753021
     atom   12 type  2   force =    -0.00018349   -0.00010597    0.04753703
     atom   13 type  1   force =    -0.00001369   -0.00000790   -0.04959304
     atom   14 type  1   force =     0.00002832    0.00001624   -0.04965738
     atom   15 type  2   force =     0.00018945    0.00010938    0.04755021
     atom   16 type  2   force =    -0.00018687   -0.00010792    0.04755344
     The core correction contribution to forces
     atom    1 type  1   force =    -0.00000567   -0.00000328    0.00027858
     atom    2 type  1   force =     0.00000591    0.00000340    0.00027812
     atom    3 type  2   force =     0.00000217    0.00000126   -0.00007274
     atom    4 type  2   force =    -0.00000215   -0.00000124   -0.00007278
     atom    5 type  1   force =    -0.00000590   -0.00000341    0.00027766
     atom    6 type  1   force =     0.00000614    0.00000353    0.00027843
     atom    7 type  2   force =     0.00000218    0.00000126   -0.00007291
     atom    8 type  2   force =    -0.00000216   -0.00000125   -0.00007280
     atom    9 type  1   force =    -0.00000563   -0.00000325    0.00027798
     atom   10 type  1   force =     0.00000540    0.00000310    0.00027822
     atom   11 type  2   force =     0.00000222    0.00000128   -0.00007271
     atom   12 type  2   force =    -0.00000225   -0.00000130   -0.00007279
     atom   13 type  1   force =    -0.00000541   -0.00000312    0.00027743
     atom   14 type  1   force =     0.00000517    0.00000297    0.00027834
     atom   15 type  2   force =     0.00000221    0.00000128   -0.00007289
     atom   16 type  2   force =    -0.00000224   -0.00000129   -0.00007280
     The Hubbard contrib.    to forces
     atom    1 type  1   force =     0.00000000    0.00000000    0.00000000
     atom    2 type  1   force =     0.00000000    0.00000000    0.00000000
     atom    3 type  2   force =     0.00000000    0.00000000    0.00000000
     atom    4 type  2   force =     0.00000000    0.00000000    0.00000000
     atom    5 type  1   force =     0.00000000    0.00000000    0.00000000
     atom    6 type  1   force =     0.00000000    0.00000000    0.00000000
     atom    7 type  2   force =     0.00000000    0.00000000    0.00000000
     atom    8 type  2   force =     0.00000000    0.00000000    0.00000000
     atom    9 type  1   force =     0.00000000    0.00000000    0.00000000
     atom   10 type  1   force =     0.00000000    0.00000000    0.00000000
     atom   11 type  2   force =     0.00000000    0.00000000    0.00000000
     atom   12 type  2   force =     0.00000000    0.00000000    0.00000000
     atom   13 type  1   force =     0.00000000    0.00000000    0.00000000
     atom   14 type  1   force =     0.00000000    0.00000000    0.00000000
     atom   15 type  2   force =     0.00000000    0.00000000    0.00000000
     atom   16 type  2   force =     0.00000000    0.00000000    0.00000000
     The SCF correction term to forces
     atom    1 type  1   force =     0.00000915    0.00000528    0.00002670
     atom    2 type  1   force =     0.00002128    0.00001229   -0.00002516
     atom    3 type  2   force =     0.00000452    0.00000261    0.00001997
     atom    4 type  2   force =     0.00000805    0.00000465    0.00000767
     atom    5 type  1   force =    -0.00001181   -0.00000682   -0.00003806
     atom    6 type  1   force =     0.00003198    0.00001846    0.00004955
     atom    7 type  2   force =     0.00000186    0.00000107   -0.00001283
     atom    8 type  2   force =     0.00000366    0.00000211   -0.00001213
     atom    9 type  1   force =    -0.00000932   -0.00000538    0.00000428
     atom   10 type  1   force =    -0.00002156   -0.00001245   -0.00001419
     atom   11 type  2   force =    -0.00000521   -0.00000301    0.00001986
     atom   12 type  2   force =    -0.00000781   -0.00000451    0.00000744
     atom   13 type  1   force =     0.00001268    0.00000732   -0.00004189
     atom   14 type  1   force =    -0.00003121   -0.00001802    0.00004202
     atom   15 type  2   force =    -0.00000173   -0.00000100   -0.00001582
     atom   16 type  2   force =    -0.00000324   -0.00000187   -0.00001589

     Total force =     0.000449     Total SCF correction =     0.000124
     SCF correction compared to forces is large: reduce conv_thr to get better values

     General routines

     Parallel routines

   This run was terminated on:  16:12:16  29Aug2025

   JOB DONE.
Note: The following floating-point exceptions are signalling: IEEE_UNDERFLOW_FLAG IEEE_DENORMAL
Note: The following floating-point exceptions are signalling: IEEE_UNDERFLOW_FLAG IEEE_DENORMAL
Note: The following floating-point exceptions are signalling: IEEE_UNDERFLOW_FLAG IEEE_DENORMAL
Note: The following floating-point exceptions are signalling: IEEE_UNDERFLOW_FLAG IEEE_DENORMAL
Note: The following floating-point exceptions are signalling: IEEE_UNDERFLOW_FLAG IEEE_DENORMAL
Note: The following floating-point exceptions are signalling: IEEE_UNDERFLOW_FLAG IEEE_DENORMAL
Note: The following floating-point exceptions are signalling: IEEE_UNDERFLOW_FLAG IEEE_DENORMAL
Note: The following floating-point exceptions are signalling: IEEE_UNDERFLOW_FLAG IEEE_DENORMAL
Note: The following floating-point exceptions are signalling: IEEE_UNDERFLOW_FLAG IEEE_DENORMAL
Note: The following floating-point exceptions are signalling: IEEE_UNDERFLOW_FLAG IEEE_DENORMAL
Note: The following floating-point exceptions are signalling: IEEE_UNDERFLOW_FLAG IEEE_DENORMAL
Note: The following floating-point exceptions are signalling: IEEE_UNDERFLOW_FLAG IEEE_DENORMAL
Note: The following floating-point exceptions are signalling: IEEE_UNDERFLOW_FLAG IEEE_DENORMAL
Note: The following floating-point exceptions are signalling: IEEE_UNDERFLOW_FLAG IEEE_DENORMAL
Note: The following floating-point exceptions are signalling: IEEE_UNDERFLOW_FLAG IEEE_DENORMAL
Note: The following floating-point exceptions are signalling: IEEE_UNDERFLOW_FLAG IEEE_DENORMAL
Note: The following floating-point exceptions are signalling: IEEE_UNDERFLOW_FLAG IEEE_DENORMAL
Note: The following floating-point exceptions are signalling: IEEE_UNDERFLOW_FLAG IEEE_DENORMAL
Note: The following floating-point exceptions are signalling: IEEE_UNDERFLOW_FLAG IEEE_DENORMAL
Note: The following floating-point exceptions are signalling: IEEE_UNDERFLOW_FLAG IEEE_DENORMAL
Note: The following floating-point exceptions are signalling: IEEE_UNDERFLOW_FLAG IEEE_DENORMAL
Note: The following floating-point exceptions are signalling: IEEE_UNDERFLOW_FLAG IEEE_DENORMAL
Note: The following floating-point exceptions are signalling: IEEE_UNDERFLOW_FLAG IEEE_DENORMAL
Note: The following floating-point exceptions are signalling: IEEE_UNDERFLOW_FLAG IEEE_DENORMAL
Note: The following floating-point exceptions are signalling: IEEE_UNDERFLOW_FLAG IEEE_DENORMAL
Note: The following floating-point exceptions are signalling: IEEE_UNDERFLOW_FLAG IEEE_DENORMAL
Note: The following floating-point exceptions are signalling: IEEE_UNDERFLOW_FLAG IEEE_DENORMAL
Note: The following floating-point exceptions are signalling: IEEE_UNDERFLOW_FLAG IEEE_DENORMAL
Note: The following floating-point exceptions are signalling: IEEE_UNDERFLOW_FLAG IEEE_DENORMAL
Note: The following floating-point exceptions are signalling: IEEE_UNDERFLOW_FLAG IEEE_DENORMAL
Note: The following floating-point exceptions are signalling: IEEE_UNDERFLOW_FLAG IEEE_DENORMAL
Note: The following floating-point exceptions are signalling: IEEE_UNDERFLOW_FLAG IEEE_DENORMAL