     Program PWSCF v.7.0 starts on 28Aug2025 at 23:57: 2

     K-points division:     npool     =       8
     R & G space division:  proc/nbgrp/npool/nimage =       4

     Reading input from /home/jvc/QEspresso7.2/ZnO_database/scripts/cell212.in/ZnO-3.14-1.61-212.in
Warning: card &CELL ignored
Warning: card / ignored
Warning: card &FCP ignored
Warning: card / ignored
Warning: card &RISM ignored
Warning: card / ignored

     Current dimensions of program PWSCF are:
     Max number of different atomic species (ntypx) = 10
     Max number of k-points (npk) =  40000
     Max angular momentum in pseudopotentials (lmaxx) =  4
     file Zn.upf: wavefunction(s)  3D renormalized
     Found identity + (  0.0000  0.0000 -0.5000) symmetry
     This is a supercell, fractional translations are disabled
     Message from routine setup:
     using ibrav=0 with symmetry is DISCOURAGED, use correct ibrav instead

     Using Slab Decomposition

     bravais-lattice index     =            0
     lattice parameter (alat)  =      11.8634  a.u.
     unit-cell volume          =    1167.1537 (a.u.)^3
     number of atoms/cell      =           16
     number of atomic types    =            2
     number of electrons       =       144.00
     number of Kohn-Sham states=           72
     kinetic-energy cutoff     =      50.0000  Ry
     charge density cutoff     =     400.0000  Ry
     scf convergence threshold =      1.0E-08
     mixing beta               =       0.3000
     number of iterations used =            8  plain     mixing
     Exchange-correlation= PBE
                           (   1   4   3   4   0   0   0)

     celldm(1)=  11.863400  celldm(2)=   0.000000  celldm(3)=   0.000000
     celldm(4)=   0.000000  celldm(5)=   0.000000  celldm(6)=   0.000000

     crystal axes: (cart. coord. in units of alat)
               a(1) = (   1.000000   0.000000   0.000000 )
               a(2) = (  -0.250000   0.433013   0.000000 )
               a(3) = (   0.000000   0.000000   1.614358 )

     reciprocal axes: (cart. coord. in units 2 pi/alat)
               b(1) = (  1.000000  0.577350 -0.000000 )
               b(2) = (  0.000000  2.309401  0.000000 )
               b(3) = (  0.000000 -0.000000  0.619441 )

     PseudoPot. # 1 for Zn read from file:
     /home/jvc/QEspresso7.2/ZnO_database/pseudos/Zn.upf
     MD5 check sum: 7f56cabf9682ed8c977c2f7d0c5985c5
     Pseudo is Ultrasoft + core correction, Zval = 12.0
     Generated using &quot;atomic&quot; code by A. Dal Corso  v.6.2.2
     Using radial grid of 1201 points,  6 beta functions with:
                l(1) =   0
                l(2) =   0
                l(3) =   1
                l(4) =   1
                l(5) =   2
                l(6) =   2
     Q(r) pseudized with 0 coefficients

     PseudoPot. # 2 for O  read from file:
     /home/jvc/QEspresso7.2/ZnO_database/pseudos/O.upf
     MD5 check sum: 91400c9766925bcf19f520983a725ff0
     Pseudo is Ultrasoft + core correction, Zval =  6.0
     Generated using &quot;atomic&quot; code by A. Dal Corso  v.6.3MaX
     Using radial grid of 1095 points,  4 beta functions with:
                l(1) =   0
                l(2) =   0
                l(3) =   1
                l(4) =   1
     Q(r) pseudized with 0 coefficients

     atomic species   valence    mass     pseudopotential
        Zn            12.00    65.38000     Zn( 1.00)
        O              6.00    15.99900     O ( 1.00)

      2 Sym. Ops. (no inversion) found

                                    s                        frac. trans.

      isym =  1     identity

 cryst.   s( 1) = (     1          0          0      )
                  (     0          1          0      )
                  (     0          0          1      )

 cart.    s( 1) = (  1.0000000  0.0000000  0.0000000 )
                  (  0.0000000  1.0000000  0.0000000 )
                  (  0.0000000  0.0000000  1.0000000 )

      isym =  2     inv. 180 deg rotation - cryst. axis [0,1,0]

 cryst.   s( 2) = (     1          2          0      )
                  (     0         -1          0      )
                  (     0          0          1      )

 cart.    s( 2) = (  0.5000000  0.8660254  0.0000000 )
                  (  0.8660254 -0.5000000  0.0000000 )
                  (  0.0000000  0.0000000  1.0000000 )

   Cartesian axes

     site n.     atom                  positions (alat units)
         1           Zn  tau(   1) = (   0.2500000   0.1443376   0.4041010  )
         2           Zn  tau(   2) = (  -0.0000000   0.2886751   0.0005114  )
         3           O   tau(   3) = (   0.2500000   0.1443376   0.7100565  )
         4           O   tau(   4) = (  -0.0000000   0.2886751   0.3064669  )
         5           Zn  tau(   5) = (   0.2500000   0.1443376   1.2112802  )
         6           Zn  tau(   6) = (  -0.0000000   0.2886751   0.8076906  )
         7           O   tau(   7) = (   0.2500000   0.1443376   1.5172357  )
         8           O   tau(   8) = (  -0.0000000   0.2886751   1.1136461  )
         9           Zn  tau(   9) = (   0.7500000   0.1443376   0.4041010  )
        10           Zn  tau(  10) = (   0.5000000   0.2886751   0.0005114  )
        11           O   tau(  11) = (   0.7500000   0.1443376   0.7100565  )
        12           O   tau(  12) = (   0.5000000   0.2886751   0.3064669  )
        13           Zn  tau(  13) = (   0.7500000   0.1443376   1.2112802  )
        14           Zn  tau(  14) = (   0.5000000   0.2886751   0.8076906  )
        15           O   tau(  15) = (   0.7500000   0.1443376   1.5172357  )
        16           O   tau(  16) = (   0.5000000   0.2886751   1.1136461  )

   Crystallographic axes

     site n.     atom                  positions (cryst. coord.)
         1           Zn  tau(   1) = (  0.3333333  0.3333333  0.2503168  )
         2           Zn  tau(   2) = (  0.1666667  0.6666667  0.0003168  )
         3           O   tau(   3) = (  0.3333333  0.3333333  0.4398382  )
         4           O   tau(   4) = (  0.1666667  0.6666667  0.1898382  )
         5           Zn  tau(   5) = (  0.3333333  0.3333333  0.7503168  )
         6           Zn  tau(   6) = (  0.1666667  0.6666667  0.5003168  )
         7           O   tau(   7) = (  0.3333333  0.3333333  0.9398382  )
         8           O   tau(   8) = (  0.1666667  0.6666667  0.6898382  )
         9           Zn  tau(   9) = (  0.8333333  0.3333333  0.2503168  )
        10           Zn  tau(  10) = (  0.6666667  0.6666667  0.0003168  )
        11           O   tau(  11) = (  0.8333333  0.3333333  0.4398382  )
        12           O   tau(  12) = (  0.6666667  0.6666667  0.1898382  )
        13           Zn  tau(  13) = (  0.8333333  0.3333333  0.7503168  )
        14           Zn  tau(  14) = (  0.6666667  0.6666667  0.5003168  )
        15           O   tau(  15) = (  0.8333333  0.3333333  0.9398382  )
        16           O   tau(  16) = (  0.6666667  0.6666667  0.6898382  )

     number of k points=    80
                       cart. coord. in units 2pi/alat
        k(    1) = (   0.0000000   0.0000000   0.0000000), wk =   0.0092593
        k(    2) = (   0.0000000   0.0000000   0.1032402), wk =   0.0185185
        k(    3) = (   0.0000000   0.0000000   0.2064804), wk =   0.0185185
        k(    4) = (   0.0000000   0.0000000  -0.3097206), wk =   0.0092593
        k(    5) = (   0.0000000   0.3849002   0.0000000), wk =   0.0370370
        k(    6) = (   0.0000000   0.3849002   0.1032402), wk =   0.0370370
        k(    7) = (   0.0000000   0.3849002   0.2064804), wk =   0.0370370
        k(    8) = (   0.0000000   0.3849002  -0.3097206), wk =   0.0370370
        k(    9) = (   0.0000000   0.7698004   0.0000000), wk =   0.0370370
        k(   10) = (   0.0000000   0.7698004   0.1032402), wk =   0.0370370
        k(   11) = (   0.0000000   0.7698004   0.2064804), wk =   0.0370370
        k(   12) = (   0.0000000   0.7698004  -0.3097206), wk =   0.0370370
        k(   13) = (   0.0000000  -1.1547005   0.0000000), wk =   0.0092593
        k(   14) = (   0.0000000  -1.1547005   0.1032402), wk =   0.0185185
        k(   15) = (   0.0000000  -1.1547005   0.2064804), wk =   0.0185185
        k(   16) = (   0.0000000  -1.1547005  -0.3097206), wk =   0.0092593
        k(   17) = (   0.1666667   0.0962250   0.0000000), wk =   0.0185185
        k(   18) = (   0.1666667   0.0962250   0.1032402), wk =   0.0185185
        k(   19) = (   0.1666667   0.0962250   0.2064804), wk =   0.0185185
        k(   20) = (   0.1666667   0.0962250  -0.3097206), wk =   0.0185185
        k(   21) = (   0.1666667   0.4811252   0.0000000), wk =   0.0370370
        k(   22) = (   0.1666667   0.4811252   0.1032402), wk =   0.0370370
        k(   23) = (   0.1666667   0.4811252   0.2064804), wk =   0.0370370
        k(   24) = (   0.1666667   0.4811252  -0.3097206), wk =   0.0370370
        k(   25) = (   0.1666667   0.8660254   0.0000000), wk =   0.0185185
        k(   26) = (   0.1666667   0.8660254   0.1032402), wk =   0.0370370
        k(   27) = (   0.1666667   0.8660254   0.2064804), wk =   0.0370370
        k(   28) = (   0.1666667   0.8660254  -0.3097206), wk =   0.0185185
        k(   29) = (   0.1666667  -1.0584755   0.0000000), wk =   0.0185185
        k(   30) = (   0.1666667  -1.0584755   0.1032402), wk =   0.0185185
        k(   31) = (   0.1666667  -1.0584755   0.2064804), wk =   0.0185185
        k(   32) = (   0.1666667  -1.0584755  -0.3097206), wk =   0.0185185
        k(   33) = (   0.1666667  -0.6735753   0.0000000), wk =   0.0370370
        k(   34) = (   0.1666667  -0.6735753   0.1032402), wk =   0.0370370
        k(   35) = (   0.1666667  -0.6735753   0.2064804), wk =   0.0370370
        k(   36) = (   0.1666667  -0.6735753  -0.3097206), wk =   0.0370370
        k(   37) = (   0.1666667  -0.2886751   0.0000000), wk =   0.0185185
        k(   38) = (   0.1666667  -0.2886751   0.1032402), wk =   0.0370370
        k(   39) = (   0.1666667  -0.2886751   0.2064804), wk =   0.0370370
        k(   40) = (   0.1666667  -0.2886751  -0.3097206), wk =   0.0185185
        k(   41) = (   0.3333333   0.1924501   0.0000000), wk =   0.0185185
        k(   42) = (   0.3333333   0.1924501   0.1032402), wk =   0.0185185
        k(   43) = (   0.3333333   0.1924501   0.2064804), wk =   0.0185185
        k(   44) = (   0.3333333   0.1924501  -0.3097206), wk =   0.0185185
        k(   45) = (   0.3333333   0.5773503   0.0000000), wk =   0.0185185
        k(   46) = (   0.3333333   0.5773503   0.1032402), wk =   0.0370370
        k(   47) = (   0.3333333   0.5773503   0.2064804), wk =   0.0370370
        k(   48) = (   0.3333333   0.5773503  -0.3097206), wk =   0.0185185
        k(   49) = (   0.3333333  -0.9622504   0.0000000), wk =   0.0185185
        k(   50) = (   0.3333333  -0.9622504   0.1032402), wk =   0.0185185
        k(   51) = (   0.3333333  -0.9622504   0.2064804), wk =   0.0185185
        k(   52) = (   0.3333333  -0.9622504  -0.3097206), wk =   0.0185185
        k(   53) = (   0.3333333  -0.5773503   0.0000000), wk =   0.0185185
        k(   54) = (   0.3333333  -0.5773503   0.1032402), wk =   0.0370370
        k(   55) = (   0.3333333  -0.5773503   0.2064804), wk =   0.0370370
[...]
        k(   76) = (  -0.5000000   0.3333333  -0.3333333), wk =   0.0370370
        k(   77) = (   0.3333333   0.0000000  -0.1666667), wk =   0.0185185
        k(   78) = (   0.3333333   0.0000000  -0.3333333), wk =   0.0185185
        k(   79) = (  -0.6666667   0.5000000  -0.1666667), wk =   0.0185185
        k(   80) = (  -0.6666667   0.5000000  -0.3333333), wk =   0.0185185

     Check: negative core charge=   -0.000002

     Initial potential from superposition of free atoms

     starting charge     143.9702, renormalised to     144.0000
     Starting wfcs are  104 randomized atomic wfcs

     Self-consistent Calculation

     iteration #  1     ecut=    50.00 Ry     beta= 0.30
     Davidson diagonalization with overlap

     ethr =  1.00E-02,  avg # of iterations =  2.0

     total energy              =   -1445.85825662 Ry
     estimated scf accuracy    <       2.68853011 Ry

[...]

     total energy              =   -1446.43432745 Ry
     estimated scf accuracy    <       0.00000001 Ry

     iteration # 30     ecut=    50.00 Ry     beta= 0.30
     Davidson diagonalization with overlap

     ethr =  9.52E-12,  avg # of iterations =  7.7

     End of self-consistent calculation

          k = 0.0000 0.0000 0.0000 (  7001 PWs)   bands (ev):

   -10.1181  -9.6944  -9.6944  -9.2813  -9.2410  -9.1351  -9.1351  -9.0131
     1.9697   1.9697   2.2320   2.2581   2.2581   2.3490   2.3630   2.5853
     2.5855   2.6423   2.6683   2.6683   2.6685   2.6685   2.8110   2.8111
     2.8869   3.1519   3.1519   3.1784   3.1784   3.2140   3.3522   3.5194
     4.0870   4.0871   4.1146   4.2460   4.2460   4.2460   4.2460   4.3028
     4.3339   4.3339   4.3500   4.3500   4.4107   4.4265   4.4265   4.4961
     4.6639   4.8632   4.8632   4.9293   4.9795   5.7067   6.2280   6.4990
     6.4990   7.0972   7.0972   7.2524   7.2524   7.3674   7.8481   7.9086
     7.9089   8.3664   8.3664   8.3667   8.3667   8.6915   8.8167   8.8170

     occupation numbers
     1.0000   1.0000   1.0000   1.0000   1.0000   1.0000   1.0000   1.0000
     1.0000   1.0000   1.0000   1.0000   1.0000   1.0000   1.0000   1.0000
     1.0000   1.0000   1.0000   1.0000   1.0000   1.0000   1.0000   1.0000
     1.0000   1.0000   1.0000   1.0000   1.0000   1.0000   1.0000   1.0000
     1.0000   1.0000   1.0000   1.0000   1.0000   1.0000   1.0000   1.0000
     1.0000   1.0000   1.0000   1.0000   1.0000   1.0000   1.0000   1.0000
     1.0000   1.0000   1.0000   1.0000   1.0000   1.0000   1.0000   1.0000
     1.0000   1.0000   1.0000   1.0000   1.0000   1.0000   1.0000   1.0000
     1.0000   1.0000   1.0000   1.0000   1.0000   1.0000   1.0000   1.0000

[...]

          k =-0.5000-0.2887 0.0000 (  6992 PWs)   bands (ev):

[...]

          k = 0.3333 0.1925-0.2065 (  6961 PWs)   bands (ev):

[...]

          k =-0.6667 0.7698-0.2065 (  6964 PWs)   bands (ev):

    -9.2704  -9.2703  -9.2126  -9.2126  -9.0697  -9.0697  -9.0236  -9.0236
     2.1776   2.1776   2.2608   2.2608   2.2911   2.2911   2.4807   2.4807
     2.8450   2.8450   2.8691   2.8691   3.0090   3.0090   3.0588   3.0588
     3.2703   3.2703   3.3167   3.3167   3.3617   3.3617   3.4443   3.4443
     4.0544   4.0544   4.1622   4.1622   4.2277   4.2277   4.2701   4.2701
     4.4164   4.4164   4.4253   4.4253   4.5768   4.5768   4.6362   4.6362
     4.7334   4.7334   4.9163   4.9163   5.3067   5.3067   5.4051   5.4051
     5.7237   5.7238   6.1030   6.1030   6.2030   6.2030   6.6837   6.6837
     7.0726   7.0726   7.2973   7.2973   7.5409   7.5409   7.5687   7.5688

     occupation numbers
     1.0000   1.0000   1.0000   1.0000   1.0000   1.0000   1.0000   1.0000
     1.0000   1.0000   1.0000   1.0000   1.0000   1.0000   1.0000   1.0000
     1.0000   1.0000   1.0000   1.0000   1.0000   1.0000   1.0000   1.0000
     1.0000   1.0000   1.0000   1.0000   1.0000   1.0000   1.0000   1.0000
     1.0000   1.0000   1.0000   1.0000   1.0000   1.0000   1.0000   1.0000
     1.0000   1.0000   1.0000   1.0000   1.0000   1.0000   1.0000   1.0000
     1.0000   1.0000   1.0000   1.0000   1.0000   1.0000   1.0000   1.0000
     1.0000   1.0000   1.0000   1.0000   1.0000   1.0000   1.0000   1.0000
     1.0000   1.0000   1.0000   1.0000   1.0000   1.0000   1.0000   1.0000

     highest occupied level (ev):     8.8170

!    total energy              =   -1446.43432748 Ry
     estimated scf accuracy    <          8.5E-09 Ry

     The total energy is the sum of the following terms:
     one-electron contribution =    -560.92497005 Ry
     hartree contribution      =     453.13864232 Ry
     xc contribution           =    -439.25795866 Ry
     ewald contribution        =    -899.39004109 Ry

     convergence has been achieved in  30 iterations

     Forces acting on atoms (cartesian axes, Ry/au):

     atom    1 type  1   force =     0.00000942    0.00000544    0.00043674
     atom    2 type  1   force =    -0.00001222   -0.00000705    0.00044065
     atom    3 type  2   force =    -0.00000107   -0.00000062   -0.00044182
     atom    4 type  2   force =     0.00000176    0.00000101   -0.00044327
     atom    5 type  1   force =     0.00001016    0.00000587    0.00044392
     atom    6 type  1   force =    -0.00001180   -0.00000681    0.00044449
     atom    7 type  2   force =    -0.00000087   -0.00000050   -0.00044175
     atom    8 type  2   force =     0.00000173    0.00000100   -0.00044077
     atom    9 type  1   force =     0.00001023    0.00000591    0.00043966
     atom   10 type  1   force =    -0.00000941   -0.00000543    0.00043845
     atom   11 type  2   force =    -0.00000088   -0.00000051   -0.00044221
     atom   12 type  2   force =     0.00000164    0.00000094   -0.00044335
     atom   13 type  1   force =     0.00000946    0.00000546    0.00044802
     atom   14 type  1   force =    -0.00000857   -0.00000495    0.00044351
     atom   15 type  2   force =    -0.00000105   -0.00000061   -0.00044163
     atom   16 type  2   force =     0.00000147    0.00000085   -0.00044064
     The non-local contrib.  to forces
     atom    1 type  1   force =    -0.00002579   -0.00001489   -0.00536719
     atom    2 type  1   force =     0.00002512    0.00001450   -0.00536789
     atom    3 type  2   force =    -0.00016656   -0.00009616    0.00398735
     atom    4 type  2   force =     0.00016642    0.00009608    0.00398874
     atom    5 type  1   force =    -0.00002530   -0.00001461   -0.00535957
     atom    6 type  1   force =     0.00002499    0.00001443   -0.00535722
     atom    7 type  2   force =    -0.00016602   -0.00009585    0.00398936
     atom    8 type  2   force =     0.00016633    0.00009603    0.00398847
     atom    9 type  1   force =    -0.00002523   -0.00001456   -0.00536605
     atom   10 type  1   force =     0.00002629    0.00001518   -0.00536896
     atom   11 type  2   force =    -0.00016624   -0.00009598    0.00398630
     atom   12 type  2   force =     0.00016653    0.00009615    0.00398807
     atom   13 type  1   force =    -0.00002597   -0.00001500   -0.00535884
     atom   14 type  1   force =     0.00002628    0.00001518   -0.00535735
     atom   15 type  2   force =    -0.00016623   -0.00009597    0.00399063
     atom   16 type  2   force =     0.00016562    0.00009562    0.00398868
     The ionic contribution  to forces
     atom    1 type  1   force =     0.00000001    0.00000001    0.06805210
     atom    2 type  1   force =     0.00000002    0.00000001    0.06805211
     atom    3 type  2   force =     0.00000001    0.00000001   -0.06805210
     atom    4 type  2   force =     0.00000001    0.00000000   -0.06805211
     atom    5 type  1   force =     0.00000001    0.00000001    0.06805210
     atom    6 type  1   force =     0.00000002    0.00000001    0.06805211
     atom    7 type  2   force =     0.00000001    0.00000001   -0.06805210
     atom    8 type  2   force =     0.00000001    0.00000000   -0.06805211
     atom    9 type  1   force =    -0.00000002   -0.00000001    0.06805211
     atom   10 type  1   force =    -0.00000001   -0.00000001    0.06805210
     atom   11 type  2   force =    -0.00000001   -0.00000000   -0.06805211
     atom   12 type  2   force =    -0.00000001   -0.00000001   -0.06805210
     atom   13 type  1   force =    -0.00000002   -0.00000001    0.06805211
     atom   14 type  1   force =    -0.00000001   -0.00000001    0.06805210
     atom   15 type  2   force =    -0.00000001   -0.00000000   -0.06805211
     atom   16 type  2   force =    -0.00000001   -0.00000001   -0.06805210
     The local contribution  to forces
     atom    1 type  1   force =     0.00004218    0.00002435   -0.06288811
     atom    2 type  1   force =    -0.00003700   -0.00002145   -0.06290214
     atom    3 type  2   force =     0.00016234    0.00009373    0.06366475
     atom    4 type  2   force =    -0.00016417   -0.00009481    0.06366830
     atom    5 type  1   force =     0.00003973    0.00002294   -0.06290628
     atom    6 type  1   force =    -0.00003693   -0.00002142   -0.06289837
     atom    7 type  2   force =     0.00016357    0.00009444    0.06366522
     atom    8 type  2   force =    -0.00016400   -0.00009471    0.06366103
     atom    9 type  1   force =     0.00003853    0.00002234   -0.06289318
     atom   10 type  1   force =    -0.00004294   -0.00002479   -0.06289752
     atom   11 type  2   force =     0.00016396    0.00009469    0.06366430
     atom   12 type  2   force =    -0.00016334   -0.00009431    0.06366811
     atom   13 type  1   force =     0.00004135    0.00002397   -0.06291033
     atom   14 type  1   force =    -0.00004330   -0.00002500   -0.06289752
     atom   15 type  2   force =     0.00016250    0.00009384    0.06366338
     atom   16 type  2   force =    -0.00016294   -0.00009407    0.06366228
     The core correction contribution to forces
     atom    1 type  1   force =    -0.00000463   -0.00000274    0.00064994
     atom    2 type  1   force =     0.00000426    0.00000243    0.00065311
     atom    3 type  2   force =     0.00000189    0.00000110   -0.00004490
     atom    4 type  2   force =    -0.00000190   -0.00000110   -0.00004545
     atom    5 type  1   force =    -0.00000453   -0.00000268    0.00064989
     atom    6 type  1   force =     0.00000425    0.00000243    0.00064689
     atom    7 type  2   force =     0.00000189    0.00000110   -0.00004733
     atom    8 type  2   force =    -0.00000190   -0.00000110   -0.00004683
     atom    9 type  1   force =    -0.00000424   -0.00000242    0.00065013
     atom   10 type  1   force =     0.00000467    0.00000276    0.00065296
     atom   11 type  2   force =     0.00000190    0.00000109   -0.00004491
     atom   12 type  2   force =    -0.00000189   -0.00000110   -0.00004543
     atom   13 type  1   force =    -0.00000433   -0.00000247    0.00064997
     atom   14 type  1   force =     0.00000465    0.00000276    0.00064685
     atom   15 type  2   force =     0.00000190    0.00000109   -0.00004737
     atom   16 type  2   force =    -0.00000188   -0.00000110   -0.00004681
     The Hubbard contrib.    to forces
     atom    1 type  1   force =     0.00000000    0.00000000    0.00000000
     atom    2 type  1   force =     0.00000000    0.00000000    0.00000000
     atom    3 type  2   force =     0.00000000    0.00000000    0.00000000
     atom    4 type  2   force =     0.00000000    0.00000000    0.00000000
     atom    5 type  1   force =     0.00000000    0.00000000    0.00000000
     atom    6 type  1   force =     0.00000000    0.00000000    0.00000000
     atom    7 type  2   force =     0.00000000    0.00000000    0.00000000
     atom    8 type  2   force =     0.00000000    0.00000000    0.00000000
     atom    9 type  1   force =     0.00000000    0.00000000    0.00000000
     atom   10 type  1   force =     0.00000000    0.00000000    0.00000000
     atom   11 type  2   force =     0.00000000    0.00000000    0.00000000
     atom   12 type  2   force =     0.00000000    0.00000000    0.00000000
     atom   13 type  1   force =     0.00000000    0.00000000    0.00000000
     atom   14 type  1   force =     0.00000000    0.00000000    0.00000000
     atom   15 type  2   force =     0.00000000    0.00000000    0.00000000
     atom   16 type  2   force =     0.00000000    0.00000000    0.00000000
     The SCF correction term to forces
     atom    1 type  1   force =    -0.00000268   -0.00000155   -0.00000870
     atom    2 type  1   force =    -0.00000491   -0.00000284    0.00000678
     atom    3 type  2   force =     0.00000089    0.00000052    0.00000439
     atom    4 type  2   force =     0.00000105    0.00000061   -0.00000144
     atom    5 type  1   force =    -0.00000006   -0.00000004    0.00000910
     atom    6 type  1   force =    -0.00000442   -0.00000255    0.00000240
     atom    7 type  2   force =    -0.00000067   -0.00000039    0.00000441
     atom    8 type  2   force =     0.00000095    0.00000055    0.00000998
     atom    9 type  1   force =     0.00000079    0.00000045   -0.00000203
     atom   10 type  1   force =     0.00000221    0.00000128    0.00000119
     atom   11 type  2   force =    -0.00000085   -0.00000049    0.00000551
     atom   12 type  2   force =     0.00000000    0.00000000   -0.00000068
     atom   13 type  1   force =    -0.00000197   -0.00000114    0.00001642
     atom   14 type  1   force =     0.00000343    0.00000198    0.00000072
     atom   15 type  2   force =     0.00000044    0.00000025    0.00000516
     atom   16 type  2   force =     0.00000033    0.00000019    0.00000862

     Total force =     0.001768     Total SCF correction =     0.000029

     General routines

     Parallel routines

   This run was terminated on:   0: 7:43  29Aug2025

   JOB DONE.
Note: The following floating-point exceptions are signalling: IEEE_UNDERFLOW_FLAG IEEE_DENORMAL
Note: The following floating-point exceptions are signalling: IEEE_UNDERFLOW_FLAG IEEE_DENORMAL
Note: The following floating-point exceptions are signalling: IEEE_UNDERFLOW_FLAG IEEE_DENORMAL
Note: The following floating-point exceptions are signalling: IEEE_UNDERFLOW_FLAG IEEE_DENORMAL
Note: The following floating-point exceptions are signalling: IEEE_UNDERFLOW_FLAG IEEE_DENORMAL
Note: The following floating-point exceptions are signalling: IEEE_UNDERFLOW_FLAG IEEE_DENORMAL
Note: The following floating-point exceptions are signalling: IEEE_UNDERFLOW_FLAG IEEE_DENORMAL
Note: The following floating-point exceptions are signalling: IEEE_UNDERFLOW_FLAG IEEE_DENORMAL
Note: The following floating-point exceptions are signalling: IEEE_UNDERFLOW_FLAG IEEE_DENORMAL
Note: The following floating-point exceptions are signalling: IEEE_UNDERFLOW_FLAG IEEE_DENORMAL
Note: The following floating-point exceptions are signalling: IEEE_UNDERFLOW_FLAG IEEE_DENORMAL
Note: The following floating-point exceptions are signalling: IEEE_UNDERFLOW_FLAG IEEE_DENORMAL
Note: The following floating-point exceptions are signalling: IEEE_UNDERFLOW_FLAG IEEE_DENORMAL
Note: The following floating-point exceptions are signalling: IEEE_UNDERFLOW_FLAG IEEE_DENORMAL
Note: The following floating-point exceptions are signalling: IEEE_UNDERFLOW_FLAG IEEE_DENORMAL
Note: The following floating-point exceptions are signalling: IEEE_UNDERFLOW_FLAG IEEE_DENORMAL
Note: The following floating-point exceptions are signalling: IEEE_UNDERFLOW_FLAG IEEE_DENORMAL
Note: The following floating-point exceptions are signalling: IEEE_UNDERFLOW_FLAG IEEE_DENORMAL
Note: The following floating-point exceptions are signalling: IEEE_UNDERFLOW_FLAG IEEE_DENORMAL
Note: The following floating-point exceptions are signalling: IEEE_UNDERFLOW_FLAG IEEE_DENORMAL
Note: The following floating-point exceptions are signalling: IEEE_UNDERFLOW_FLAG IEEE_DENORMAL
Note: The following floating-point exceptions are signalling: IEEE_UNDERFLOW_FLAG IEEE_DENORMAL
Note: The following floating-point exceptions are signalling: IEEE_UNDERFLOW_FLAG IEEE_DENORMAL
Note: The following floating-point exceptions are signalling: IEEE_UNDERFLOW_FLAG IEEE_DENORMAL
Note: The following floating-point exceptions are signalling: IEEE_UNDERFLOW_FLAG IEEE_DENORMAL
Note: The following floating-point exceptions are signalling: IEEE_UNDERFLOW_FLAG IEEE_DENORMAL
Note: The following floating-point exceptions are signalling: IEEE_UNDERFLOW_FLAG IEEE_DENORMAL
Note: The following floating-point exceptions are signalling: IEEE_UNDERFLOW_FLAG IEEE_DENORMAL
Note: The following floating-point exceptions are signalling: IEEE_UNDERFLOW_FLAG IEEE_DENORMAL
Note: The following floating-point exceptions are signalling: IEEE_UNDERFLOW_FLAG IEEE_DENORMAL
Note: The following floating-point exceptions are signalling: IEEE_UNDERFLOW_FLAG IEEE_DENORMAL
Note: The following floating-point exceptions are signalling: IEEE_UNDERFLOW_FLAG IEEE_DENORMAL