     Program PWSCF v.7.0 starts on 29Aug2025 at  1:10: 1

     K-points division:     npool     =       8
     R & G space division:  proc/nbgrp/npool/nimage =       4

     Reading input from /home/jvc/QEspresso7.2/ZnO_database/scripts/cell212.in/ZnO-3.20-1.45-212.in
Warning: card &CELL ignored
Warning: card / ignored
Warning: card &FCP ignored
Warning: card / ignored
Warning: card &RISM ignored
Warning: card / ignored

     Current dimensions of program PWSCF are:
     Max number of different atomic species (ntypx) = 10
     Max number of k-points (npk) =  40000
     Max angular momentum in pseudopotentials (lmaxx) =  4
     file Zn.upf: wavefunction(s)  3D renormalized
     Found identity + (  0.0000  0.0000  0.5000) symmetry
     This is a supercell, fractional translations are disabled
     Message from routine setup:
     using ibrav=0 with symmetry is DISCOURAGED, use correct ibrav instead

     Using Slab Decomposition

     bravais-lattice index     =            0
     lattice parameter (alat)  =      12.1106  a.u.
     unit-cell volume          =    1117.4680 (a.u.)^3
     number of atoms/cell      =           16
     number of atomic types    =            2
     number of electrons       =       144.00
     number of Kohn-Sham states=           72
     kinetic-energy cutoff     =      50.0000  Ry
     charge density cutoff     =     400.0000  Ry
     scf convergence threshold =      1.0E-08
     mixing beta               =       0.3000
     number of iterations used =            8  plain     mixing
     Exchange-correlation= PBE
                           (   1   4   3   4   0   0   0)

     celldm(1)=  12.110554  celldm(2)=   0.000000  celldm(3)=   0.000000
     celldm(4)=   0.000000  celldm(5)=   0.000000  celldm(6)=   0.000000

     crystal axes: (cart. coord. in units of alat)
               a(1) = (   1.000000   0.000000   0.000000 )
               a(2) = (  -0.250000   0.433013   0.000000 )
               a(3) = (   0.000000   0.000000   1.452923 )

     reciprocal axes: (cart. coord. in units 2 pi/alat)
               b(1) = (  1.000000  0.577350 -0.000000 )
               b(2) = (  0.000000  2.309401  0.000000 )
               b(3) = (  0.000000 -0.000000  0.688268 )

     PseudoPot. # 1 for Zn read from file:
     /home/jvc/QEspresso7.2/ZnO_database/pseudos/Zn.upf
     MD5 check sum: 7f56cabf9682ed8c977c2f7d0c5985c5
     Pseudo is Ultrasoft + core correction, Zval = 12.0
     Generated using &quot;atomic&quot; code by A. Dal Corso  v.6.2.2
     Using radial grid of 1201 points,  6 beta functions with:
                l(1) =   0
                l(2) =   0
                l(3) =   1
                l(4) =   1
                l(5) =   2
                l(6) =   2
     Q(r) pseudized with 0 coefficients

     PseudoPot. # 2 for O  read from file:
     /home/jvc/QEspresso7.2/ZnO_database/pseudos/O.upf
     MD5 check sum: 91400c9766925bcf19f520983a725ff0
     Pseudo is Ultrasoft + core correction, Zval =  6.0
     Generated using &quot;atomic&quot; code by A. Dal Corso  v.6.3MaX
     Using radial grid of 1095 points,  4 beta functions with:
                l(1) =   0
                l(2) =   0
                l(3) =   1
                l(4) =   1
     Q(r) pseudized with 0 coefficients

     atomic species   valence    mass     pseudopotential
        Zn            12.00    65.38000     Zn( 1.00)
        O              6.00    15.99900     O ( 1.00)

      2 Sym. Ops. (no inversion) found

                                    s                        frac. trans.

      isym =  1     identity

 cryst.   s( 1) = (     1          0          0      )
                  (     0          1          0      )
                  (     0          0          1      )

 cart.    s( 1) = (  1.0000000  0.0000000  0.0000000 )
                  (  0.0000000  1.0000000  0.0000000 )
                  (  0.0000000  0.0000000  1.0000000 )

      isym =  2     inv. 180 deg rotation - cryst. axis [0,1,0]

 cryst.   s( 2) = (     1          2          0      )
                  (     0         -1          0      )
                  (     0          0          1      )

 cart.    s( 2) = (  0.5000000  0.8660254  0.0000000 )
                  (  0.8660254 -0.5000000  0.0000000 )
                  (  0.0000000  0.0000000  1.0000000 )

   Cartesian axes

     site n.     atom                  positions (alat units)
         1           Zn  tau(   1) = (   0.2500000   0.1443376   0.3636909  )
         2           Zn  tau(   2) = (   0.0000000   0.2886751   0.0004603  )
         3           O   tau(   3) = (   0.2500000   0.1443376   0.6390508  )
         4           O   tau(   4) = (   0.0000000   0.2886751   0.2758202  )
         5           Zn  tau(   5) = (   0.2500000   0.1443376   1.0901522  )
         6           Zn  tau(   6) = (   0.0000000   0.2886751   0.7269215  )
         7           O   tau(   7) = (   0.2500000   0.1443376   1.3655121  )
         8           O   tau(   8) = (   0.0000000   0.2886751   1.0022815  )
         9           Zn  tau(   9) = (   0.7500000   0.1443376   0.3636909  )
        10           Zn  tau(  10) = (   0.5000000   0.2886751   0.0004603  )
        11           O   tau(  11) = (   0.7500000   0.1443376   0.6390508  )
        12           O   tau(  12) = (   0.5000000   0.2886751   0.2758202  )
        13           Zn  tau(  13) = (   0.7500000   0.1443376   1.0901522  )
        14           Zn  tau(  14) = (   0.5000000   0.2886751   0.7269215  )
        15           O   tau(  15) = (   0.7500000   0.1443376   1.3655121  )
        16           O   tau(  16) = (   0.5000000   0.2886751   1.0022815  )

   Crystallographic axes

     site n.     atom                  positions (cryst. coord.)
         1           Zn  tau(   1) = (  0.3333333  0.3333333  0.2503168  )
         2           Zn  tau(   2) = (  0.1666667  0.6666667  0.0003168  )
         3           O   tau(   3) = (  0.3333333  0.3333333  0.4398382  )
         4           O   tau(   4) = (  0.1666667  0.6666667  0.1898382  )
         5           Zn  tau(   5) = (  0.3333333  0.3333333  0.7503168  )
         6           Zn  tau(   6) = (  0.1666667  0.6666667  0.5003168  )
         7           O   tau(   7) = (  0.3333333  0.3333333  0.9398382  )
         8           O   tau(   8) = (  0.1666667  0.6666667  0.6898382  )
         9           Zn  tau(   9) = (  0.8333333  0.3333333  0.2503168  )
        10           Zn  tau(  10) = (  0.6666667  0.6666667  0.0003168  )
        11           O   tau(  11) = (  0.8333333  0.3333333  0.4398382  )
        12           O   tau(  12) = (  0.6666667  0.6666667  0.1898382  )
        13           Zn  tau(  13) = (  0.8333333  0.3333333  0.7503168  )
        14           Zn  tau(  14) = (  0.6666667  0.6666667  0.5003168  )
        15           O   tau(  15) = (  0.8333333  0.3333333  0.9398382  )
        16           O   tau(  16) = (  0.6666667  0.6666667  0.6898382  )

     number of k points=    80
                       cart. coord. in units 2pi/alat
        k(    1) = (   0.0000000   0.0000000   0.0000000), wk =   0.0092593
        k(    2) = (   0.0000000   0.0000000   0.1147113), wk =   0.0185185
        k(    3) = (   0.0000000   0.0000000   0.2294226), wk =   0.0185185
        k(    4) = (   0.0000000   0.0000000  -0.3441340), wk =   0.0092593
        k(    5) = (   0.0000000   0.3849002   0.0000000), wk =   0.0370370
        k(    6) = (   0.0000000   0.3849002   0.1147113), wk =   0.0370370
        k(    7) = (   0.0000000   0.3849002   0.2294226), wk =   0.0370370
        k(    8) = (   0.0000000   0.3849002  -0.3441340), wk =   0.0370370
        k(    9) = (   0.0000000   0.7698004   0.0000000), wk =   0.0370370
        k(   10) = (   0.0000000   0.7698004   0.1147113), wk =   0.0370370
        k(   11) = (   0.0000000   0.7698004   0.2294226), wk =   0.0370370
        k(   12) = (   0.0000000   0.7698004  -0.3441340), wk =   0.0370370
        k(   13) = (   0.0000000  -1.1547005   0.0000000), wk =   0.0092593
        k(   14) = (   0.0000000  -1.1547005   0.1147113), wk =   0.0185185
        k(   15) = (   0.0000000  -1.1547005   0.2294226), wk =   0.0185185
        k(   16) = (   0.0000000  -1.1547005  -0.3441340), wk =   0.0092593
        k(   17) = (   0.1666667   0.0962250   0.0000000), wk =   0.0185185
        k(   18) = (   0.1666667   0.0962250   0.1147113), wk =   0.0185185
        k(   19) = (   0.1666667   0.0962250   0.2294226), wk =   0.0185185
        k(   20) = (   0.1666667   0.0962250  -0.3441340), wk =   0.0185185
        k(   21) = (   0.1666667   0.4811252   0.0000000), wk =   0.0370370
        k(   22) = (   0.1666667   0.4811252   0.1147113), wk =   0.0370370
        k(   23) = (   0.1666667   0.4811252   0.2294226), wk =   0.0370370
        k(   24) = (   0.1666667   0.4811252  -0.3441340), wk =   0.0370370
        k(   25) = (   0.1666667   0.8660254   0.0000000), wk =   0.0185185
        k(   26) = (   0.1666667   0.8660254   0.1147113), wk =   0.0370370
        k(   27) = (   0.1666667   0.8660254   0.2294226), wk =   0.0370370
        k(   28) = (   0.1666667   0.8660254  -0.3441340), wk =   0.0185185
        k(   29) = (   0.1666667  -1.0584755   0.0000000), wk =   0.0185185
        k(   30) = (   0.1666667  -1.0584755   0.1147113), wk =   0.0185185
        k(   31) = (   0.1666667  -1.0584755   0.2294226), wk =   0.0185185
        k(   32) = (   0.1666667  -1.0584755  -0.3441340), wk =   0.0185185
        k(   33) = (   0.1666667  -0.6735753   0.0000000), wk =   0.0370370
        k(   34) = (   0.1666667  -0.6735753   0.1147113), wk =   0.0370370
        k(   35) = (   0.1666667  -0.6735753   0.2294226), wk =   0.0370370
        k(   36) = (   0.1666667  -0.6735753  -0.3441340), wk =   0.0370370
        k(   37) = (   0.1666667  -0.2886751   0.0000000), wk =   0.0185185
        k(   38) = (   0.1666667  -0.2886751   0.1147113), wk =   0.0370370
        k(   39) = (   0.1666667  -0.2886751   0.2294226), wk =   0.0370370
        k(   40) = (   0.1666667  -0.2886751  -0.3441340), wk =   0.0185185
        k(   41) = (   0.3333333   0.1924501   0.0000000), wk =   0.0185185
        k(   42) = (   0.3333333   0.1924501   0.1147113), wk =   0.0185185
        k(   43) = (   0.3333333   0.1924501   0.2294226), wk =   0.0185185
        k(   44) = (   0.3333333   0.1924501  -0.3441340), wk =   0.0185185
        k(   45) = (   0.3333333   0.5773503   0.0000000), wk =   0.0185185
        k(   46) = (   0.3333333   0.5773503   0.1147113), wk =   0.0370370
        k(   47) = (   0.3333333   0.5773503   0.2294226), wk =   0.0370370
        k(   48) = (   0.3333333   0.5773503  -0.3441340), wk =   0.0185185
        k(   49) = (   0.3333333  -0.9622504   0.0000000), wk =   0.0185185
        k(   50) = (   0.3333333  -0.9622504   0.1147113), wk =   0.0185185
        k(   51) = (   0.3333333  -0.9622504   0.2294226), wk =   0.0185185
        k(   52) = (   0.3333333  -0.9622504  -0.3441340), wk =   0.0185185
        k(   53) = (   0.3333333  -0.5773503   0.0000000), wk =   0.0185185
        k(   54) = (   0.3333333  -0.5773503   0.1147113), wk =   0.0370370
        k(   55) = (   0.3333333  -0.5773503   0.2294226), wk =   0.0370370
[...]
        k(   76) = (  -0.5000000   0.3333333  -0.3333333), wk =   0.0370370
        k(   77) = (   0.3333333   0.0000000  -0.1666667), wk =   0.0185185
        k(   78) = (   0.3333333   0.0000000  -0.3333333), wk =   0.0185185
        k(   79) = (  -0.6666667   0.5000000  -0.1666667), wk =   0.0185185
        k(   80) = (  -0.6666667   0.5000000  -0.3333333), wk =   0.0185185

     Check: negative core charge=   -0.000001

     Initial potential from superposition of free atoms

     starting charge     143.9702, renormalised to     144.0000
     Starting wfcs are  104 randomized atomic wfcs

     Self-consistent Calculation

     iteration #  1     ecut=    50.00 Ry     beta= 0.30
     Davidson diagonalization with overlap

     ethr =  1.00E-02,  avg # of iterations =  2.0

     total energy              =   -1445.64910362 Ry
     estimated scf accuracy    <       2.75492635 Ry

[...]

     total energy              =   -1446.22485647 Ry
     estimated scf accuracy    <       0.00000002 Ry

     iteration # 33     ecut=    50.00 Ry     beta= 0.30
     Davidson diagonalization with overlap

     ethr =  1.43E-11,  avg # of iterations =  5.5

     End of self-consistent calculation

          k = 0.0000 0.0000 0.0000 (  6645 PWs)   bands (ev):

    -9.8259  -9.2572  -9.2572  -8.9804  -8.7661  -8.7660  -8.6679  -8.6189
     2.2222   2.2222   2.5473   2.5473   2.6548   2.8410   2.9689   3.0935
     3.0936   3.0983   3.1714   3.1714   3.1715   3.1715   3.3273   3.4047
     3.4048   3.4933   3.4933   3.5169   3.6241   3.6241   3.8386   4.1334
     4.6252   4.6252   4.7038   4.8895   4.8895   4.8895   4.8895   4.8961
     4.9432   4.9432   5.0019   5.0020   5.0619   5.0619   5.0860   5.1344
     5.2828   5.6461   5.6461   5.7091   5.7226   6.3844   6.3949   7.5123
     7.5123   7.6389   7.6389   8.1661   8.1867   8.1868   8.3367   8.3367
     8.6131   8.8398   8.8398   8.8400   8.8400   9.4576   9.4578   9.5468

     occupation numbers
     1.0000   1.0000   1.0000   1.0000   1.0000   1.0000   1.0000   1.0000
     1.0000   1.0000   1.0000   1.0000   1.0000   1.0000   1.0000   1.0000
     1.0000   1.0000   1.0000   1.0000   1.0000   1.0000   1.0000   1.0000
     1.0000   1.0000   1.0000   1.0000   1.0000   1.0000   1.0000   1.0000
     1.0000   1.0000   1.0000   1.0000   1.0000   1.0000   1.0000   1.0000
     1.0000   1.0000   1.0000   1.0000   1.0000   1.0000   1.0000   1.0000
     1.0000   1.0000   1.0000   1.0000   1.0000   1.0000   1.0000   1.0000
     1.0000   1.0000   1.0000   1.0000   1.0000   1.0000   1.0000   1.0000
     1.0000   1.0000   1.0000   1.0000   1.0000   1.0000   1.0000   1.0000

[...]

          k =-0.5000-0.2887 0.0000 (  6688 PWs)   bands (ev):

[...]

          k = 0.3333 0.1925-0.2294 (  6666 PWs)   bands (ev):

[...]

          k =-0.6667 0.7698-0.2294 (  6678 PWs)   bands (ev):

    -8.9585  -8.9585  -8.8729  -8.8729  -8.6807  -8.6806  -8.6279  -8.6279
     2.4536   2.4536   2.5177   2.5177   2.6643   2.6643   2.8568   2.8568
     3.2571   3.2571   3.2814   3.2814   3.3877   3.3877   3.4346   3.4346
     3.6848   3.6848   3.8010   3.8010   3.8288   3.8288   4.0102   4.0102
     4.6532   4.6532   4.7657   4.7657   4.8417   4.8417   4.8748   4.8748
     5.0656   5.0656   5.0783   5.0783   5.2152   5.2152   5.2345   5.2345
     5.4083   5.4083   5.6298   5.6298   6.0134   6.0134   6.0315   6.0315
     6.2752   6.2752   6.6108   6.6108   6.9847   6.9847   7.6267   7.6267
     7.8386   7.8386   8.1135   8.1135   8.3637   8.3637   8.5841   8.5841

     occupation numbers
     1.0000   1.0000   1.0000   1.0000   1.0000   1.0000   1.0000   1.0000
     1.0000   1.0000   1.0000   1.0000   1.0000   1.0000   1.0000   1.0000
     1.0000   1.0000   1.0000   1.0000   1.0000   1.0000   1.0000   1.0000
     1.0000   1.0000   1.0000   1.0000   1.0000   1.0000   1.0000   1.0000
     1.0000   1.0000   1.0000   1.0000   1.0000   1.0000   1.0000   1.0000
     1.0000   1.0000   1.0000   1.0000   1.0000   1.0000   1.0000   1.0000
     1.0000   1.0000   1.0000   1.0000   1.0000   1.0000   1.0000   1.0000
     1.0000   1.0000   1.0000   1.0000   1.0000   1.0000   1.0000   1.0000
     1.0000   1.0000   1.0000   1.0000   1.0000   1.0000   1.0000   1.0000

     highest occupied level (ev):     9.5468

!    total energy              =   -1446.22485648 Ry
     estimated scf accuracy    <          1.1E-10 Ry

     The total energy is the sum of the following terms:
     one-electron contribution =    -546.40599288 Ry
     hartree contribution      =     449.17019883 Ry
     xc contribution           =    -439.77004031 Ry
     ewald contribution        =    -909.21902212 Ry

     convergence has been achieved in  33 iterations

     Forces acting on atoms (cartesian axes, Ry/au):

     atom    1 type  1   force =     0.00001106    0.00000638   -0.09681377
     atom    2 type  1   force =    -0.00000874   -0.00000505   -0.09681359
     atom    3 type  2   force =    -0.00000096   -0.00000055    0.09681148
     atom    4 type  2   force =     0.00000104    0.00000060    0.09681152
     atom    5 type  1   force =     0.00001226    0.00000708   -0.09680918
     atom    6 type  1   force =    -0.00001182   -0.00000683   -0.09680873
     atom    7 type  2   force =    -0.00000076   -0.00000044    0.09681137
     atom    8 type  2   force =     0.00000075    0.00000043    0.09681078
     atom    9 type  1   force =     0.00001064    0.00000614   -0.09681276
     atom   10 type  1   force =    -0.00001311   -0.00000757   -0.09681382
     atom   11 type  2   force =    -0.00000072   -0.00000042    0.09681160
     atom   12 type  2   force =     0.00000101    0.00000058    0.09681132
     atom   13 type  1   force =     0.00000963    0.00000556   -0.09681142
     atom   14 type  1   force =    -0.00001031   -0.00000595   -0.09680708
     atom   15 type  2   force =    -0.00000123   -0.00000071    0.09681130
     atom   16 type  2   force =     0.00000127    0.00000073    0.09681098
     The non-local contrib.  to forces
     atom    1 type  1   force =    -0.00001456   -0.00000841   -0.33935350
     atom    2 type  1   force =     0.00001549    0.00000894   -0.33935275
     atom    3 type  2   force =    -0.00014299   -0.00008256   -0.21530915
     atom    4 type  2   force =     0.00014360    0.00008291   -0.21530819
     atom    5 type  1   force =    -0.00001396   -0.00000806   -0.33935006
     atom    6 type  1   force =     0.00001455    0.00000840   -0.33935098
     atom    7 type  2   force =    -0.00014343   -0.00008281   -0.21530795
     atom    8 type  2   force =     0.00014389    0.00008308   -0.21531008
     atom    9 type  1   force =    -0.00001475   -0.00000852   -0.33935277
     atom   10 type  1   force =     0.00001353    0.00000781   -0.33935318
     atom   11 type  2   force =    -0.00014343   -0.00008281   -0.21530951
     atom   12 type  2   force =     0.00014406    0.00008317   -0.21530812
     atom   13 type  1   force =    -0.00001526   -0.00000881   -0.33935091
     atom   14 type  1   force =     0.00001485    0.00000858   -0.33935052
     atom   15 type  2   force =    -0.00014360   -0.00008291   -0.21530839
     atom   16 type  2   force =     0.00014374    0.00008299   -0.21530999
     The ionic contribution  to forces
     atom    1 type  1   force =     0.00000001    0.00000001   -2.35338397
     atom    2 type  1   force =     0.00000000    0.00000000   -2.35338397
     atom    3 type  2   force =     0.00000001    0.00000000    2.35338397
     atom    4 type  2   force =     0.00000000    0.00000000    2.35338397
     atom    5 type  1   force =     0.00000001    0.00000001   -2.35338397
     atom    6 type  1   force =     0.00000000    0.00000000   -2.35338397
     atom    7 type  2   force =     0.00000001    0.00000000    2.35338397
     atom    8 type  2   force =     0.00000000    0.00000000    2.35338397
     atom    9 type  1   force =    -0.00000001   -0.00000000   -2.35338397
     atom   10 type  1   force =    -0.00000000   -0.00000001   -2.35338398
     atom   11 type  2   force =    -0.00000001    0.00000000    2.35338397
     atom   12 type  2   force =    -0.00000000   -0.00000001    2.35338398
     atom   13 type  1   force =    -0.00000001   -0.00000000   -2.35338397
     atom   14 type  1   force =    -0.00000000   -0.00000001   -2.35338398
     atom   15 type  2   force =    -0.00000001    0.00000000    2.35338397
     atom   16 type  2   force =    -0.00000000   -0.00000001    2.35338398
     The local contribution  to forces
     atom    1 type  1   force =     0.00002752    0.00001589    2.56572172
     atom    2 type  1   force =    -0.00003098   -0.00001789    2.56572037
     atom    3 type  2   force =     0.00014145    0.00008167   -2.04255255
     atom    4 type  2   force =    -0.00014187   -0.00008191   -2.04255035
     atom    5 type  1   force =     0.00002571    0.00001484    2.56571344
     atom    6 type  1   force =    -0.00002706   -0.00001563    2.56571399
     atom    7 type  2   force =     0.00014020    0.00008095   -2.04255115
     atom    8 type  2   force =    -0.00014134   -0.00008160   -2.04255289
     atom    9 type  1   force =     0.00002821    0.00001639    2.56571976
     atom   10 type  1   force =    -0.00002444   -0.00001411    2.56572053
     atom   11 type  2   force =     0.00014022    0.00008098   -2.04255267
     atom   12 type  2   force =    -0.00014112   -0.00008148   -2.04255018
     atom   13 type  1   force =     0.00002987    0.00001734    2.56571730
     atom   14 type  1   force =    -0.00002868   -0.00001656    2.56571167
     atom   15 type  2   force =     0.00014191    0.00008196   -2.04254839
     atom   16 type  2   force =    -0.00014100   -0.00008141   -2.04255454
     The core correction contribution to forces
     atom    1 type  1   force =    -0.00000206   -0.00000119    0.03020581
     atom    2 type  1   force =     0.00000212    0.00000123    0.03020580
     atom    3 type  2   force =     0.00000164    0.00000095    0.00128853
     atom    4 type  2   force =    -0.00000165   -0.00000095    0.00128852
     atom    5 type  1   force =    -0.00000204   -0.00000118    0.03020583
     atom    6 type  1   force =     0.00000205    0.00000118    0.03020591
     atom    7 type  2   force =     0.00000164    0.00000095    0.00128851
     atom    8 type  2   force =    -0.00000165   -0.00000095    0.00128854
     atom    9 type  1   force =    -0.00000208   -0.00000119    0.03020583
     atom   10 type  1   force =     0.00000203    0.00000117    0.03020584
     atom   11 type  2   force =     0.00000164    0.00000095    0.00128853
     atom   12 type  2   force =    -0.00000165   -0.00000095    0.00128852
     atom   13 type  1   force =    -0.00000210   -0.00000120    0.03020575
     atom   14 type  1   force =     0.00000208    0.00000120    0.03020595
     atom   15 type  2   force =     0.00000165    0.00000095    0.00128853
     atom   16 type  2   force =    -0.00000165   -0.00000095    0.00128853
     The Hubbard contrib.    to forces
     atom    1 type  1   force =     0.00000000    0.00000000    0.00000000
     atom    2 type  1   force =     0.00000000    0.00000000    0.00000000
     atom    3 type  2   force =     0.00000000    0.00000000    0.00000000
     atom    4 type  2   force =     0.00000000    0.00000000    0.00000000
     atom    5 type  1   force =     0.00000000    0.00000000    0.00000000
     atom    6 type  1   force =     0.00000000    0.00000000    0.00000000
     atom    7 type  2   force =     0.00000000    0.00000000    0.00000000
     atom    8 type  2   force =     0.00000000    0.00000000    0.00000000
     atom    9 type  1   force =     0.00000000    0.00000000    0.00000000
     atom   10 type  1   force =     0.00000000    0.00000000    0.00000000
     atom   11 type  2   force =     0.00000000    0.00000000    0.00000000
     atom   12 type  2   force =     0.00000000    0.00000000    0.00000000
     atom   13 type  1   force =     0.00000000    0.00000000    0.00000000
     atom   14 type  1   force =     0.00000000    0.00000000    0.00000000
     atom   15 type  2   force =     0.00000000    0.00000000    0.00000000
     atom   16 type  2   force =     0.00000000    0.00000000    0.00000000
     The SCF correction term to forces
     atom    1 type  1   force =     0.00000013    0.00000007   -0.00000462
     atom    2 type  1   force =     0.00000460    0.00000266   -0.00000382
     atom    3 type  2   force =    -0.00000108   -0.00000062   -0.00000011
     atom    4 type  2   force =     0.00000094    0.00000054   -0.00000321
     atom    5 type  1   force =     0.00000252    0.00000146    0.00000479
     atom    6 type  1   force =    -0.00000138   -0.00000080    0.00000554
     atom    7 type  2   force =     0.00000080    0.00000046   -0.00000280
     atom    8 type  2   force =    -0.00000018   -0.00000010    0.00000045
     atom    9 type  1   force =    -0.00000079   -0.00000046   -0.00000239
     atom   10 type  1   force =    -0.00000424   -0.00000245   -0.00000382
     atom   11 type  2   force =     0.00000082    0.00000047    0.00000049
     atom   12 type  2   force =    -0.00000029   -0.00000017   -0.00000367
     atom   13 type  1   force =    -0.00000294   -0.00000170   -0.00000037
     atom   14 type  1   force =     0.00000143    0.00000082    0.00000900
     atom   15 type  2   force =    -0.00000120   -0.00000069   -0.00000520
     atom   16 type  2   force =     0.00000017    0.00000010    0.00000222

     Total force =     0.387245     Total SCF correction =     0.000018

     General routines

     Parallel routines

   This run was terminated on:   1:20: 7  29Aug2025

   JOB DONE.
Note: The following floating-point exceptions are signalling: IEEE_UNDERFLOW_FLAG IEEE_DENORMAL
Note: The following floating-point exceptions are signalling: IEEE_UNDERFLOW_FLAG IEEE_DENORMAL
Note: The following floating-point exceptions are signalling: IEEE_UNDERFLOW_FLAG IEEE_DENORMAL
Note: The following floating-point exceptions are signalling: IEEE_UNDERFLOW_FLAG IEEE_DENORMAL
Note: The following floating-point exceptions are signalling: IEEE_UNDERFLOW_FLAG IEEE_DENORMAL
Note: The following floating-point exceptions are signalling: IEEE_UNDERFLOW_FLAG IEEE_DENORMAL
Note: The following floating-point exceptions are signalling: IEEE_UNDERFLOW_FLAG IEEE_DENORMAL
Note: The following floating-point exceptions are signalling: IEEE_UNDERFLOW_FLAG IEEE_DENORMAL
Note: The following floating-point exceptions are signalling: IEEE_UNDERFLOW_FLAG IEEE_DENORMAL
Note: The following floating-point exceptions are signalling: IEEE_UNDERFLOW_FLAG IEEE_DENORMAL
Note: The following floating-point exceptions are signalling: IEEE_UNDERFLOW_FLAG IEEE_DENORMAL
Note: The following floating-point exceptions are signalling: IEEE_UNDERFLOW_FLAG IEEE_DENORMAL
Note: The following floating-point exceptions are signalling: IEEE_UNDERFLOW_FLAG IEEE_DENORMAL
Note: The following floating-point exceptions are signalling: IEEE_UNDERFLOW_FLAG IEEE_DENORMAL
Note: The following floating-point exceptions are signalling: IEEE_UNDERFLOW_FLAG IEEE_DENORMAL
Note: The following floating-point exceptions are signalling: IEEE_UNDERFLOW_FLAG IEEE_DENORMAL
Note: The following floating-point exceptions are signalling: IEEE_UNDERFLOW_FLAG IEEE_DENORMAL
Note: The following floating-point exceptions are signalling: IEEE_UNDERFLOW_FLAG IEEE_DENORMAL
Note: The following floating-point exceptions are signalling: IEEE_UNDERFLOW_FLAG IEEE_DENORMAL
Note: The following floating-point exceptions are signalling: IEEE_UNDERFLOW_FLAG IEEE_DENORMAL
Note: The following floating-point exceptions are signalling: IEEE_UNDERFLOW_FLAG IEEE_DENORMAL
Note: The following floating-point exceptions are signalling: IEEE_UNDERFLOW_FLAG IEEE_DENORMAL
Note: The following floating-point exceptions are signalling: IEEE_UNDERFLOW_FLAG IEEE_DENORMAL
Note: The following floating-point exceptions are signalling: IEEE_UNDERFLOW_FLAG IEEE_DENORMAL
Note: The following floating-point exceptions are signalling: IEEE_UNDERFLOW_FLAG IEEE_DENORMAL
Note: The following floating-point exceptions are signalling: IEEE_UNDERFLOW_FLAG IEEE_DENORMAL
Note: The following floating-point exceptions are signalling: IEEE_UNDERFLOW_FLAG IEEE_DENORMAL
Note: The following floating-point exceptions are signalling: IEEE_UNDERFLOW_FLAG IEEE_DENORMAL
Note: The following floating-point exceptions are signalling: IEEE_UNDERFLOW_FLAG IEEE_DENORMAL
Note: The following floating-point exceptions are signalling: IEEE_UNDERFLOW_FLAG IEEE_DENORMAL
Note: The following floating-point exceptions are signalling: IEEE_UNDERFLOW_FLAG IEEE_DENORMAL
Note: The following floating-point exceptions are signalling: IEEE_UNDERFLOW_FLAG IEEE_DENORMAL