     Program PWSCF v.7.0 starts on 28Aug2025 at 18:35:37

     K-points division:     npool     =       8
     R & G space division:  proc/nbgrp/npool/nimage =       4

     Reading input from /home/jvc/QEspresso7.2/ZnO_database/scripts/cell212.in/ZnO-2.94-1.45-212.in
Warning: card &CELL ignored
Warning: card / ignored
Warning: card &FCP ignored
Warning: card / ignored
Warning: card &RISM ignored
Warning: card / ignored

     Current dimensions of program PWSCF are:
     Max number of different atomic species (ntypx) = 10
     Max number of k-points (npk) =  40000
     Max angular momentum in pseudopotentials (lmaxx) =  4
     file Zn.upf: wavefunction(s)  3D renormalized
     Found identity + (  0.0000  0.0000  0.5000) symmetry
     This is a supercell, fractional translations are disabled
     Message from routine setup:
     using ibrav=0 with symmetry is DISCOURAGED, use correct ibrav instead

     Using Slab Decomposition

     bravais-lattice index     =            0
     lattice parameter (alat)  =      11.1219  a.u.
     unit-cell volume          =     865.5345 (a.u.)^3
     number of atoms/cell      =           16
     number of atomic types    =            2
     number of electrons       =       144.00
     number of Kohn-Sham states=           72
     kinetic-energy cutoff     =      50.0000  Ry
     charge density cutoff     =     400.0000  Ry
     scf convergence threshold =      1.0E-08
     mixing beta               =       0.3000
     number of iterations used =            8  plain     mixing
     Exchange-correlation= PBE
                           (   1   4   3   4   0   0   0)

     celldm(1)=  11.121937  celldm(2)=   0.000000  celldm(3)=   0.000000
     celldm(4)=   0.000000  celldm(5)=   0.000000  celldm(6)=   0.000000

     crystal axes: (cart. coord. in units of alat)
               a(1) = (   1.000000   0.000000   0.000000 )
               a(2) = (  -0.250000   0.433013   0.000000 )
               a(3) = (   0.000000   0.000000   1.452923 )

     reciprocal axes: (cart. coord. in units 2 pi/alat)
               b(1) = (  1.000000  0.577350 -0.000000 )
               b(2) = (  0.000000  2.309401  0.000000 )
               b(3) = (  0.000000 -0.000000  0.688268 )

     PseudoPot. # 1 for Zn read from file:
     /home/jvc/QEspresso7.2/ZnO_database/pseudos/Zn.upf
     MD5 check sum: 7f56cabf9682ed8c977c2f7d0c5985c5
     Pseudo is Ultrasoft + core correction, Zval = 12.0
     Generated using &quot;atomic&quot; code by A. Dal Corso  v.6.2.2
     Using radial grid of 1201 points,  6 beta functions with:
                l(1) =   0
                l(2) =   0
                l(3) =   1
                l(4) =   1
                l(5) =   2
                l(6) =   2
     Q(r) pseudized with 0 coefficients

     PseudoPot. # 2 for O  read from file:
     /home/jvc/QEspresso7.2/ZnO_database/pseudos/O.upf
     MD5 check sum: 91400c9766925bcf19f520983a725ff0
     Pseudo is Ultrasoft + core correction, Zval =  6.0
     Generated using &quot;atomic&quot; code by A. Dal Corso  v.6.3MaX
     Using radial grid of 1095 points,  4 beta functions with:
                l(1) =   0
                l(2) =   0
                l(3) =   1
                l(4) =   1
     Q(r) pseudized with 0 coefficients

     atomic species   valence    mass     pseudopotential
        Zn            12.00    65.38000     Zn( 1.00)
        O              6.00    15.99900     O ( 1.00)

      2 Sym. Ops. (no inversion) found

                                    s                        frac. trans.

      isym =  1     identity

 cryst.   s( 1) = (     1          0          0      )
                  (     0          1          0      )
                  (     0          0          1      )

 cart.    s( 1) = (  1.0000000  0.0000000  0.0000000 )
                  (  0.0000000  1.0000000  0.0000000 )
                  (  0.0000000  0.0000000  1.0000000 )

      isym =  2     inv. 180 deg rotation - cryst. axis [0,1,0]

 cryst.   s( 2) = (     1          2          0      )
                  (     0         -1          0      )
                  (     0          0          1      )

 cart.    s( 2) = (  0.5000000  0.8660254  0.0000000 )
                  (  0.8660254 -0.5000000  0.0000000 )
                  (  0.0000000  0.0000000  1.0000000 )

   Cartesian axes

     site n.     atom                  positions (alat units)
         1           Zn  tau(   1) = (   0.2500000   0.1443376   0.3636909  )
         2           Zn  tau(   2) = (  -0.0000000   0.2886751   0.0004603  )
         3           O   tau(   3) = (   0.2500000   0.1443376   0.6390508  )
         4           O   tau(   4) = (  -0.0000000   0.2886751   0.2758202  )
         5           Zn  tau(   5) = (   0.2500000   0.1443376   1.0901522  )
         6           Zn  tau(   6) = (  -0.0000000   0.2886751   0.7269215  )
         7           O   tau(   7) = (   0.2500000   0.1443376   1.3655121  )
         8           O   tau(   8) = (  -0.0000000   0.2886751   1.0022815  )
         9           Zn  tau(   9) = (   0.7500000   0.1443376   0.3636909  )
        10           Zn  tau(  10) = (   0.5000000   0.2886751   0.0004603  )
        11           O   tau(  11) = (   0.7500000   0.1443376   0.6390508  )
        12           O   tau(  12) = (   0.5000000   0.2886751   0.2758202  )
        13           Zn  tau(  13) = (   0.7500000   0.1443376   1.0901522  )
        14           Zn  tau(  14) = (   0.5000000   0.2886751   0.7269215  )
        15           O   tau(  15) = (   0.7500000   0.1443376   1.3655121  )
        16           O   tau(  16) = (   0.5000000   0.2886751   1.0022815  )

   Crystallographic axes

     site n.     atom                  positions (cryst. coord.)
         1           Zn  tau(   1) = (  0.3333333  0.3333333  0.2503168  )
         2           Zn  tau(   2) = (  0.1666667  0.6666667  0.0003168  )
         3           O   tau(   3) = (  0.3333333  0.3333333  0.4398382  )
         4           O   tau(   4) = (  0.1666667  0.6666667  0.1898382  )
         5           Zn  tau(   5) = (  0.3333333  0.3333333  0.7503168  )
         6           Zn  tau(   6) = (  0.1666667  0.6666667  0.5003168  )
         7           O   tau(   7) = (  0.3333333  0.3333333  0.9398382  )
         8           O   tau(   8) = (  0.1666667  0.6666667  0.6898382  )
         9           Zn  tau(   9) = (  0.8333333  0.3333333  0.2503168  )
        10           Zn  tau(  10) = (  0.6666667  0.6666667  0.0003168  )
        11           O   tau(  11) = (  0.8333333  0.3333333  0.4398382  )
        12           O   tau(  12) = (  0.6666667  0.6666667  0.1898382  )
        13           Zn  tau(  13) = (  0.8333333  0.3333333  0.7503168  )
        14           Zn  tau(  14) = (  0.6666667  0.6666667  0.5003168  )
        15           O   tau(  15) = (  0.8333333  0.3333333  0.9398382  )
        16           O   tau(  16) = (  0.6666667  0.6666667  0.6898382  )

     number of k points=    80
                       cart. coord. in units 2pi/alat
        k(    1) = (   0.0000000   0.0000000   0.0000000), wk =   0.0092593
        k(    2) = (   0.0000000   0.0000000   0.1147113), wk =   0.0185185
        k(    3) = (   0.0000000   0.0000000   0.2294226), wk =   0.0185185
        k(    4) = (   0.0000000   0.0000000  -0.3441340), wk =   0.0092593
        k(    5) = (   0.0000000   0.3849002   0.0000000), wk =   0.0370370
        k(    6) = (   0.0000000   0.3849002   0.1147113), wk =   0.0370370
        k(    7) = (   0.0000000   0.3849002   0.2294226), wk =   0.0370370
        k(    8) = (   0.0000000   0.3849002  -0.3441340), wk =   0.0370370
        k(    9) = (   0.0000000   0.7698004   0.0000000), wk =   0.0370370
        k(   10) = (   0.0000000   0.7698004   0.1147113), wk =   0.0370370
        k(   11) = (   0.0000000   0.7698004   0.2294226), wk =   0.0370370
        k(   12) = (   0.0000000   0.7698004  -0.3441340), wk =   0.0370370
        k(   13) = (   0.0000000  -1.1547005   0.0000000), wk =   0.0092593
        k(   14) = (   0.0000000  -1.1547005   0.1147113), wk =   0.0185185
        k(   15) = (   0.0000000  -1.1547005   0.2294226), wk =   0.0185185
        k(   16) = (   0.0000000  -1.1547005  -0.3441340), wk =   0.0092593
        k(   17) = (   0.1666667   0.0962250   0.0000000), wk =   0.0185185
        k(   18) = (   0.1666667   0.0962250   0.1147113), wk =   0.0185185
        k(   19) = (   0.1666667   0.0962250   0.2294226), wk =   0.0185185
        k(   20) = (   0.1666667   0.0962250  -0.3441340), wk =   0.0185185
        k(   21) = (   0.1666667   0.4811252   0.0000000), wk =   0.0370370
        k(   22) = (   0.1666667   0.4811252   0.1147113), wk =   0.0370370
        k(   23) = (   0.1666667   0.4811252   0.2294226), wk =   0.0370370
        k(   24) = (   0.1666667   0.4811252  -0.3441340), wk =   0.0370370
        k(   25) = (   0.1666667   0.8660254   0.0000000), wk =   0.0185185
        k(   26) = (   0.1666667   0.8660254   0.1147113), wk =   0.0370370
        k(   27) = (   0.1666667   0.8660254   0.2294226), wk =   0.0370370
        k(   28) = (   0.1666667   0.8660254  -0.3441340), wk =   0.0185185
        k(   29) = (   0.1666667  -1.0584755   0.0000000), wk =   0.0185185
        k(   30) = (   0.1666667  -1.0584755   0.1147113), wk =   0.0185185
        k(   31) = (   0.1666667  -1.0584755   0.2294226), wk =   0.0185185
        k(   32) = (   0.1666667  -1.0584755  -0.3441340), wk =   0.0185185
        k(   33) = (   0.1666667  -0.6735753   0.0000000), wk =   0.0370370
        k(   34) = (   0.1666667  -0.6735753   0.1147113), wk =   0.0370370
        k(   35) = (   0.1666667  -0.6735753   0.2294226), wk =   0.0370370
        k(   36) = (   0.1666667  -0.6735753  -0.3441340), wk =   0.0370370
        k(   37) = (   0.1666667  -0.2886751   0.0000000), wk =   0.0185185
        k(   38) = (   0.1666667  -0.2886751   0.1147113), wk =   0.0370370
        k(   39) = (   0.1666667  -0.2886751   0.2294226), wk =   0.0370370
        k(   40) = (   0.1666667  -0.2886751  -0.3441340), wk =   0.0185185
        k(   41) = (   0.3333333   0.1924501   0.0000000), wk =   0.0185185
        k(   42) = (   0.3333333   0.1924501   0.1147113), wk =   0.0185185
        k(   43) = (   0.3333333   0.1924501   0.2294226), wk =   0.0185185
        k(   44) = (   0.3333333   0.1924501  -0.3441340), wk =   0.0185185
        k(   45) = (   0.3333333   0.5773503   0.0000000), wk =   0.0185185
        k(   46) = (   0.3333333   0.5773503   0.1147113), wk =   0.0370370
        k(   47) = (   0.3333333   0.5773503   0.2294226), wk =   0.0370370
        k(   48) = (   0.3333333   0.5773503  -0.3441340), wk =   0.0185185
        k(   49) = (   0.3333333  -0.9622504   0.0000000), wk =   0.0185185
        k(   50) = (   0.3333333  -0.9622504   0.1147113), wk =   0.0185185
        k(   51) = (   0.3333333  -0.9622504   0.2294226), wk =   0.0185185
        k(   52) = (   0.3333333  -0.9622504  -0.3441340), wk =   0.0185185
        k(   53) = (   0.3333333  -0.5773503   0.0000000), wk =   0.0185185
        k(   54) = (   0.3333333  -0.5773503   0.1147113), wk =   0.0370370
        k(   55) = (   0.3333333  -0.5773503   0.2294226), wk =   0.0370370
[...]
        k(   77) = (   0.3333333   0.0000000  -0.1666667), wk =   0.0185185
        k(   78) = (   0.3333333   0.0000000  -0.3333333), wk =   0.0185185
        k(   79) = (  -0.6666667   0.5000000  -0.1666667), wk =   0.0185185
        k(   80) = (  -0.6666667   0.5000000  -0.3333333), wk =   0.0185185

     Initial potential from superposition of free atoms

     starting charge     143.9702, renormalised to     144.0000
     Starting wfcs are  104 randomized atomic wfcs

     Self-consistent Calculation

     iteration #  1     ecut=    50.00 Ry     beta= 0.30
     Davidson diagonalization with overlap

     ethr =  1.00E-02,  avg # of iterations =  2.6

     total energy              =   -1444.27419410 Ry
     estimated scf accuracy    <       2.96242892 Ry

[...]

     c_bands:  1 eigenvalues not converged
     c_bands:  1 eigenvalues not converged
     ethr =  1.65E-07,  avg # of iterations = 14.0

[...]

     total energy              =   -1444.78338092 Ry
     estimated scf accuracy    <       0.00000005 Ry

     iteration # 23     ecut=    50.00 Ry     beta= 0.30
     Davidson diagonalization with overlap

     ethr =  3.39E-11,  avg # of iterations =  6.4

     End of self-consistent calculation

          k = 0.0000 0.0000 0.0000 (  5157 PWs)   bands (ev):

    -7.5767  -6.7013  -6.7013  -6.2390  -5.8874  -5.8874  -5.7821  -5.6830
     4.6944   4.6944   5.3027   5.3027   5.3292   5.3499   5.5524   6.0970
     6.0971   6.1927   6.1974   6.1975   6.1975   6.1976   6.4350   6.5289
     6.5290   6.5716   6.6031   6.6031   6.8228   6.8228   7.2616   7.5121
     8.6029   8.6030   8.7265   9.0551   9.0551   9.0551   9.0551   9.0754
     9.1558   9.1558   9.2374   9.2375   9.2930   9.2930   9.3880   9.4179
     9.6818   9.7394  10.0104  10.0104  10.1696  10.4294  10.8507  12.1105
    12.1105  12.5352  12.5352  12.8940  12.8941  12.9769  13.1124  13.1124
    13.3541  13.7610  13.7610  13.7611  13.7612  14.6196  14.6197  14.6452

     occupation numbers
     1.0000   1.0000   1.0000   1.0000   1.0000   1.0000   1.0000   1.0000
     1.0000   1.0000   1.0000   1.0000   1.0000   1.0000   1.0000   1.0000
     1.0000   1.0000   1.0000   1.0000   1.0000   1.0000   1.0000   1.0000
     1.0000   1.0000   1.0000   1.0000   1.0000   1.0000   1.0000   1.0000
     1.0000   1.0000   1.0000   1.0000   1.0000   1.0000   1.0000   1.0000
     1.0000   1.0000   1.0000   1.0000   1.0000   1.0000   1.0000   1.0000
     1.0000   1.0000   1.0000   1.0000   1.0000   1.0000   1.0000   1.0000
     1.0000   1.0000   1.0000   1.0000   1.0000   1.0000   1.0000   1.0000
     1.0000   1.0000   1.0000   1.0000   1.0000   1.0000   1.0000   1.0000

[...]

          k =-0.5000-0.2887 0.0000 (  5150 PWs)   bands (ev):

[...]

          k = 0.3333 0.1925-0.2294 (  5167 PWs)   bands (ev):

[...]

          k =-0.6667 0.7698-0.2294 (  5164 PWs)   bands (ev):

    -6.2056  -6.2056  -6.0626  -6.0626  -5.7602  -5.7602  -5.6889  -5.6889
     5.0314   5.0314   5.0952   5.0952   5.3093   5.3093   5.5033   5.5033
     6.2743   6.2743   6.2781   6.2781   6.3611   6.3612   6.4469   6.4469
     6.9589   6.9589   7.0838   7.0839   7.1557   7.1557   7.3231   7.3231
     8.6056   8.6056   8.8013   8.8013   8.9588   8.9588   9.0308   9.0308
     9.3393   9.3393   9.3538   9.3538   9.4468   9.4468   9.5510   9.5510
     9.7149   9.7149   9.9492   9.9492  10.1861  10.1861  10.4796  10.4796
    10.7929  10.7929  10.9492  10.9492  11.4684  11.4684  12.1193  12.1193
    12.4635  12.4635  12.7288  12.7288  13.1568  13.1568  13.3912  13.3912

     occupation numbers
     1.0000   1.0000   1.0000   1.0000   1.0000   1.0000   1.0000   1.0000
     1.0000   1.0000   1.0000   1.0000   1.0000   1.0000   1.0000   1.0000
     1.0000   1.0000   1.0000   1.0000   1.0000   1.0000   1.0000   1.0000
     1.0000   1.0000   1.0000   1.0000   1.0000   1.0000   1.0000   1.0000
     1.0000   1.0000   1.0000   1.0000   1.0000   1.0000   1.0000   1.0000
     1.0000   1.0000   1.0000   1.0000   1.0000   1.0000   1.0000   1.0000
     1.0000   1.0000   1.0000   1.0000   1.0000   1.0000   1.0000   1.0000
     1.0000   1.0000   1.0000   1.0000   1.0000   1.0000   1.0000   1.0000
     1.0000   1.0000   1.0000   1.0000   1.0000   1.0000   1.0000   1.0000

     highest occupied level (ev):    14.6452

!    total energy              =   -1444.78338096 Ry
     estimated scf accuracy    <          8.2E-10 Ry

     The total energy is the sum of the following terms:
     one-electron contribution =    -419.64158254 Ry
     hartree contribution      =     407.67962237 Ry
     xc contribution           =    -442.78293003 Ry
     ewald contribution        =    -990.03849076 Ry

     convergence has been achieved in  23 iterations

     Forces acting on atoms (cartesian axes, Ry/au):

     atom    1 type  1   force =     0.00001921    0.00001109   -0.21626299
     atom    2 type  1   force =    -0.00001908   -0.00001102   -0.21628111
     atom    3 type  2   force =    -0.00000173   -0.00000100    0.21627101
     atom    4 type  2   force =     0.00000285    0.00000165    0.21627059
     atom    5 type  1   force =     0.00002031    0.00001172   -0.21626205
     atom    6 type  1   force =    -0.00001556   -0.00000898   -0.21627255
     atom    7 type  2   force =    -0.00000183   -0.00000105    0.21627102
     atom    8 type  2   force =     0.00000255    0.00000147    0.21627025
     atom    9 type  1   force =     0.00001761    0.00001017   -0.21626624
     atom   10 type  1   force =    -0.00001872   -0.00001081   -0.21628313
     atom   11 type  2   force =    -0.00000232   -0.00000134    0.21627106
     atom   12 type  2   force =     0.00000212    0.00000122    0.21627081
     atom   13 type  1   force =     0.00001481    0.00000855   -0.21627138
     atom   14 type  1   force =    -0.00002047   -0.00001182   -0.21626696
     atom   15 type  2   force =    -0.00000249   -0.00000144    0.21627109
     atom   16 type  2   force =     0.00000274    0.00000158    0.21627059
     The non-local contrib.  to forces
     atom    1 type  1   force =    -0.00002051   -0.00001184   -0.38230943
     atom    2 type  1   force =     0.00002127    0.00001228   -0.38231923
     atom    3 type  2   force =    -0.00012193   -0.00007040   -0.18138426
     atom    4 type  2   force =     0.00012124    0.00007000   -0.18138646
     atom    5 type  1   force =    -0.00001993   -0.00001151   -0.38230919
     atom    6 type  1   force =     0.00002263    0.00001307   -0.38231368
     atom    7 type  2   force =    -0.00012154   -0.00007017   -0.18138122
     atom    8 type  2   force =     0.00012041    0.00006952   -0.18138912
     atom    9 type  1   force =    -0.00002172   -0.00001254   -0.38231108
     atom   10 type  1   force =     0.00002149    0.00001241   -0.38232040
     atom   11 type  2   force =    -0.00011973   -0.00006912   -0.18138504
     atom   12 type  2   force =     0.00011986    0.00006920   -0.18138648
     atom   13 type  1   force =    -0.00002283   -0.00001318   -0.38231212
     atom   14 type  1   force =     0.00002002    0.00001156   -0.38231132
     atom   15 type  2   force =    -0.00012076   -0.00006972   -0.18138099
     atom   16 type  2   force =     0.00012086    0.00006978   -0.18138738
     The ionic contribution  to forces
     atom    1 type  1   force =    -0.00000000    0.00000000   -2.79035799
     atom    2 type  1   force =     0.00000000   -0.00000000   -2.79035799
     atom    3 type  2   force =    -0.00000000    0.00000000    2.79035799
     atom    4 type  2   force =     0.00000000   -0.00000000    2.79035799
     atom    5 type  1   force =    -0.00000000    0.00000000   -2.79035799
     atom    6 type  1   force =     0.00000000   -0.00000000   -2.79035799
     atom    7 type  2   force =    -0.00000000    0.00000000    2.79035799
     atom    8 type  2   force =     0.00000000   -0.00000000    2.79035799
     atom    9 type  1   force =    -0.00000000    0.00000000   -2.79035799
     atom   10 type  1   force =     0.00000000   -0.00000000   -2.79035799
     atom   11 type  2   force =    -0.00000000    0.00000000    2.79035799
     atom   12 type  2   force =     0.00000000   -0.00000000    2.79035799
     atom   13 type  1   force =    -0.00000000    0.00000000   -2.79035799
     atom   14 type  1   force =     0.00000000   -0.00000000   -2.79035799
     atom   15 type  2   force =    -0.00000000    0.00000000    2.79035799
     atom   16 type  2   force =     0.00000000   -0.00000000    2.79035799
     The local contribution  to forces
     atom    1 type  1   force =     0.00003713    0.00002144    2.91291496
     atom    2 type  1   force =    -0.00003818   -0.00002213    2.91293741
     atom    3 type  2   force =     0.00011087    0.00006401   -2.39321584
     atom    4 type  2   force =    -0.00011491   -0.00006637   -2.39322661
     atom    5 type  1   force =     0.00003277    0.00001892    2.91291482
     atom    6 type  1   force =    -0.00004139   -0.00002398    2.91292376
     atom    7 type  2   force =     0.00011671    0.00006738   -2.39320105
     atom    8 type  2   force =    -0.00011463   -0.00006620   -2.39322628
     atom    9 type  1   force =     0.00003791    0.00002189    2.91291968
     atom   10 type  1   force =    -0.00003747   -0.00002172    2.91294066
     atom   11 type  2   force =     0.00011853    0.00006843   -2.39321633
     atom   12 type  2   force =    -0.00011551   -0.00006671   -2.39322747
     atom   13 type  1   force =     0.00004382    0.00002530    2.91292493
     atom   14 type  1   force =    -0.00003408   -0.00001976    2.91291392
     atom   15 type  2   force =     0.00011825    0.00006827   -2.39321484
     atom   16 type  2   force =    -0.00011567   -0.00006681   -2.39321812
     The core correction contribution to forces
     atom    1 type  1   force =    -0.00000117   -0.00000068    0.04346999
     atom    2 type  1   force =     0.00000119    0.00000067    0.04347018
     atom    3 type  2   force =     0.00000134    0.00000077    0.00052973
     atom    4 type  2   force =    -0.00000134   -0.00000077    0.00052973
     atom    5 type  1   force =    -0.00000100   -0.00000058    0.04346988
     atom    6 type  1   force =     0.00000114    0.00000064    0.04347023
     atom    7 type  2   force =     0.00000136    0.00000078    0.00052974
     atom    8 type  2   force =    -0.00000132   -0.00000076    0.00052977
     atom    9 type  1   force =    -0.00000107   -0.00000062    0.04347000
     atom   10 type  1   force =     0.00000110    0.00000062    0.04347017
     atom   11 type  2   force =     0.00000133    0.00000077    0.00052974
     atom   12 type  2   force =    -0.00000133   -0.00000077    0.00052973
     atom   13 type  1   force =    -0.00000124   -0.00000071    0.04346988
     atom   14 type  1   force =     0.00000112    0.00000063    0.04347036
     atom   15 type  2   force =     0.00000135    0.00000078    0.00052968
     atom   16 type  2   force =    -0.00000135   -0.00000078    0.00052978
     The Hubbard contrib.    to forces
     atom    1 type  1   force =     0.00000000    0.00000000    0.00000000
     atom    2 type  1   force =     0.00000000    0.00000000    0.00000000
     atom    3 type  2   force =     0.00000000    0.00000000    0.00000000
     atom    4 type  2   force =     0.00000000    0.00000000    0.00000000
     atom    5 type  1   force =     0.00000000    0.00000000    0.00000000
     atom    6 type  1   force =     0.00000000    0.00000000    0.00000000
     atom    7 type  2   force =     0.00000000    0.00000000    0.00000000
     atom    8 type  2   force =     0.00000000    0.00000000    0.00000000
     atom    9 type  1   force =     0.00000000    0.00000000    0.00000000
     atom   10 type  1   force =     0.00000000    0.00000000    0.00000000
     atom   11 type  2   force =     0.00000000    0.00000000    0.00000000
     atom   12 type  2   force =     0.00000000    0.00000000    0.00000000
     atom   13 type  1   force =     0.00000000    0.00000000    0.00000000
     atom   14 type  1   force =     0.00000000    0.00000000    0.00000000
     atom   15 type  2   force =     0.00000000    0.00000000    0.00000000
     atom   16 type  2   force =     0.00000000    0.00000000    0.00000000
     The SCF correction term to forces
     atom    1 type  1   force =     0.00000347    0.00000200    0.00002258
     atom    2 type  1   force =    -0.00000361   -0.00000209   -0.00000837
     atom    3 type  2   force =     0.00000769    0.00000444   -0.00001349
     atom    4 type  2   force =    -0.00000243   -0.00000140   -0.00000094
     atom    5 type  1   force =     0.00000818    0.00000472    0.00002354
     atom    6 type  1   force =     0.00000181    0.00000105    0.00000824
     atom    7 type  2   force =     0.00000136    0.00000078   -0.00003132
     atom    8 type  2   force =    -0.00000219   -0.00000127    0.00000100
     atom    9 type  1   force =     0.00000220    0.00000127    0.00001626
     atom   10 type  1   force =    -0.00000410   -0.00000237   -0.00001246
     atom   11 type  2   force =    -0.00000275   -0.00000159   -0.00001218
     atom   12 type  2   force =    -0.00000119   -0.00000069    0.00000015
     atom   13 type  1   force =    -0.00000523   -0.00000302    0.00000703
     atom   14 type  1   force =    -0.00000778   -0.00000449    0.00002118
     atom   15 type  2   force =    -0.00000163   -0.00000094   -0.00001764
     atom   16 type  2   force =    -0.00000140   -0.00000081   -0.00000857

     Total force =     0.865083     Total SCF correction =     0.000065

     General routines

     Parallel routines

   This run was terminated on:  18:42: 7  28Aug2025

   JOB DONE.
Note: The following floating-point exceptions are signalling: IEEE_UNDERFLOW_FLAG IEEE_DENORMAL
Note: The following floating-point exceptions are signalling: IEEE_UNDERFLOW_FLAG IEEE_DENORMAL
Note: The following floating-point exceptions are signalling: IEEE_UNDERFLOW_FLAG IEEE_DENORMAL
Note: The following floating-point exceptions are signalling: IEEE_UNDERFLOW_FLAG IEEE_DENORMAL
Note: The following floating-point exceptions are signalling: IEEE_UNDERFLOW_FLAG IEEE_DENORMAL
Note: The following floating-point exceptions are signalling: IEEE_UNDERFLOW_FLAG IEEE_DENORMAL
Note: The following floating-point exceptions are signalling: IEEE_UNDERFLOW_FLAG IEEE_DENORMAL
Note: The following floating-point exceptions are signalling: IEEE_UNDERFLOW_FLAG IEEE_DENORMAL
Note: The following floating-point exceptions are signalling: IEEE_UNDERFLOW_FLAG IEEE_DENORMAL
Note: The following floating-point exceptions are signalling: IEEE_UNDERFLOW_FLAG IEEE_DENORMAL
Note: The following floating-point exceptions are signalling: IEEE_UNDERFLOW_FLAG IEEE_DENORMAL
Note: The following floating-point exceptions are signalling: IEEE_UNDERFLOW_FLAG IEEE_DENORMAL
Note: The following floating-point exceptions are signalling: IEEE_UNDERFLOW_FLAG IEEE_DENORMAL
Note: The following floating-point exceptions are signalling: IEEE_UNDERFLOW_FLAG IEEE_DENORMAL
Note: The following floating-point exceptions are signalling: IEEE_UNDERFLOW_FLAG IEEE_DENORMAL
Note: The following floating-point exceptions are signalling: IEEE_UNDERFLOW_FLAG IEEE_DENORMAL
Note: The following floating-point exceptions are signalling: IEEE_UNDERFLOW_FLAG IEEE_DENORMAL
Note: The following floating-point exceptions are signalling: IEEE_UNDERFLOW_FLAG IEEE_DENORMAL
Note: The following floating-point exceptions are signalling: IEEE_UNDERFLOW_FLAG IEEE_DENORMAL
Note: The following floating-point exceptions are signalling: IEEE_UNDERFLOW_FLAG IEEE_DENORMAL
Note: The following floating-point exceptions are signalling: IEEE_UNDERFLOW_FLAG IEEE_DENORMAL
Note: The following floating-point exceptions are signalling: IEEE_UNDERFLOW_FLAG IEEE_DENORMAL
Note: The following floating-point exceptions are signalling: IEEE_UNDERFLOW_FLAG IEEE_DENORMAL
Note: The following floating-point exceptions are signalling: IEEE_UNDERFLOW_FLAG IEEE_DENORMAL
Note: The following floating-point exceptions are signalling: IEEE_UNDERFLOW_FLAG IEEE_DENORMAL
Note: The following floating-point exceptions are signalling: IEEE_UNDERFLOW_FLAG IEEE_DENORMAL
Note: The following floating-point exceptions are signalling: IEEE_UNDERFLOW_FLAG IEEE_DENORMAL
Note: The following floating-point exceptions are signalling: IEEE_UNDERFLOW_FLAG IEEE_DENORMAL
Note: The following floating-point exceptions are signalling: IEEE_UNDERFLOW_FLAG IEEE_DENORMAL
Note: The following floating-point exceptions are signalling: IEEE_UNDERFLOW_FLAG IEEE_DENORMAL
Note: The following floating-point exceptions are signalling: IEEE_UNDERFLOW_FLAG IEEE_DENORMAL
Note: The following floating-point exceptions are signalling: IEEE_UNDERFLOW_FLAG IEEE_DENORMAL