     Program PWSCF v.7.0 starts on 29Aug2025 at 10: 0:26

     K-points division:     npool     =       8
     R & G space division:  proc/nbgrp/npool/nimage =       4

     Reading input from /home/jvc/QEspresso7.2/ZnO_database/scripts/cell212.in/ZnO-3.40-1.65-212.in
Warning: card &CELL ignored
Warning: card / ignored
Warning: card &FCP ignored
Warning: card / ignored
Warning: card &RISM ignored
Warning: card / ignored

     Current dimensions of program PWSCF are:
     Max number of different atomic species (ntypx) = 10
     Max number of k-points (npk) =  40000
     Max angular momentum in pseudopotentials (lmaxx) =  4
     file Zn.upf: wavefunction(s)  3D renormalized
     Found identity + (  0.0000  0.0000  0.5000) symmetry
     This is a supercell, fractional translations are disabled
     Message from routine setup:
     using ibrav=0 with symmetry is DISCOURAGED, use correct ibrav instead

     Using Slab Decomposition

     bravais-lattice index     =            0
     lattice parameter (alat)  =      12.8520  a.u.
     unit-cell volume          =    1513.6120 (a.u.)^3
     number of atoms/cell      =           16
     number of atomic types    =            2
     number of electrons       =       144.00
     number of Kohn-Sham states=           72
     kinetic-energy cutoff     =      50.0000  Ry
     charge density cutoff     =     400.0000  Ry
     scf convergence threshold =      1.0E-08
     mixing beta               =       0.3000
     number of iterations used =            8  plain     mixing
     Exchange-correlation= PBE
                           (   1   4   3   4   0   0   0)

     celldm(1)=  12.852016  celldm(2)=   0.000000  celldm(3)=   0.000000
     celldm(4)=   0.000000  celldm(5)=   0.000000  celldm(6)=   0.000000

     crystal axes: (cart. coord. in units of alat)
               a(1) = (   1.000000   0.000000   0.000000 )
               a(2) = (  -0.250000   0.433013   0.000000 )
               a(3) = (   0.000000   0.000000   1.646646 )

     reciprocal axes: (cart. coord. in units 2 pi/alat)
               b(1) = (  1.000000  0.577350 -0.000000 )
               b(2) = (  0.000000  2.309401  0.000000 )
               b(3) = (  0.000000 -0.000000  0.607295 )

     PseudoPot. # 1 for Zn read from file:
     /home/jvc/QEspresso7.2/ZnO_database/pseudos/Zn.upf
     MD5 check sum: 7f56cabf9682ed8c977c2f7d0c5985c5
     Pseudo is Ultrasoft + core correction, Zval = 12.0
     Generated using &quot;atomic&quot; code by A. Dal Corso  v.6.2.2
     Using radial grid of 1201 points,  6 beta functions with:
                l(1) =   0
                l(2) =   0
                l(3) =   1
                l(4) =   1
                l(5) =   2
                l(6) =   2
     Q(r) pseudized with 0 coefficients

     PseudoPot. # 2 for O  read from file:
     /home/jvc/QEspresso7.2/ZnO_database/pseudos/O.upf
     MD5 check sum: 91400c9766925bcf19f520983a725ff0
     Pseudo is Ultrasoft + core correction, Zval =  6.0
     Generated using &quot;atomic&quot; code by A. Dal Corso  v.6.3MaX
     Using radial grid of 1095 points,  4 beta functions with:
                l(1) =   0
                l(2) =   0
                l(3) =   1
                l(4) =   1
     Q(r) pseudized with 0 coefficients

     atomic species   valence    mass     pseudopotential
        Zn            12.00    65.38000     Zn( 1.00)
        O              6.00    15.99900     O ( 1.00)

      2 Sym. Ops. (no inversion) found

                                    s                        frac. trans.

      isym =  1     identity

 cryst.   s( 1) = (     1          0          0      )
                  (     0          1          0      )
                  (     0          0          1      )

 cart.    s( 1) = (  1.0000000  0.0000000  0.0000000 )
                  (  0.0000000  1.0000000  0.0000000 )
                  (  0.0000000  0.0000000  1.0000000 )

      isym =  2     inv. 180 deg rotation - cryst. axis [0,1,0]

 cryst.   s( 2) = (     1          2          0      )
                  (     0         -1          0      )
                  (     0          0          1      )

 cart.    s( 2) = (  0.5000000  0.8660254  0.0000000 )
                  (  0.8660254 -0.5000000  0.0000000 )
                  (  0.0000000  0.0000000  1.0000000 )

   Cartesian axes

     site n.     atom                  positions (alat units)
         1           Zn  tau(   1) = (   0.2500000   0.1443376   0.4121830  )
         2           Zn  tau(   2) = (  -0.0000000   0.2886751   0.0005216  )
         3           O   tau(   3) = (   0.2500000   0.1443376   0.7242576  )
         4           O   tau(   4) = (  -0.0000000   0.2886751   0.3125962  )
         5           Zn  tau(   5) = (   0.2500000   0.1443376   1.2355058  )
         6           Zn  tau(   6) = (  -0.0000000   0.2886751   0.8238444  )
         7           O   tau(   7) = (   0.2500000   0.1443376   1.5475804  )
         8           O   tau(   8) = (  -0.0000000   0.2886751   1.1359190  )
         9           Zn  tau(   9) = (   0.7500000   0.1443376   0.4121830  )
        10           Zn  tau(  10) = (   0.5000000   0.2886751   0.0005216  )
        11           O   tau(  11) = (   0.7500000   0.1443376   0.7242576  )
        12           O   tau(  12) = (   0.5000000   0.2886751   0.3125962  )
        13           Zn  tau(  13) = (   0.7500000   0.1443376   1.2355058  )
        14           Zn  tau(  14) = (   0.5000000   0.2886751   0.8238444  )
        15           O   tau(  15) = (   0.7500000   0.1443376   1.5475804  )
        16           O   tau(  16) = (   0.5000000   0.2886751   1.1359190  )

   Crystallographic axes

     site n.     atom                  positions (cryst. coord.)
         1           Zn  tau(   1) = (  0.3333333  0.3333333  0.2503168  )
         2           Zn  tau(   2) = (  0.1666667  0.6666667  0.0003168  )
         3           O   tau(   3) = (  0.3333333  0.3333333  0.4398382  )
         4           O   tau(   4) = (  0.1666667  0.6666667  0.1898382  )
         5           Zn  tau(   5) = (  0.3333333  0.3333333  0.7503168  )
         6           Zn  tau(   6) = (  0.1666667  0.6666667  0.5003168  )
         7           O   tau(   7) = (  0.3333333  0.3333333  0.9398382  )
         8           O   tau(   8) = (  0.1666667  0.6666667  0.6898382  )
         9           Zn  tau(   9) = (  0.8333333  0.3333333  0.2503168  )
        10           Zn  tau(  10) = (  0.6666667  0.6666667  0.0003168  )
        11           O   tau(  11) = (  0.8333333  0.3333333  0.4398382  )
        12           O   tau(  12) = (  0.6666667  0.6666667  0.1898382  )
        13           Zn  tau(  13) = (  0.8333333  0.3333333  0.7503168  )
        14           Zn  tau(  14) = (  0.6666667  0.6666667  0.5003168  )
        15           O   tau(  15) = (  0.8333333  0.3333333  0.9398382  )
        16           O   tau(  16) = (  0.6666667  0.6666667  0.6898382  )

     number of k points=    80
                       cart. coord. in units 2pi/alat
        k(    1) = (   0.0000000   0.0000000   0.0000000), wk =   0.0092593
        k(    2) = (   0.0000000   0.0000000   0.1012159), wk =   0.0185185
        k(    3) = (   0.0000000   0.0000000   0.2024317), wk =   0.0185185
        k(    4) = (   0.0000000   0.0000000  -0.3036476), wk =   0.0092593
        k(    5) = (   0.0000000   0.3849002   0.0000000), wk =   0.0370370
        k(    6) = (   0.0000000   0.3849002   0.1012159), wk =   0.0370370
        k(    7) = (   0.0000000   0.3849002   0.2024317), wk =   0.0370370
        k(    8) = (   0.0000000   0.3849002  -0.3036476), wk =   0.0370370
        k(    9) = (   0.0000000   0.7698004   0.0000000), wk =   0.0370370
        k(   10) = (   0.0000000   0.7698004   0.1012159), wk =   0.0370370
        k(   11) = (   0.0000000   0.7698004   0.2024317), wk =   0.0370370
        k(   12) = (   0.0000000   0.7698004  -0.3036476), wk =   0.0370370
        k(   13) = (   0.0000000  -1.1547005   0.0000000), wk =   0.0092593
        k(   14) = (   0.0000000  -1.1547005   0.1012159), wk =   0.0185185
        k(   15) = (   0.0000000  -1.1547005   0.2024317), wk =   0.0185185
        k(   16) = (   0.0000000  -1.1547005  -0.3036476), wk =   0.0092593
        k(   17) = (   0.1666667   0.0962250   0.0000000), wk =   0.0185185
        k(   18) = (   0.1666667   0.0962250   0.1012159), wk =   0.0185185
        k(   19) = (   0.1666667   0.0962250   0.2024317), wk =   0.0185185
        k(   20) = (   0.1666667   0.0962250  -0.3036476), wk =   0.0185185
        k(   21) = (   0.1666667   0.4811252   0.0000000), wk =   0.0370370
        k(   22) = (   0.1666667   0.4811252   0.1012159), wk =   0.0370370
        k(   23) = (   0.1666667   0.4811252   0.2024317), wk =   0.0370370
        k(   24) = (   0.1666667   0.4811252  -0.3036476), wk =   0.0370370
        k(   25) = (   0.1666667   0.8660254   0.0000000), wk =   0.0185185
        k(   26) = (   0.1666667   0.8660254   0.1012159), wk =   0.0370370
        k(   27) = (   0.1666667   0.8660254   0.2024317), wk =   0.0370370
        k(   28) = (   0.1666667   0.8660254  -0.3036476), wk =   0.0185185
        k(   29) = (   0.1666667  -1.0584755   0.0000000), wk =   0.0185185
        k(   30) = (   0.1666667  -1.0584755   0.1012159), wk =   0.0185185
        k(   31) = (   0.1666667  -1.0584755   0.2024317), wk =   0.0185185
        k(   32) = (   0.1666667  -1.0584755  -0.3036476), wk =   0.0185185
        k(   33) = (   0.1666667  -0.6735753   0.0000000), wk =   0.0370370
        k(   34) = (   0.1666667  -0.6735753   0.1012159), wk =   0.0370370
        k(   35) = (   0.1666667  -0.6735753   0.2024317), wk =   0.0370370
        k(   36) = (   0.1666667  -0.6735753  -0.3036476), wk =   0.0370370
        k(   37) = (   0.1666667  -0.2886751   0.0000000), wk =   0.0185185
        k(   38) = (   0.1666667  -0.2886751   0.1012159), wk =   0.0370370
        k(   39) = (   0.1666667  -0.2886751   0.2024317), wk =   0.0370370
        k(   40) = (   0.1666667  -0.2886751  -0.3036476), wk =   0.0185185
        k(   41) = (   0.3333333   0.1924501   0.0000000), wk =   0.0185185
        k(   42) = (   0.3333333   0.1924501   0.1012159), wk =   0.0185185
        k(   43) = (   0.3333333   0.1924501   0.2024317), wk =   0.0185185
        k(   44) = (   0.3333333   0.1924501  -0.3036476), wk =   0.0185185
        k(   45) = (   0.3333333   0.5773503   0.0000000), wk =   0.0185185
        k(   46) = (   0.3333333   0.5773503   0.1012159), wk =   0.0370370
        k(   47) = (   0.3333333   0.5773503   0.2024317), wk =   0.0370370
        k(   48) = (   0.3333333   0.5773503  -0.3036476), wk =   0.0185185
        k(   49) = (   0.3333333  -0.9622504   0.0000000), wk =   0.0185185
        k(   50) = (   0.3333333  -0.9622504   0.1012159), wk =   0.0185185
        k(   51) = (   0.3333333  -0.9622504   0.2024317), wk =   0.0185185
        k(   52) = (   0.3333333  -0.9622504  -0.3036476), wk =   0.0185185
        k(   53) = (   0.3333333  -0.5773503   0.0000000), wk =   0.0185185
        k(   54) = (   0.3333333  -0.5773503   0.1012159), wk =   0.0370370
        k(   55) = (   0.3333333  -0.5773503   0.2024317), wk =   0.0370370
[...]
        k(   76) = (  -0.5000000   0.3333333  -0.3333333), wk =   0.0370370
        k(   77) = (   0.3333333   0.0000000  -0.1666667), wk =   0.0185185
        k(   78) = (   0.3333333   0.0000000  -0.3333333), wk =   0.0185185
        k(   79) = (  -0.6666667   0.5000000  -0.1666667), wk =   0.0185185
        k(   80) = (  -0.6666667   0.5000000  -0.3333333), wk =   0.0185185

     Check: negative core charge=   -0.000002

     Initial potential from superposition of free atoms

     starting charge     143.9702, renormalised to     144.0000
     Starting wfcs are  104 randomized atomic wfcs

     Self-consistent Calculation

     iteration #  1     ecut=    50.00 Ry     beta= 0.30
     Davidson diagonalization with overlap

     ethr =  1.00E-02,  avg # of iterations =  1.7

     total energy              =   -1445.74927336 Ry
     estimated scf accuracy    <       3.00745099 Ry

[...]

     total energy              =   -1446.46079047 Ry
     estimated scf accuracy    <       0.00000003 Ry

     iteration # 41     ecut=    50.00 Ry     beta= 0.30
     Davidson diagonalization with overlap

     ethr =  1.05E-11,  avg # of iterations =  4.0

     End of self-consistent calculation

          k = 0.0000 0.0000 0.0000 (  9033 PWs)   bands (ev):

   -11.8996 -11.6663 -11.6663 -11.4233 -11.4153 -11.3385 -11.3385 -11.2695
    -0.1673  -0.1673  -0.1188  -0.0825  -0.0825  -0.0553  -0.0550  -0.0205
    -0.0028  -0.0028  -0.0026  -0.0026   0.0787   0.0788   0.1332   0.1394
     0.3055   0.3055   0.4202   0.4299   0.4495   0.4495   0.5061   0.5781
     0.7133   0.7133   0.7794   0.7915   0.7915   0.7915   0.7915   0.8314
     0.8457   0.8457   0.8463   0.8463   0.8801   0.9116   0.9116   0.9381
     1.1717   1.4988   1.5760   1.5760   1.9515   2.7099   2.8651   2.8651
     3.3397   3.8768   3.8768   3.8953   3.8953   3.9961   4.3792   4.4678
     4.4683   4.7602   4.7602   4.7607   4.7607   4.9599   5.0466   5.0471

     occupation numbers
     1.0000   1.0000   1.0000   1.0000   1.0000   1.0000   1.0000   1.0000
     1.0000   1.0000   1.0000   1.0000   1.0000   1.0000   1.0000   1.0000
     1.0000   1.0000   1.0000   1.0000   1.0000   1.0000   1.0000   1.0000
     1.0000   1.0000   1.0000   1.0000   1.0000   1.0000   1.0000   1.0000
     1.0000   1.0000   1.0000   1.0000   1.0000   1.0000   1.0000   1.0000
     1.0000   1.0000   1.0000   1.0000   1.0000   1.0000   1.0000   1.0000
     1.0000   1.0000   1.0000   1.0000   1.0000   1.0000   1.0000   1.0000
     1.0000   1.0000   1.0000   1.0000   1.0000   1.0000   1.0000   1.0000
     1.0000   1.0000   1.0000   1.0000   1.0000   1.0000   1.0000   1.0000

[...]

          k =-0.5000-0.2887 0.0000 (  8982 PWs)   bands (ev):

[...]

          k = 0.3333 0.1925-0.2024 (  9043 PWs)   bands (ev):

[...]

          k =-0.6667 0.7698-0.2024 (  9034 PWs)   bands (ev):

   -11.4089 -11.4089 -11.3790 -11.3790 -11.3024 -11.3024 -11.2763 -11.2763
    -0.0813  -0.0813  -0.0633  -0.0633   0.0162   0.0162   0.1088   0.1088
     0.1913   0.1913   0.2012   0.2012   0.3524   0.3524   0.3796   0.3796
     0.3976   0.3976   0.4252   0.4252   0.4809   0.4809   0.4947   0.4947
     0.7140   0.7140   0.7673   0.7673   0.7957   0.7957   0.8143   0.8143
     0.8965   0.8965   0.9072   0.9072   0.9936   0.9936   1.0363   1.0363
     1.6132   1.6132   1.6761   1.6761   1.9484   1.9484   2.0665   2.0665
     2.8191   2.8191   3.0863   3.0863   3.1526   3.1526   3.5378   3.5378
     3.7664   3.7664   3.9533   3.9533   4.1289   4.1289   4.1665   4.1665

     occupation numbers
     1.0000   1.0000   1.0000   1.0000   1.0000   1.0000   1.0000   1.0000
     1.0000   1.0000   1.0000   1.0000   1.0000   1.0000   1.0000   1.0000
     1.0000   1.0000   1.0000   1.0000   1.0000   1.0000   1.0000   1.0000
     1.0000   1.0000   1.0000   1.0000   1.0000   1.0000   1.0000   1.0000
     1.0000   1.0000   1.0000   1.0000   1.0000   1.0000   1.0000   1.0000
     1.0000   1.0000   1.0000   1.0000   1.0000   1.0000   1.0000   1.0000
     1.0000   1.0000   1.0000   1.0000   1.0000   1.0000   1.0000   1.0000
     1.0000   1.0000   1.0000   1.0000   1.0000   1.0000   1.0000   1.0000
     1.0000   1.0000   1.0000   1.0000   1.0000   1.0000   1.0000   1.0000

     highest occupied level (ev):     5.0471

!    total energy              =   -1446.46079046 Ry
     estimated scf accuracy    <          8.1E-09 Ry

     The total energy is the sum of the following terms:
     one-electron contribution =    -679.97340974 Ry
     hartree contribution      =     495.42616143 Ry
     xc contribution           =    -437.14192665 Ry
     ewald contribution        =    -824.77161550 Ry

     convergence has been achieved in  41 iterations

     Forces acting on atoms (cartesian axes, Ry/au):

     atom    1 type  1   force =     0.00000291    0.00000168    0.00106383
     atom    2 type  1   force =     0.00000079    0.00000046    0.00106358
     atom    3 type  2   force =    -0.00000385   -0.00000222   -0.00106169
     atom    4 type  2   force =     0.00000410    0.00000237   -0.00106462
     atom    5 type  1   force =    -0.00000334   -0.00000193    0.00105745
     atom    6 type  1   force =    -0.00000352   -0.00000203    0.00106350
     atom    7 type  2   force =    -0.00000416   -0.00000240   -0.00106251
     atom    8 type  2   force =     0.00000387    0.00000223   -0.00105960
     atom    9 type  1   force =    -0.00000259   -0.00000149    0.00106652
     atom   10 type  1   force =    -0.00000090   -0.00000052    0.00106837
     atom   11 type  2   force =    -0.00000402   -0.00000232   -0.00106114
     atom   12 type  2   force =     0.00000388    0.00000224   -0.00106472
     atom   13 type  1   force =     0.00000345    0.00000199    0.00105632
     atom   14 type  1   force =     0.00000321    0.00000186    0.00105799
     atom   15 type  2   force =    -0.00000384   -0.00000222   -0.00106337
     atom   16 type  2   force =     0.00000400    0.00000231   -0.00105992
     The non-local contrib.  to forces
     atom    1 type  1   force =    -0.00000462   -0.00000267    0.04750619
     atom    2 type  1   force =     0.00000683    0.00000394    0.04750699
     atom    3 type  2   force =    -0.00019055   -0.00011001    0.05655492
     atom    4 type  2   force =     0.00019149    0.00011055    0.05655334
     atom    5 type  1   force =    -0.00000807   -0.00000466    0.04750203
     atom    6 type  1   force =     0.00000417    0.00000241    0.04750503
     atom    7 type  2   force =    -0.00019096   -0.00011025    0.05655828
     atom    8 type  2   force =     0.00019057    0.00011003    0.05655860
     atom    9 type  1   force =    -0.00000826   -0.00000477    0.04750781
     atom   10 type  1   force =     0.00000612    0.00000353    0.04750996
     atom   11 type  2   force =    -0.00019056   -0.00011002    0.05655717
     atom   12 type  2   force =     0.00018979    0.00010958    0.05655313
     atom   13 type  1   force =    -0.00000483   -0.00000279    0.04750070
     atom   14 type  1   force =     0.00000844    0.00000487    0.04750171
     atom   15 type  2   force =    -0.00019026   -0.00010985    0.05655613
     atom   16 type  2   force =     0.00019073    0.00011012    0.05655910
     The ionic contribution  to forces
     atom    1 type  1   force =    -0.00000000    0.00000000    0.42995591
     atom    2 type  1   force =     0.00000000   -0.00000000    0.42995591
     atom    3 type  2   force =    -0.00000000    0.00000000   -0.42995591
     atom    4 type  2   force =     0.00000000   -0.00000000   -0.42995591
     atom    5 type  1   force =    -0.00000000    0.00000000    0.42995591
     atom    6 type  1   force =     0.00000000   -0.00000000    0.42995591
     atom    7 type  2   force =    -0.00000000    0.00000000   -0.42995591
     atom    8 type  2   force =     0.00000000   -0.00000000   -0.42995591
     atom    9 type  1   force =    -0.00000000    0.00000000    0.42995591
     atom   10 type  1   force =     0.00000000   -0.00000000    0.42995591
     atom   11 type  2   force =    -0.00000000    0.00000000   -0.42995591
     atom   12 type  2   force =     0.00000000   -0.00000000   -0.42995591
     atom   13 type  1   force =    -0.00000000    0.00000000    0.42995591
     atom   14 type  1   force =     0.00000000   -0.00000000    0.42995591
     atom   15 type  2   force =    -0.00000000    0.00000000   -0.42995591
     atom   16 type  2   force =     0.00000000   -0.00000000   -0.42995591
     The local contribution  to forces
     atom    1 type  1   force =     0.00000695    0.00000401   -0.47337676
     atom    2 type  1   force =    -0.00001487   -0.00000869   -0.47337351
     atom    3 type  2   force =     0.00018455    0.00010655    0.37284153
     atom    4 type  2   force =    -0.00018520   -0.00010695    0.37283663
     atom    5 type  1   force =     0.00001868    0.00001078   -0.47336211
     atom    6 type  1   force =    -0.00000636   -0.00000378   -0.47337683
     atom    7 type  2   force =     0.00018455    0.00010655    0.37283905
     atom    8 type  2   force =    -0.00018409   -0.00010631    0.37284617
     atom    9 type  1   force =     0.00001926    0.00001112   -0.47338183
     atom   10 type  1   force =    -0.00001141   -0.00000669   -0.47338239
     atom   11 type  2   force =     0.00018430    0.00010641    0.37284068
     atom   12 type  2   force =    -0.00018371   -0.00010609    0.37283647
     atom   13 type  1   force =     0.00000761    0.00000439   -0.47335981
     atom   14 type  1   force =    -0.00001954   -0.00001139   -0.47336661
     atom   15 type  2   force =     0.00018437    0.00010644    0.37283946
     atom   16 type  2   force =    -0.00018464   -0.00010663    0.37284564
     The core correction contribution to forces
     atom    1 type  1   force =    -0.00000565   -0.00000325   -0.00302137
     atom    2 type  1   force =     0.00000602    0.00000340   -0.00302221
     atom    3 type  2   force =     0.00000217    0.00000125   -0.00050111
     atom    4 type  2   force =    -0.00000215   -0.00000124   -0.00050297
     atom    5 type  1   force =    -0.00000593   -0.00000342   -0.00302479
     atom    6 type  1   force =     0.00000580    0.00000328   -0.00302374
     atom    7 type  2   force =     0.00000217    0.00000125   -0.00050404
     atom    8 type  2   force =    -0.00000214   -0.00000123   -0.00050219
     atom    9 type  1   force =    -0.00000612   -0.00000347   -0.00302130
     atom   10 type  1   force =     0.00000575    0.00000330   -0.00302197
     atom   11 type  2   force =     0.00000214    0.00000123   -0.00050115
     atom   12 type  2   force =    -0.00000216   -0.00000124   -0.00050295
     atom   13 type  1   force =    -0.00000583   -0.00000331   -0.00302480
     atom   14 type  1   force =     0.00000599    0.00000344   -0.00302393
     atom   15 type  2   force =     0.00000214    0.00000123   -0.00050402
     atom   16 type  2   force =    -0.00000217   -0.00000125   -0.00050218
     The Hubbard contrib.    to forces
     atom    1 type  1   force =     0.00000000    0.00000000    0.00000000
     atom    2 type  1   force =     0.00000000    0.00000000    0.00000000
     atom    3 type  2   force =     0.00000000    0.00000000    0.00000000
     atom    4 type  2   force =     0.00000000    0.00000000    0.00000000
     atom    5 type  1   force =     0.00000000    0.00000000    0.00000000
     atom    6 type  1   force =     0.00000000    0.00000000    0.00000000
     atom    7 type  2   force =     0.00000000    0.00000000    0.00000000
     atom    8 type  2   force =     0.00000000    0.00000000    0.00000000
     atom    9 type  1   force =     0.00000000    0.00000000    0.00000000
     atom   10 type  1   force =     0.00000000    0.00000000    0.00000000
     atom   11 type  2   force =     0.00000000    0.00000000    0.00000000
     atom   12 type  2   force =     0.00000000    0.00000000    0.00000000
     atom   13 type  1   force =     0.00000000    0.00000000    0.00000000
     atom   14 type  1   force =     0.00000000    0.00000000    0.00000000
     atom   15 type  2   force =     0.00000000    0.00000000    0.00000000
     atom   16 type  2   force =     0.00000000    0.00000000    0.00000000
     The SCF correction term to forces
     atom    1 type  1   force =     0.00000626    0.00000361   -0.00000017
     atom    2 type  1   force =     0.00000291    0.00000168   -0.00000364
     atom    3 type  2   force =     0.00000001    0.00000000   -0.00000117
     atom    4 type  2   force =     0.00000000    0.00000000    0.00000424
     atom    5 type  1   force =    -0.00000798   -0.00000461   -0.00001364
     atom    6 type  1   force =    -0.00000702   -0.00000406    0.00000309
     atom    7 type  2   force =     0.00000011    0.00000006    0.00000007
     atom    8 type  2   force =    -0.00000044   -0.00000025   -0.00000633
     atom    9 type  1   force =    -0.00000747   -0.00000431    0.00000589
     atom   10 type  1   force =    -0.00000128   -0.00000074    0.00000682
     atom   11 type  2   force =     0.00000014    0.00000008   -0.00000196
     atom   12 type  2   force =    -0.00000001   -0.00000000    0.00000450
     atom   13 type  1   force =     0.00000650    0.00000375   -0.00001572
     atom   14 type  1   force =     0.00000841    0.00000485   -0.00000913
     atom   15 type  2   force =    -0.00000005   -0.00000003    0.00000092
     atom   16 type  2   force =     0.00000011    0.00000006   -0.00000661

     Total force =     0.004249     Total SCF correction =     0.000035

     General routines

     Parallel routines

   This run was terminated on:  10:18:52  29Aug2025

   JOB DONE.
Note: The following floating-point exceptions are signalling: IEEE_UNDERFLOW_FLAG IEEE_DENORMAL
Note: The following floating-point exceptions are signalling: IEEE_UNDERFLOW_FLAG IEEE_DENORMAL
Note: The following floating-point exceptions are signalling: IEEE_UNDERFLOW_FLAG IEEE_DENORMAL
Note: The following floating-point exceptions are signalling: IEEE_UNDERFLOW_FLAG IEEE_DENORMAL
Note: The following floating-point exceptions are signalling: IEEE_UNDERFLOW_FLAG IEEE_DENORMAL
Note: The following floating-point exceptions are signalling: IEEE_UNDERFLOW_FLAG IEEE_DENORMAL
Note: The following floating-point exceptions are signalling: IEEE_UNDERFLOW_FLAG IEEE_DENORMAL
Note: The following floating-point exceptions are signalling: IEEE_UNDERFLOW_FLAG IEEE_DENORMAL
Note: The following floating-point exceptions are signalling: IEEE_UNDERFLOW_FLAG IEEE_DENORMAL
Note: The following floating-point exceptions are signalling: IEEE_UNDERFLOW_FLAG IEEE_DENORMAL
Note: The following floating-point exceptions are signalling: IEEE_UNDERFLOW_FLAG IEEE_DENORMAL
Note: The following floating-point exceptions are signalling: IEEE_UNDERFLOW_FLAG IEEE_DENORMAL
Note: The following floating-point exceptions are signalling: IEEE_UNDERFLOW_FLAG IEEE_DENORMAL
Note: The following floating-point exceptions are signalling: IEEE_UNDERFLOW_FLAG IEEE_DENORMAL
Note: The following floating-point exceptions are signalling: IEEE_UNDERFLOW_FLAG IEEE_DENORMAL
Note: The following floating-point exceptions are signalling: IEEE_UNDERFLOW_FLAG IEEE_DENORMAL
Note: The following floating-point exceptions are signalling: IEEE_UNDERFLOW_FLAG IEEE_DENORMAL
Note: The following floating-point exceptions are signalling: IEEE_UNDERFLOW_FLAG IEEE_DENORMAL
Note: The following floating-point exceptions are signalling: IEEE_UNDERFLOW_FLAG IEEE_DENORMAL
Note: The following floating-point exceptions are signalling: IEEE_UNDERFLOW_FLAG IEEE_DENORMAL
Note: The following floating-point exceptions are signalling: IEEE_UNDERFLOW_FLAG IEEE_DENORMAL
Note: The following floating-point exceptions are signalling: IEEE_UNDERFLOW_FLAG IEEE_DENORMAL
Note: The following floating-point exceptions are signalling: IEEE_UNDERFLOW_FLAG IEEE_DENORMAL
Note: The following floating-point exceptions are signalling: IEEE_UNDERFLOW_FLAG IEEE_DENORMAL
Note: The following floating-point exceptions are signalling: IEEE_UNDERFLOW_FLAG IEEE_DENORMAL
Note: The following floating-point exceptions are signalling: IEEE_UNDERFLOW_FLAG IEEE_DENORMAL
Note: The following floating-point exceptions are signalling: IEEE_UNDERFLOW_FLAG IEEE_DENORMAL
Note: The following floating-point exceptions are signalling: IEEE_UNDERFLOW_FLAG IEEE_DENORMAL
Note: The following floating-point exceptions are signalling: IEEE_UNDERFLOW_FLAG IEEE_DENORMAL
Note: The following floating-point exceptions are signalling: IEEE_UNDERFLOW_FLAG IEEE_DENORMAL
Note: The following floating-point exceptions are signalling: IEEE_UNDERFLOW_FLAG IEEE_DENORMAL
Note: The following floating-point exceptions are signalling: IEEE_UNDERFLOW_FLAG IEEE_DENORMAL