     Program PWSCF v.7.0 starts on 28Aug2025 at 19:43:41

     K-points division:     npool     =       8
     R & G space division:  proc/nbgrp/npool/nimage =       4

     Reading input from /home/jvc/QEspresso7.2/ZnO_database/scripts/cell212.in/ZnO-2.94-1.74-212.in
Warning: card &CELL ignored
Warning: card / ignored
Warning: card &FCP ignored
Warning: card / ignored
Warning: card &RISM ignored
Warning: card / ignored

     Current dimensions of program PWSCF are:
     Max number of different atomic species (ntypx) = 10
     Max number of k-points (npk) =  40000
     Max angular momentum in pseudopotentials (lmaxx) =  4
     file Zn.upf: wavefunction(s)  3D renormalized
     Found identity + (  0.0000  0.0000 -0.5000) symmetry
     This is a supercell, fractional translations are disabled
     Message from routine setup:
     using ibrav=0 with symmetry is DISCOURAGED, use correct ibrav instead

     Using Slab Decomposition

     bravais-lattice index     =            0
     lattice parameter (alat)  =      11.1219  a.u.
     unit-cell volume          =    1038.6414 (a.u.)^3
     number of atoms/cell      =           16
     number of atomic types    =            2
     number of electrons       =       144.00
     number of Kohn-Sham states=           72
     kinetic-energy cutoff     =      50.0000  Ry
     charge density cutoff     =     400.0000  Ry
     scf convergence threshold =      1.0E-08
     mixing beta               =       0.3000
     number of iterations used =            8  plain     mixing
     Exchange-correlation= PBE
                           (   1   4   3   4   0   0   0)

     celldm(1)=  11.121937  celldm(2)=   0.000000  celldm(3)=   0.000000
     celldm(4)=   0.000000  celldm(5)=   0.000000  celldm(6)=   0.000000

     crystal axes: (cart. coord. in units of alat)
               a(1) = (   1.000000   0.000000   0.000000 )
               a(2) = (  -0.250000   0.433013   0.000000 )
               a(3) = (   0.000000   0.000000   1.743507 )

     reciprocal axes: (cart. coord. in units 2 pi/alat)
               b(1) = (  1.000000  0.577350 -0.000000 )
               b(2) = (  0.000000  2.309401  0.000000 )
               b(3) = (  0.000000 -0.000000  0.573557 )

     PseudoPot. # 1 for Zn read from file:
     /home/jvc/QEspresso7.2/ZnO_database/pseudos/Zn.upf
     MD5 check sum: 7f56cabf9682ed8c977c2f7d0c5985c5
     Pseudo is Ultrasoft + core correction, Zval = 12.0
     Generated using &quot;atomic&quot; code by A. Dal Corso  v.6.2.2
     Using radial grid of 1201 points,  6 beta functions with:
                l(1) =   0
                l(2) =   0
                l(3) =   1
                l(4) =   1
                l(5) =   2
                l(6) =   2
     Q(r) pseudized with 0 coefficients

     PseudoPot. # 2 for O  read from file:
     /home/jvc/QEspresso7.2/ZnO_database/pseudos/O.upf
     MD5 check sum: 91400c9766925bcf19f520983a725ff0
     Pseudo is Ultrasoft + core correction, Zval =  6.0
     Generated using &quot;atomic&quot; code by A. Dal Corso  v.6.3MaX
     Using radial grid of 1095 points,  4 beta functions with:
                l(1) =   0
                l(2) =   0
                l(3) =   1
                l(4) =   1
     Q(r) pseudized with 0 coefficients

     atomic species   valence    mass     pseudopotential
        Zn            12.00    65.38000     Zn( 1.00)
        O              6.00    15.99900     O ( 1.00)

      2 Sym. Ops. (no inversion) found

                                    s                        frac. trans.

      isym =  1     identity

 cryst.   s( 1) = (     1          0          0      )
                  (     0          1          0      )
                  (     0          0          1      )

 cart.    s( 1) = (  1.0000000  0.0000000  0.0000000 )
                  (  0.0000000  1.0000000  0.0000000 )
                  (  0.0000000  0.0000000  1.0000000 )

      isym =  2     inv. 180 deg rotation - cryst. axis [0,1,0]

 cryst.   s( 2) = (     1          2          0      )
                  (     0         -1          0      )
                  (     0          0          1      )

 cart.    s( 2) = (  0.5000000  0.8660254  0.0000000 )
                  (  0.8660254 -0.5000000  0.0000000 )
                  (  0.0000000  0.0000000  1.0000000 )

   Cartesian axes

     site n.     atom                  positions (alat units)
         1           Zn  tau(   1) = (   0.2500000   0.1443376   0.4364291  )
         2           Zn  tau(   2) = (  -0.0000000   0.2886751   0.0005523  )
         3           O   tau(   3) = (   0.2500000   0.1443376   0.7668610  )
         4           O   tau(   4) = (  -0.0000000   0.2886751   0.3309842  )
         5           Zn  tau(   5) = (   0.2500000   0.1443376   1.3081826  )
         6           Zn  tau(   6) = (  -0.0000000   0.2886751   0.8723058  )
         7           O   tau(   7) = (   0.2500000   0.1443376   1.6386145  )
         8           O   tau(   8) = (  -0.0000000   0.2886751   1.2027378  )
         9           Zn  tau(   9) = (   0.7500000   0.1443376   0.4364291  )
        10           Zn  tau(  10) = (   0.5000000   0.2886751   0.0005523  )
        11           O   tau(  11) = (   0.7500000   0.1443376   0.7668610  )
        12           O   tau(  12) = (   0.5000000   0.2886751   0.3309842  )
        13           Zn  tau(  13) = (   0.7500000   0.1443376   1.3081826  )
        14           Zn  tau(  14) = (   0.5000000   0.2886751   0.8723058  )
        15           O   tau(  15) = (   0.7500000   0.1443376   1.6386145  )
        16           O   tau(  16) = (   0.5000000   0.2886751   1.2027378  )

   Crystallographic axes

     site n.     atom                  positions (cryst. coord.)
         1           Zn  tau(   1) = (  0.3333333  0.3333333  0.2503168  )
         2           Zn  tau(   2) = (  0.1666667  0.6666667  0.0003168  )
         3           O   tau(   3) = (  0.3333333  0.3333333  0.4398382  )
         4           O   tau(   4) = (  0.1666667  0.6666667  0.1898382  )
         5           Zn  tau(   5) = (  0.3333333  0.3333333  0.7503168  )
         6           Zn  tau(   6) = (  0.1666667  0.6666667  0.5003168  )
         7           O   tau(   7) = (  0.3333333  0.3333333  0.9398382  )
         8           O   tau(   8) = (  0.1666667  0.6666667  0.6898382  )
         9           Zn  tau(   9) = (  0.8333333  0.3333333  0.2503168  )
        10           Zn  tau(  10) = (  0.6666667  0.6666667  0.0003168  )
        11           O   tau(  11) = (  0.8333333  0.3333333  0.4398382  )
        12           O   tau(  12) = (  0.6666667  0.6666667  0.1898382  )
        13           Zn  tau(  13) = (  0.8333333  0.3333333  0.7503168  )
        14           Zn  tau(  14) = (  0.6666667  0.6666667  0.5003168  )
        15           O   tau(  15) = (  0.8333333  0.3333333  0.9398382  )
        16           O   tau(  16) = (  0.6666667  0.6666667  0.6898382  )

     number of k points=    80
                       cart. coord. in units 2pi/alat
        k(    1) = (   0.0000000   0.0000000   0.0000000), wk =   0.0092593
        k(    2) = (   0.0000000   0.0000000   0.0955928), wk =   0.0185185
        k(    3) = (   0.0000000   0.0000000   0.1911855), wk =   0.0185185
        k(    4) = (   0.0000000   0.0000000  -0.2867783), wk =   0.0092593
        k(    5) = (   0.0000000   0.3849002   0.0000000), wk =   0.0370370
        k(    6) = (   0.0000000   0.3849002   0.0955928), wk =   0.0370370
        k(    7) = (   0.0000000   0.3849002   0.1911855), wk =   0.0370370
        k(    8) = (   0.0000000   0.3849002  -0.2867783), wk =   0.0370370
        k(    9) = (   0.0000000   0.7698004   0.0000000), wk =   0.0370370
        k(   10) = (   0.0000000   0.7698004   0.0955928), wk =   0.0370370
        k(   11) = (   0.0000000   0.7698004   0.1911855), wk =   0.0370370
        k(   12) = (   0.0000000   0.7698004  -0.2867783), wk =   0.0370370
        k(   13) = (   0.0000000  -1.1547005   0.0000000), wk =   0.0092593
        k(   14) = (   0.0000000  -1.1547005   0.0955928), wk =   0.0185185
        k(   15) = (   0.0000000  -1.1547005   0.1911855), wk =   0.0185185
        k(   16) = (   0.0000000  -1.1547005  -0.2867783), wk =   0.0092593
        k(   17) = (   0.1666667   0.0962250   0.0000000), wk =   0.0185185
        k(   18) = (   0.1666667   0.0962250   0.0955928), wk =   0.0185185
        k(   19) = (   0.1666667   0.0962250   0.1911855), wk =   0.0185185
        k(   20) = (   0.1666667   0.0962250  -0.2867783), wk =   0.0185185
        k(   21) = (   0.1666667   0.4811252   0.0000000), wk =   0.0370370
        k(   22) = (   0.1666667   0.4811252   0.0955928), wk =   0.0370370
        k(   23) = (   0.1666667   0.4811252   0.1911855), wk =   0.0370370
        k(   24) = (   0.1666667   0.4811252  -0.2867783), wk =   0.0370370
        k(   25) = (   0.1666667   0.8660254   0.0000000), wk =   0.0185185
        k(   26) = (   0.1666667   0.8660254   0.0955928), wk =   0.0370370
        k(   27) = (   0.1666667   0.8660254   0.1911855), wk =   0.0370370
        k(   28) = (   0.1666667   0.8660254  -0.2867783), wk =   0.0185185
        k(   29) = (   0.1666667  -1.0584755   0.0000000), wk =   0.0185185
        k(   30) = (   0.1666667  -1.0584755   0.0955928), wk =   0.0185185
        k(   31) = (   0.1666667  -1.0584755   0.1911855), wk =   0.0185185
        k(   32) = (   0.1666667  -1.0584755  -0.2867783), wk =   0.0185185
        k(   33) = (   0.1666667  -0.6735753   0.0000000), wk =   0.0370370
        k(   34) = (   0.1666667  -0.6735753   0.0955928), wk =   0.0370370
        k(   35) = (   0.1666667  -0.6735753   0.1911855), wk =   0.0370370
        k(   36) = (   0.1666667  -0.6735753  -0.2867783), wk =   0.0370370
        k(   37) = (   0.1666667  -0.2886751   0.0000000), wk =   0.0185185
        k(   38) = (   0.1666667  -0.2886751   0.0955928), wk =   0.0370370
        k(   39) = (   0.1666667  -0.2886751   0.1911855), wk =   0.0370370
        k(   40) = (   0.1666667  -0.2886751  -0.2867783), wk =   0.0185185
        k(   41) = (   0.3333333   0.1924501   0.0000000), wk =   0.0185185
        k(   42) = (   0.3333333   0.1924501   0.0955928), wk =   0.0185185
        k(   43) = (   0.3333333   0.1924501   0.1911855), wk =   0.0185185
        k(   44) = (   0.3333333   0.1924501  -0.2867783), wk =   0.0185185
        k(   45) = (   0.3333333   0.5773503   0.0000000), wk =   0.0185185
        k(   46) = (   0.3333333   0.5773503   0.0955928), wk =   0.0370370
        k(   47) = (   0.3333333   0.5773503   0.1911855), wk =   0.0370370
        k(   48) = (   0.3333333   0.5773503  -0.2867783), wk =   0.0185185
        k(   49) = (   0.3333333  -0.9622504   0.0000000), wk =   0.0185185
        k(   50) = (   0.3333333  -0.9622504   0.0955928), wk =   0.0185185
        k(   51) = (   0.3333333  -0.9622504   0.1911855), wk =   0.0185185
        k(   52) = (   0.3333333  -0.9622504  -0.2867783), wk =   0.0185185
        k(   53) = (   0.3333333  -0.5773503   0.0000000), wk =   0.0185185
        k(   54) = (   0.3333333  -0.5773503   0.0955928), wk =   0.0370370
        k(   55) = (   0.3333333  -0.5773503   0.1911855), wk =   0.0370370
[...]
        k(   77) = (   0.3333333   0.0000000  -0.1666667), wk =   0.0185185
        k(   78) = (   0.3333333   0.0000000  -0.3333333), wk =   0.0185185
        k(   79) = (  -0.6666667   0.5000000  -0.1666667), wk =   0.0185185
        k(   80) = (  -0.6666667   0.5000000  -0.3333333), wk =   0.0185185

     Check: negative core charge=   -0.000001

     Initial potential from superposition of free atoms

     starting charge     143.9702, renormalised to     144.0000
     Starting wfcs are  104 randomized atomic wfcs

     Self-consistent Calculation

     iteration #  1     ecut=    50.00 Ry     beta= 0.30
     Davidson diagonalization with overlap

     ethr =  1.00E-02,  avg # of iterations =  2.0

     total energy              =   -1445.50466965 Ry
     estimated scf accuracy    <       2.71517595 Ry

[...]

     c_bands:  1 eigenvalues not converged
     ethr =  5.77E-09,  avg # of iterations = 15.4

[...]

     total energy              =   -1446.03704979 Ry
     estimated scf accuracy    <       0.00000001 Ry

     iteration # 26     ecut=    50.00 Ry     beta= 0.30
     Davidson diagonalization with overlap

     ethr =  8.21E-12,  avg # of iterations =  1.4

     End of self-consistent calculation

          k = 0.0000 0.0000 0.0000 (  6219 PWs)   bands (ev):

    -9.2142  -8.7721  -8.7721  -8.2880  -8.1070  -7.9598  -7.9598  -7.8305
     3.0176   3.0176   3.1564   3.2656   3.2675   3.3974   3.3974   3.7948
     3.7950   3.8725   3.8847   3.8847   3.8850   3.8850   4.0091   4.0093
     4.2092   4.4806   4.4806   4.6006   4.6010   4.6010   4.7614   4.8289
     5.8051   5.8168   5.8168   5.9650   5.9650   5.9650   5.9650   6.0776
     6.0776   6.0838   6.1135   6.1135   6.1662   6.1662   6.1765   6.2972
     6.4285   6.5405   6.5448   6.5448   6.7061   7.4947   8.2313   8.2313
     8.2634   8.8475   8.8475   9.0581   9.0581   9.1556   9.7738  10.1867
    10.1870  10.5842  10.6092  10.6092  10.6095  10.6095  11.0344  11.0347

     occupation numbers
     1.0000   1.0000   1.0000   1.0000   1.0000   1.0000   1.0000   1.0000
     1.0000   1.0000   1.0000   1.0000   1.0000   1.0000   1.0000   1.0000
     1.0000   1.0000   1.0000   1.0000   1.0000   1.0000   1.0000   1.0000
     1.0000   1.0000   1.0000   1.0000   1.0000   1.0000   1.0000   1.0000
     1.0000   1.0000   1.0000   1.0000   1.0000   1.0000   1.0000   1.0000
     1.0000   1.0000   1.0000   1.0000   1.0000   1.0000   1.0000   1.0000
     1.0000   1.0000   1.0000   1.0000   1.0000   1.0000   1.0000   1.0000
     1.0000   1.0000   1.0000   1.0000   1.0000   1.0000   1.0000   1.0000
     1.0000   1.0000   1.0000   1.0000   1.0000   1.0000   1.0000   1.0000

[...]

          k =-0.5000-0.2887 0.0000 (  6218 PWs)   bands (ev):

[...]

          k = 0.3333 0.1925-0.1912 (  6204 PWs)   bands (ev):

[...]

          k =-0.6667 0.7698-0.1912 (  6204 PWs)   bands (ev):

    -8.1008  -8.1008  -8.0423  -8.0423  -7.8933  -7.8933  -7.8432  -7.8432
     3.2649   3.2649   3.3457   3.3457   3.3567   3.3567   3.5314   3.5314
     4.1450   4.1450   4.1570   4.1570   4.3121   4.3121   4.4045   4.4045
     4.6768   4.6768   4.7058   4.7058   4.7242   4.7242   4.7746   4.7746
     5.6929   5.6929   5.8320   5.8320   5.9494   5.9494   6.0148   6.0148
     6.1967   6.1967   6.2005   6.2005   6.3623   6.3623   6.4054   6.4054
     6.5115   6.5115   6.6518   6.6518   7.0868   7.0868   7.1521   7.1521
     7.4840   7.4840   7.8889   7.8889   8.0055   8.0055   8.3067   8.3067
     8.9230   8.9230   9.0788   9.0788   9.2861   9.2861   9.4021   9.4021

     occupation numbers
     1.0000   1.0000   1.0000   1.0000   1.0000   1.0000   1.0000   1.0000
     1.0000   1.0000   1.0000   1.0000   1.0000   1.0000   1.0000   1.0000
     1.0000   1.0000   1.0000   1.0000   1.0000   1.0000   1.0000   1.0000
     1.0000   1.0000   1.0000   1.0000   1.0000   1.0000   1.0000   1.0000
     1.0000   1.0000   1.0000   1.0000   1.0000   1.0000   1.0000   1.0000
     1.0000   1.0000   1.0000   1.0000   1.0000   1.0000   1.0000   1.0000
     1.0000   1.0000   1.0000   1.0000   1.0000   1.0000   1.0000   1.0000
     1.0000   1.0000   1.0000   1.0000   1.0000   1.0000   1.0000   1.0000
     1.0000   1.0000   1.0000   1.0000   1.0000   1.0000   1.0000   1.0000

     highest occupied level (ev):    11.0347

!    total energy              =   -1446.03704979 Ry
     estimated scf accuracy    <          6.3E-09 Ry

     The total energy is the sum of the following terms:
     one-electron contribution =    -506.20873493 Ry
     hartree contribution      =     434.71524747 Ry
     xc contribution           =    -440.45991011 Ry
     ewald contribution        =    -934.08365222 Ry

     convergence has been achieved in  26 iterations

     Forces acting on atoms (cartesian axes, Ry/au):

     atom    1 type  1   force =     0.00001101    0.00000636    0.06401889
     atom    2 type  1   force =    -0.00001103   -0.00000637    0.06401398
     atom    3 type  2   force =    -0.00000168   -0.00000097   -0.06401981
     atom    4 type  2   force =     0.00000166    0.00000096   -0.06402121
     atom    5 type  1   force =     0.00001152    0.00000665    0.06401939
     atom    6 type  1   force =    -0.00001152   -0.00000665    0.06402641
     atom    7 type  2   force =    -0.00000166   -0.00000096   -0.06401884
     atom    8 type  2   force =     0.00000149    0.00000086   -0.06401719
     atom    9 type  1   force =     0.00001262    0.00000729    0.06401893
     atom   10 type  1   force =    -0.00001243   -0.00000717    0.06401265
     atom   11 type  2   force =    -0.00000166   -0.00000096   -0.06402003
     atom   12 type  2   force =     0.00000169    0.00000097   -0.06402210
     atom   13 type  1   force =     0.00001180    0.00000682    0.06402013
     atom   14 type  1   force =    -0.00001186   -0.00000685    0.06402486
     atom   15 type  2   force =    -0.00000172   -0.00000099   -0.06401875
     atom   16 type  2   force =     0.00000176    0.00000102   -0.06401732
     The non-local contrib.  to forces
     atom    1 type  1   force =    -0.00002864   -0.00001654    0.23469727
     atom    2 type  1   force =     0.00002783    0.00001607    0.23469434
     atom    3 type  2   force =    -0.00016105   -0.00009298    0.17435778
     atom    4 type  2   force =     0.00016133    0.00009314    0.17435778
     atom    5 type  1   force =    -0.00002772   -0.00001600    0.23470587
     atom    6 type  1   force =     0.00002833    0.00001636    0.23470979
     atom    7 type  2   force =    -0.00016088   -0.00009288    0.17436210
     atom    8 type  2   force =     0.00016079    0.00009283    0.17436277
     atom    9 type  1   force =    -0.00002671   -0.00001542    0.23469689
     atom   10 type  1   force =     0.00002753    0.00001590    0.23469329
     atom   11 type  2   force =    -0.00016086   -0.00009287    0.17435750
     atom   12 type  2   force =     0.00016076    0.00009281    0.17435505
     atom   13 type  1   force =    -0.00002776   -0.00001603    0.23470660
     atom   14 type  1   force =     0.00002701    0.00001559    0.23471023
     atom   15 type  2   force =    -0.00016125   -0.00009310    0.17436190
     atom   16 type  2   force =     0.00016101    0.00009296    0.17436259
     The ionic contribution  to forces
     atom    1 type  1   force =    -0.00000000    0.00000000    1.94208340
     atom    2 type  1   force =     0.00000000   -0.00000000    1.94208340
     atom    3 type  2   force =    -0.00000000    0.00000000   -1.94208340
     atom    4 type  2   force =     0.00000000   -0.00000000   -1.94208340
     atom    5 type  1   force =    -0.00000000    0.00000000    1.94208340
     atom    6 type  1   force =     0.00000000   -0.00000000    1.94208340
     atom    7 type  2   force =    -0.00000000    0.00000000   -1.94208340
     atom    8 type  2   force =     0.00000000   -0.00000000   -1.94208340
     atom    9 type  1   force =    -0.00000000    0.00000000    1.94208340
     atom   10 type  1   force =     0.00000000   -0.00000000    1.94208340
     atom   11 type  2   force =    -0.00000000    0.00000000   -1.94208340
     atom   12 type  2   force =     0.00000000   -0.00000000   -1.94208340
     atom   13 type  1   force =    -0.00000000    0.00000000    1.94208340
     atom   14 type  1   force =     0.00000000   -0.00000000    1.94208340
     atom   15 type  2   force =    -0.00000000    0.00000000   -1.94208340
     atom   16 type  2   force =     0.00000000   -0.00000000   -1.94208340
     The local contribution  to forces
     atom    1 type  1   force =     0.00004942    0.00002854   -2.09221530
     atom    2 type  1   force =    -0.00004689   -0.00002716   -2.09221854
     atom    3 type  2   force =     0.00015627    0.00009022    1.70482606
     atom    4 type  2   force =    -0.00015597   -0.00009007    1.70483031
     atom    5 type  1   force =     0.00004633    0.00002675   -2.09222353
     atom    6 type  1   force =    -0.00004830   -0.00002797   -2.09222377
     atom    7 type  2   force =     0.00015666    0.00009045    1.70483005
     atom    8 type  2   force =    -0.00015827   -0.00009140    1.70482681
     atom    9 type  1   force =     0.00004305    0.00002486   -2.09221445
     atom   10 type  1   force =    -0.00004565   -0.00002644   -2.09221540
     atom   11 type  2   force =     0.00015745    0.00009091    1.70482656
     atom   12 type  2   force =    -0.00015837   -0.00009146    1.70483494
     atom   13 type  1   force =     0.00004639    0.00002678   -2.09222472
     atom   14 type  1   force =    -0.00004424   -0.00002563   -2.09222413
     atom   15 type  2   force =     0.00015768    0.00009104    1.70483289
     atom   16 type  2   force =    -0.00015614   -0.00009017    1.70482815
     The core correction contribution to forces
     atom    1 type  1   force =    -0.00000671   -0.00000387   -0.02053351
     atom    2 type  1   force =     0.00000663    0.00000382   -0.02053246
     atom    3 type  2   force =     0.00000181    0.00000105   -0.00112723
     atom    4 type  2   force =    -0.00000181   -0.00000105   -0.00112623
     atom    5 type  1   force =    -0.00000662   -0.00000382   -0.02053669
     atom    6 type  1   force =     0.00000669    0.00000385   -0.02053769
     atom    7 type  2   force =     0.00000181    0.00000104   -0.00112853
     atom    8 type  2   force =    -0.00000181   -0.00000105   -0.00112953
     atom    9 type  1   force =    -0.00000652   -0.00000376   -0.02053354
     atom   10 type  1   force =     0.00000661    0.00000381   -0.02053252
     atom   11 type  2   force =     0.00000181    0.00000105   -0.00112723
     atom   12 type  2   force =    -0.00000181   -0.00000105   -0.00112618
     atom   13 type  1   force =    -0.00000662   -0.00000382   -0.02053671
     atom   14 type  1   force =     0.00000655    0.00000377   -0.02053766
     atom   15 type  2   force =     0.00000182    0.00000105   -0.00112852
     atom   16 type  2   force =    -0.00000181   -0.00000104   -0.00112952
     The Hubbard contrib.    to forces
     atom    1 type  1   force =     0.00000000    0.00000000    0.00000000
     atom    2 type  1   force =     0.00000000    0.00000000    0.00000000
     atom    3 type  2   force =     0.00000000    0.00000000    0.00000000
     atom    4 type  2   force =     0.00000000    0.00000000    0.00000000
     atom    5 type  1   force =     0.00000000    0.00000000    0.00000000
     atom    6 type  1   force =     0.00000000    0.00000000    0.00000000
     atom    7 type  2   force =     0.00000000    0.00000000    0.00000000
     atom    8 type  2   force =     0.00000000    0.00000000    0.00000000
     atom    9 type  1   force =     0.00000000    0.00000000    0.00000000
     atom   10 type  1   force =     0.00000000    0.00000000    0.00000000
     atom   11 type  2   force =     0.00000000    0.00000000    0.00000000
     atom   12 type  2   force =     0.00000000    0.00000000    0.00000000
     atom   13 type  1   force =     0.00000000    0.00000000    0.00000000
     atom   14 type  1   force =     0.00000000    0.00000000    0.00000000
     atom   15 type  2   force =     0.00000000    0.00000000    0.00000000
     atom   16 type  2   force =     0.00000000    0.00000000    0.00000000
     The SCF correction term to forces
     atom    1 type  1   force =    -0.00000306   -0.00000176   -0.00001600
     atom    2 type  1   force =     0.00000144    0.00000083   -0.00001580
     atom    3 type  2   force =     0.00000130    0.00000075    0.00000394
     atom    4 type  2   force =    -0.00000187   -0.00000108   -0.00000270
     atom    5 type  1   force =    -0.00000046   -0.00000027   -0.00001269
     atom    6 type  1   force =     0.00000181    0.00000104   -0.00000834
     atom    7 type  2   force =     0.00000075    0.00000043   -0.00000210
     atom    8 type  2   force =     0.00000079    0.00000046    0.00000312
     atom    9 type  1   force =     0.00000280    0.00000162   -0.00001640
     atom   10 type  1   force =    -0.00000088   -0.00000051   -0.00001915
     atom   11 type  2   force =    -0.00000006   -0.00000004    0.00000349
     atom   12 type  2   force =     0.00000113    0.00000065   -0.00000556
     atom   13 type  1   force =    -0.00000020   -0.00000012   -0.00001149
     atom   14 type  1   force =    -0.00000113   -0.00000065   -0.00001002
     atom   15 type  2   force =     0.00000004    0.00000002   -0.00000466
     atom   16 type  2   force =    -0.00000129   -0.00000075    0.00000182

     Total force =     0.256078     Total SCF correction =     0.000042

     General routines

     Parallel routines

   This run was terminated on:  19:52: 8  28Aug2025

   JOB DONE.
Note: The following floating-point exceptions are signalling: IEEE_UNDERFLOW_FLAG IEEE_DENORMAL
Note: The following floating-point exceptions are signalling: IEEE_UNDERFLOW_FLAG IEEE_DENORMAL
Note: The following floating-point exceptions are signalling: IEEE_UNDERFLOW_FLAG IEEE_DENORMAL
Note: The following floating-point exceptions are signalling: IEEE_UNDERFLOW_FLAG IEEE_DENORMAL
Note: The following floating-point exceptions are signalling: IEEE_UNDERFLOW_FLAG IEEE_DENORMAL
Note: The following floating-point exceptions are signalling: IEEE_UNDERFLOW_FLAG IEEE_DENORMAL
Note: The following floating-point exceptions are signalling: IEEE_UNDERFLOW_FLAG IEEE_DENORMAL
Note: The following floating-point exceptions are signalling: IEEE_UNDERFLOW_FLAG IEEE_DENORMAL
Note: The following floating-point exceptions are signalling: IEEE_UNDERFLOW_FLAG IEEE_DENORMAL
Note: The following floating-point exceptions are signalling: IEEE_UNDERFLOW_FLAG IEEE_DENORMAL
Note: The following floating-point exceptions are signalling: IEEE_UNDERFLOW_FLAG IEEE_DENORMAL
Note: The following floating-point exceptions are signalling: IEEE_UNDERFLOW_FLAG IEEE_DENORMAL
Note: The following floating-point exceptions are signalling: IEEE_UNDERFLOW_FLAG IEEE_DENORMAL
Note: The following floating-point exceptions are signalling: IEEE_UNDERFLOW_FLAG IEEE_DENORMAL
Note: The following floating-point exceptions are signalling: IEEE_UNDERFLOW_FLAG IEEE_DENORMAL
Note: The following floating-point exceptions are signalling: IEEE_UNDERFLOW_FLAG IEEE_DENORMAL
Note: The following floating-point exceptions are signalling: IEEE_UNDERFLOW_FLAG IEEE_DENORMAL
Note: The following floating-point exceptions are signalling: IEEE_UNDERFLOW_FLAG IEEE_DENORMAL
Note: The following floating-point exceptions are signalling: IEEE_UNDERFLOW_FLAG IEEE_DENORMAL
Note: The following floating-point exceptions are signalling: IEEE_UNDERFLOW_FLAG IEEE_DENORMAL
Note: The following floating-point exceptions are signalling: IEEE_UNDERFLOW_FLAG IEEE_DENORMAL
Note: The following floating-point exceptions are signalling: IEEE_UNDERFLOW_FLAG IEEE_DENORMAL
Note: The following floating-point exceptions are signalling: IEEE_UNDERFLOW_FLAG IEEE_DENORMAL
Note: The following floating-point exceptions are signalling: IEEE_UNDERFLOW_FLAG IEEE_DENORMAL
Note: The following floating-point exceptions are signalling: IEEE_UNDERFLOW_FLAG IEEE_DENORMAL
Note: The following floating-point exceptions are signalling: IEEE_UNDERFLOW_FLAG IEEE_DENORMAL
Note: The following floating-point exceptions are signalling: IEEE_UNDERFLOW_FLAG IEEE_DENORMAL
Note: The following floating-point exceptions are signalling: IEEE_UNDERFLOW_FLAG IEEE_DENORMAL
Note: The following floating-point exceptions are signalling: IEEE_UNDERFLOW_FLAG IEEE_DENORMAL
Note: The following floating-point exceptions are signalling: IEEE_UNDERFLOW_FLAG IEEE_DENORMAL
Note: The following floating-point exceptions are signalling: IEEE_UNDERFLOW_FLAG IEEE_DENORMAL
Note: The following floating-point exceptions are signalling: IEEE_UNDERFLOW_FLAG IEEE_DENORMAL