     Program PWSCF v.7.2 starts on 18Jul2025 at  5:15:16

     Reading input from /home/jvc/QEspresso7.2/ZnO_database/scripts/cell122.in/ZnO-3.60-1.68-122.in
Warning: card &CELL ignored
Warning: card / ignored
Warning: card &FCP ignored
Warning: card / ignored
Warning: card &RISM ignored
Warning: card / ignored

     Current dimensions of program PWSCF are:
     Max number of different atomic species (ntypx) = 10
     Max number of k-points (npk) =  40000
     Max angular momentum in pseudopotentials (lmaxx) =  4
     file Zn.upf: wavefunction(s)  3D renormalized
     Found identity + (  0.0000  0.0000 -0.5000) symmetry
     This is a supercell, fractional translations are disabled
     Message from routine setup:
     using ibrav=0 with symmetry is DISCOURAGED, use correct ibrav instead

     K-points division:     npool     =       2
     R & G space division:  proc/nbgrp/npool/nimage =       8
     Subspace diagonalization in iterative solution of the eigenvalue problem:
     a serial algorithm will be used

     Using Slab Decomposition

     bravais-lattice index     =            0
     lattice parameter (alat)  =       6.1788  a.u.
     unit-cell volume          =    1319.1907 (a.u.)^3
     number of atoms/cell      =           16
     number of atomic types    =            2
     number of electrons       =       144.00
     number of Kohn-Sham states=           72
     kinetic-energy cutoff     =      50.0000  Ry
     charge density cutoff     =     400.0000  Ry
     scf convergence threshold =      1.0E-08
     mixing beta               =       0.3000
     number of iterations used =            8  plain     mixing
     Exchange-correlation= PBE
                           (   1   4   3   4   0   0   0)

     celldm(1)=   6.178822  celldm(2)=   0.000000  celldm(3)=   0.000000
     celldm(4)=   0.000000  celldm(5)=   0.000000  celldm(6)=   0.000000

     crystal axes: (cart. coord. in units of alat)
               a(1) = (   1.000000   0.000000   0.000000 )
               a(2) = (  -1.000000   1.732051   0.000000 )
               a(3) = (   0.000000   0.000000   3.228717 )

     reciprocal axes: (cart. coord. in units 2 pi/alat)
               b(1) = (  1.000000  0.577350 -0.000000 )
               b(2) = (  0.000000  0.577350  0.000000 )
               b(3) = (  0.000000 -0.000000  0.309721 )

     PseudoPot. # 1 for Zn read from file:
     /home/jvc/QEspresso7.2/ZnO_database/pseudos/Zn.upf
     MD5 check sum: 7f56cabf9682ed8c977c2f7d0c5985c5
     Pseudo is Ultrasoft + core correction, Zval = 12.0
     Generated using &quot;atomic&quot; code by A. Dal Corso  v.6.2.2
     Using radial grid of 1201 points,  6 beta functions with:
                l(1) =   0
                l(2) =   0
                l(3) =   1
                l(4) =   1
                l(5) =   2
                l(6) =   2
     Q(r) pseudized with 0 coefficients

     PseudoPot. # 2 for O  read from file:
     /home/jvc/QEspresso7.2/ZnO_database/pseudos/O.upf
     MD5 check sum: 91400c9766925bcf19f520983a725ff0
     Pseudo is Ultrasoft + core correction, Zval =  6.0
     Generated using &quot;atomic&quot; code by A. Dal Corso  v.6.3MaX
     Using radial grid of 1095 points,  4 beta functions with:
                l(1) =   0
                l(2) =   0
                l(3) =   1
                l(4) =   1
     Q(r) pseudized with 0 coefficients

     atomic species   valence    mass     pseudopotential
        Zn            12.00    65.38000     Zn( 1.00)
        O              6.00    15.99900     O ( 1.00)

      2 Sym. Ops. (no inversion) found

                                    s                        frac. trans.

      isym =  1     identity

 cryst.   s( 1) = (     1          0          0      )
                  (     0          1          0      )
                  (     0          0          1      )

 cart.    s( 1) = (  1.0000000 -0.0000000  0.0000000 )
                  (  0.0000000  1.0000000  0.0000000 )
                  (  0.0000000  0.0000000  1.0000000 )

      isym =  2     inv. 180 deg rotation - cart. axis [1,0,0]

 cryst.   s( 2) = (    -1          0          0      )
                  (     2          1          0      )
                  (     0          0          1      )

 cart.    s( 2) = ( -1.0000000  0.0000000  0.0000000 )
                  (  0.0000000  1.0000000  0.0000000 )
                  (  0.0000000  0.0000000  1.0000000 )

   Cartesian axes

     site n.     atom                  positions (alat units)
         1           Zn  tau(   1) = (   0.5000000   0.2886751   0.8082020  )
         2           Zn  tau(   2) = (   0.0000000   0.5773503   0.0010228  )
         3           O   tau(   3) = (   0.5000000   0.2886751   1.4201130  )
         4           O   tau(   4) = (   0.0000000   0.5773503   0.6129338  )
         5           Zn  tau(   5) = (   0.5000000   0.2886751   2.4225604  )
         6           Zn  tau(   6) = (   0.0000000   0.5773503   1.6153812  )
         7           O   tau(   7) = (   0.5000000   0.2886751   3.0344713  )
         8           O   tau(   8) = (   0.0000000   0.5773503   2.2272921  )
         9           Zn  tau(   9) = (   0.0000000   1.1547005   0.8082020  )
        10           Zn  tau(  10) = (  -0.5000000   1.4433757   0.0010228  )
        11           O   tau(  11) = (   0.0000000   1.1547005   1.4201130  )
        12           O   tau(  12) = (  -0.5000000   1.4433757   0.6129338  )
        13           Zn  tau(  13) = (   0.0000000   1.1547005   2.4225604  )
        14           Zn  tau(  14) = (  -0.5000000   1.4433757   1.6153812  )
        15           O   tau(  15) = (   0.0000000   1.1547005   3.0344713  )
        16           O   tau(  16) = (  -0.5000000   1.4433757   2.2272921  )

   Crystallographic axes

     site n.     atom                  positions (cryst. coord.)
         1           Zn  tau(   1) = (  0.6666667  0.1666667  0.2503168  )
         2           Zn  tau(   2) = (  0.3333333  0.3333333  0.0003168  )
         3           O   tau(   3) = (  0.6666667  0.1666667  0.4398382  )
         4           O   tau(   4) = (  0.3333333  0.3333333  0.1898382  )
         5           Zn  tau(   5) = (  0.6666667  0.1666667  0.7503168  )
         6           Zn  tau(   6) = (  0.3333333  0.3333333  0.5003168  )
         7           O   tau(   7) = (  0.6666667  0.1666667  0.9398382  )
         8           O   tau(   8) = (  0.3333333  0.3333333  0.6898382  )
         9           Zn  tau(   9) = (  0.6666667  0.6666667  0.2503168  )
        10           Zn  tau(  10) = (  0.3333333  0.8333333  0.0003168  )
        11           O   tau(  11) = (  0.6666667  0.6666667  0.4398382  )
        12           O   tau(  12) = (  0.3333333  0.8333333  0.1898382  )
        13           Zn  tau(  13) = (  0.6666667  0.6666667  0.7503168  )
        14           Zn  tau(  14) = (  0.3333333  0.8333333  0.5003168  )
        15           O   tau(  15) = (  0.6666667  0.6666667  0.9398382  )
        16           O   tau(  16) = (  0.3333333  0.8333333  0.6898382  )

     number of k points=    20
                       cart. coord. in units 2pi/alat
        k(    1) = (   0.0000000   0.0000000   0.0000000), wk =   0.0370370
        k(    2) = (   0.0000000   0.0000000   0.1032402), wk =   0.0740741
        k(    3) = (   0.0000000   0.1924501   0.0000000), wk =   0.0740741
        k(    4) = (   0.0000000   0.1924501   0.1032402), wk =   0.0740741
        k(    5) = (   0.1666667   0.0962250   0.0000000), wk =   0.1481481
        k(    6) = (   0.1666667   0.0962250   0.1032402), wk =   0.1481481
        k(    7) = (   0.1666667   0.2886751   0.0000000), wk =   0.0740741
        k(    8) = (   0.1666667   0.2886751   0.1032402), wk =   0.1481481
        k(    9) = (   0.3333333   0.1924501   0.0000000), wk =   0.1481481
        k(   10) = (   0.3333333   0.1924501   0.1032402), wk =   0.1481481
        k(   11) = (   0.3333333  -0.0000000   0.0000000), wk =   0.0740741
        k(   12) = (   0.3333333  -0.0000000   0.1032402), wk =   0.1481481
        k(   13) = (  -0.5000000  -0.2886751   0.0000000), wk =   0.0370370
        k(   14) = (  -0.5000000  -0.2886751   0.1032402), wk =   0.0740741
        k(   15) = (  -0.5000000  -0.0962250   0.0000000), wk =   0.0740741
        k(   16) = (  -0.5000000  -0.0962250   0.1032402), wk =   0.0740741
        k(   17) = (   0.0000000   0.1924501  -0.1032402), wk =   0.0740741
        k(   18) = (  -0.1666667   0.0962250  -0.1032402), wk =   0.1481481
        k(   19) = (  -0.3333333   0.1924501  -0.1032402), wk =   0.1481481
        k(   20) = (   0.5000000  -0.0962250  -0.1032402), wk =   0.0740741

                       cryst. coord.
        k(    1) = (   0.0000000   0.0000000   0.0000000), wk =   0.0370370
        k(    2) = (   0.0000000   0.0000000   0.3333333), wk =   0.0740741
        k(    3) = (   0.0000000   0.3333333   0.0000000), wk =   0.0740741
        k(    4) = (   0.0000000   0.3333333   0.3333333), wk =   0.0740741
        k(    5) = (   0.1666667  -0.0000000   0.0000000), wk =   0.1481481
        k(    6) = (   0.1666667  -0.0000000   0.3333333), wk =   0.1481481
        k(    7) = (   0.1666667   0.3333333   0.0000000), wk =   0.0740741
        k(    8) = (   0.1666667   0.3333333   0.3333333), wk =   0.1481481
        k(    9) = (   0.3333333  -0.0000000   0.0000000), wk =   0.1481481
        k(   10) = (   0.3333333  -0.0000000   0.3333333), wk =   0.1481481
        k(   11) = (   0.3333333  -0.3333333   0.0000000), wk =   0.0740741
        k(   12) = (   0.3333333  -0.3333333   0.3333333), wk =   0.1481481
        k(   13) = (  -0.5000000   0.0000000   0.0000000), wk =   0.0370370
        k(   14) = (  -0.5000000   0.0000000   0.3333333), wk =   0.0740741
        k(   15) = (  -0.5000000   0.3333333   0.0000000), wk =   0.0740741
        k(   16) = (  -0.5000000   0.3333333   0.3333333), wk =   0.0740741
        k(   17) = (   0.0000000   0.3333333  -0.3333333), wk =   0.0740741
        k(   18) = (  -0.1666667   0.3333333  -0.3333333), wk =   0.1481481
        k(   19) = (  -0.3333333   0.6666667  -0.3333333), wk =   0.1481481
        k(   20) = (   0.5000000  -0.6666667  -0.3333333), wk =   0.0740741

     Check: negative core charge=   -0.000002

     Initial potential from superposition of free atoms

     starting charge     143.9702, renormalised to     144.0000
     Starting wfcs are  104 randomized atomic wfcs

     Self-consistent Calculation

     iteration #  1     ecut=    50.00 Ry     beta= 0.30
     Davidson diagonalization with overlap

     ethr =  1.00E-02,  avg # of iterations =  1.9

     total energy              =   -1445.91793921 Ry
     estimated scf accuracy    <       2.76419291 Ry

[...]

     c_bands:  1 eigenvalues not converged
     ethr =  4.55E-10,  avg # of iterations = 14.2

[...]

     total energy              =   -1446.54755162 Ry
     estimated scf accuracy    <       0.00000004 Ry

     iteration # 30     ecut=    50.00 Ry     beta= 0.30
     Davidson diagonalization with overlap

     ethr =  2.45E-11,  avg # of iterations =  4.4

     End of self-consistent calculation

          k = 0.0000 0.0000 0.0000 (  7805 PWs)   bands (ev):

   -10.9984 -10.6674 -10.6674 -10.3492 -10.3182 -10.2371 -10.2371 -10.1407
     0.9527   0.9527   1.1141   1.1297   1.1297   1.3159   1.3159   1.3230
     1.3565   1.3852   1.3852   1.3852   1.3852   1.4392   1.5014   1.5014
     1.5609   1.7820   1.7821   1.8586   1.8587   1.9413   1.9538   2.0753
     2.4282   2.4282   2.4641   2.5468   2.5468   2.5468   2.5468   2.5909
     2.6133   2.6133   2.6248   2.6248   2.6705   2.6978   2.6978   2.7417
     2.8918   3.1878   3.1878   3.2047   3.4268   4.1406   4.6601   4.6601
     4.7140   5.4385   5.4385   5.5539   5.5540   5.6403   6.0830   6.1251
     6.1251   6.5108   6.5108   6.5109   6.5109   6.8050   6.8874   6.8874

     occupation numbers
     1.0000   1.0000   1.0000   1.0000   1.0000   1.0000   1.0000   1.0000
     1.0000   1.0000   1.0000   1.0000   1.0000   1.0000   1.0000   1.0000
     1.0000   1.0000   1.0000   1.0000   1.0000   1.0000   1.0000   1.0000
     1.0000   1.0000   1.0000   1.0000   1.0000   1.0000   1.0000   1.0000
     1.0000   1.0000   1.0000   1.0000   1.0000   1.0000   1.0000   1.0000
     1.0000   1.0000   1.0000   1.0000   1.0000   1.0000   1.0000   1.0000
     1.0000   1.0000   1.0000   1.0000   1.0000   1.0000   1.0000   1.0000
     1.0000   1.0000   1.0000   1.0000   1.0000   1.0000   1.0000   1.0000
     1.0000   1.0000   1.0000   1.0000   1.0000   1.0000   1.0000   1.0000

[...]

          k =-0.5000-0.2887 0.0000 (  7852 PWs)   bands (ev):

[...]

          k =-0.3333 0.1925-0.1032 (  7888 PWs)   bands (ev):

[...]

          k = 0.5000-0.0962-0.1032 (  7914 PWs)   bands (ev):

   -10.3401 -10.3401 -10.2961 -10.2961 -10.1858 -10.1858 -10.1494 -10.1494
     1.1038   1.1038   1.1780   1.1780   1.1968   1.1968   1.3762   1.3762
     1.5637   1.5637   1.5839   1.5839   1.7338   1.7338   1.7730   1.7730
     1.8904   1.8904   1.9133   1.9133   1.9824   1.9824   2.0290   2.0290
     2.4171   2.4171   2.4958   2.4958   2.5393   2.5393   2.5677   2.5677
     2.6804   2.6804   2.6913   2.6913   2.8116   2.8116   2.8696   2.8696
     3.1154   3.1154   3.2568   3.2568   3.5916   3.5916   3.6971   3.6971
     4.2092   4.2092   4.5350   4.5350   4.6168   4.6168   5.0817   5.0817
     5.3813   5.3814   5.5972   5.5973   5.7986   5.7986   5.8448   5.8448

     occupation numbers
     1.0000   1.0000   1.0000   1.0000   1.0000   1.0000   1.0000   1.0000
     1.0000   1.0000   1.0000   1.0000   1.0000   1.0000   1.0000   1.0000
     1.0000   1.0000   1.0000   1.0000   1.0000   1.0000   1.0000   1.0000
     1.0000   1.0000   1.0000   1.0000   1.0000   1.0000   1.0000   1.0000
     1.0000   1.0000   1.0000   1.0000   1.0000   1.0000   1.0000   1.0000
     1.0000   1.0000   1.0000   1.0000   1.0000   1.0000   1.0000   1.0000
     1.0000   1.0000   1.0000   1.0000   1.0000   1.0000   1.0000   1.0000
     1.0000   1.0000   1.0000   1.0000   1.0000   1.0000   1.0000   1.0000
     1.0000   1.0000   1.0000   1.0000   1.0000   1.0000   1.0000   1.0000

     highest occupied level (ev):     6.8874

!    total energy              =   -1446.54755163 Ry
     estimated scf accuracy    <          8.8E-10 Ry

     The total energy is the sum of the following terms:
     one-electron contribution =    -618.10058371 Ry
     hartree contribution      =     473.15628706 Ry
     xc contribution           =    -438.18432704 Ry
     ewald contribution        =    -863.41892795 Ry

     convergence has been achieved in  30 iterations

     Forces acting on atoms (cartesian axes, Ry/au):

     atom    1 type  1   force =     0.00000000    0.00000118    0.00006316
     atom    2 type  1   force =     0.00000000    0.00000135    0.00006387
     atom    3 type  2   force =     0.00000000    0.00000001   -0.00006321
     atom    4 type  2   force =     0.00000000    0.00000060   -0.00005844
     atom    5 type  1   force =     0.00000000    0.00000047    0.00006152
     atom    6 type  1   force =     0.00000000    0.00000255    0.00005244
     atom    7 type  2   force =     0.00000000    0.00000087   -0.00005802
     atom    8 type  2   force =     0.00000000    0.00000030   -0.00006457
     atom    9 type  1   force =     0.00000000   -0.00000109    0.00006473
     atom   10 type  1   force =     0.00000000   -0.00000161    0.00006735
     atom   11 type  2   force =     0.00000000   -0.00000038   -0.00006393
     atom   12 type  2   force =     0.00000000   -0.00000163   -0.00005727
     atom   13 type  1   force =     0.00000000   -0.00000079    0.00006334
     atom   14 type  1   force =     0.00000000   -0.00000090    0.00005359
     atom   15 type  2   force =     0.00000000   -0.00000037   -0.00005993
     atom   16 type  2   force =     0.00000000   -0.00000057   -0.00006462
     The non-local contrib.  to forces
     atom    1 type  1   force =     0.00000000   -0.00000031   -0.00483709
     atom    2 type  1   force =     0.00000000   -0.00000162   -0.00483357
     atom    3 type  2   force =     0.00000000   -0.00000070    0.00575438
     atom    4 type  2   force =     0.00000000    0.00000037    0.00575569
     atom    5 type  1   force =     0.00000000   -0.00000026   -0.00483140
     atom    6 type  1   force =     0.00000000   -0.00000096   -0.00483443
     atom    7 type  2   force =     0.00000000   -0.00000005    0.00575510
     atom    8 type  2   force =     0.00000000    0.00000087    0.00574817
     atom    9 type  1   force =     0.00000000   -0.00000041   -0.00483733
     atom   10 type  1   force =     0.00000000    0.00000263   -0.00483080
     atom   11 type  2   force =     0.00000000   -0.00000094    0.00575288
     atom   12 type  2   force =     0.00000000   -0.00000119    0.00575693
     atom   13 type  1   force =     0.00000000   -0.00000035   -0.00483302
     atom   14 type  1   force =     0.00000000    0.00000096   -0.00483392
     atom   15 type  2   force =     0.00000000   -0.00000001    0.00575339
     atom   16 type  2   force =     0.00000000   -0.00000084    0.00574867
     The ionic contribution  to forces
     atom    1 type  1   force =     0.00000000    0.00000001    0.06271747
     atom    2 type  1   force =    -0.00000000    0.00000001    0.06271747
     atom    3 type  2   force =     0.00000000    0.00000001   -0.06271747
     atom    4 type  2   force =    -0.00000000    0.00000000   -0.06271747
     atom    5 type  1   force =     0.00000000    0.00000001    0.06271747
     atom    6 type  1   force =    -0.00000000    0.00000001    0.06271747
     atom    7 type  2   force =     0.00000000    0.00000001   -0.06271747
     atom    8 type  2   force =    -0.00000000    0.00000000   -0.06271747
     atom    9 type  1   force =    -0.00000000   -0.00000000    0.06271747
     atom   10 type  1   force =     0.00000000   -0.00000002    0.06271747
     atom   11 type  2   force =    -0.00000000   -0.00000000   -0.06271747
     atom   12 type  2   force =     0.00000000   -0.00000001   -0.06271747
     atom   13 type  1   force =    -0.00000000   -0.00000000    0.06271747
     atom   14 type  1   force =     0.00000000   -0.00000002    0.06271747
     atom   15 type  2   force =    -0.00000000   -0.00000000   -0.06271747
     atom   16 type  2   force =     0.00000000   -0.00000001   -0.06271747
     The local contribution  to forces
     atom    1 type  1   force =    -0.00000009   -0.00000037   -0.05828358
     atom    2 type  1   force =     0.00000000    0.00000107   -0.05828815
     atom    3 type  2   force =    -0.00000002   -0.00000032    0.05696852
     atom    4 type  2   force =     0.00000000   -0.00000020    0.05696401
     atom    5 type  1   force =    -0.00000009   -0.00000022   -0.05829083
     atom    6 type  1   force =     0.00000000   -0.00000174   -0.05828159
     atom    7 type  2   force =    -0.00000002    0.00000081    0.05696257
     atom    8 type  2   force =     0.00000000   -0.00000141    0.05696556
     atom    9 type  1   force =    -0.00000009    0.00000081   -0.05828553
     atom   10 type  1   force =     0.00000009   -0.00000214   -0.05829277
     atom   11 type  2   force =    -0.00000002    0.00000126    0.05697061
     atom   12 type  2   force =     0.00000002   -0.00000107    0.05696528
     atom   13 type  1   force =    -0.00000009    0.00000086   -0.05828974
     atom   14 type  1   force =     0.00000009    0.00000136   -0.05828163
     atom   15 type  2   force =    -0.00000002   -0.00000025    0.05696141
     atom   16 type  2   force =     0.00000002    0.00000003    0.05696468
     The core correction contribution to forces
     atom    1 type  1   force =    -0.00000001   -0.00000001    0.00046398
     atom    2 type  1   force =     0.00000000   -0.00000005    0.00046402
     atom    3 type  2   force =     0.00000000    0.00000001   -0.00006503
     atom    4 type  2   force =     0.00000000   -0.00000001   -0.00006506
     atom    5 type  1   force =    -0.00000001    0.00000002    0.00046405
     atom    6 type  1   force =     0.00000000    0.00000005    0.00046438
     atom    7 type  2   force =     0.00000000    0.00000000   -0.00006505
     atom    8 type  2   force =     0.00000000   -0.00000002   -0.00006495
     atom    9 type  1   force =    -0.00000001    0.00000002    0.00046404
     atom   10 type  1   force =     0.00000001    0.00000001    0.00046392
     atom   11 type  2   force =     0.00000000    0.00000001   -0.00006501
     atom   12 type  2   force =    -0.00000000    0.00000001   -0.00006508
     atom   13 type  1   force =    -0.00000001   -0.00000003    0.00046403
     atom   14 type  1   force =     0.00000001   -0.00000007    0.00046433
     atom   15 type  2   force =     0.00000000    0.00000000   -0.00006504
     atom   16 type  2   force =    -0.00000000    0.00000001   -0.00006496
     The Hubbard contrib.    to forces
     atom    1 type  1   force =     0.00000000    0.00000000    0.00000000
     atom    2 type  1   force =     0.00000000    0.00000000    0.00000000
     atom    3 type  2   force =     0.00000000    0.00000000    0.00000000
     atom    4 type  2   force =     0.00000000    0.00000000    0.00000000
     atom    5 type  1   force =     0.00000000    0.00000000    0.00000000
     atom    6 type  1   force =     0.00000000    0.00000000    0.00000000
     atom    7 type  2   force =     0.00000000    0.00000000    0.00000000
     atom    8 type  2   force =     0.00000000    0.00000000    0.00000000
     atom    9 type  1   force =     0.00000000    0.00000000    0.00000000
     atom   10 type  1   force =     0.00000000    0.00000000    0.00000000
     atom   11 type  2   force =     0.00000000    0.00000000    0.00000000
     atom   12 type  2   force =     0.00000000    0.00000000    0.00000000
     atom   13 type  1   force =     0.00000000    0.00000000    0.00000000
     atom   14 type  1   force =     0.00000000    0.00000000    0.00000000
     atom   15 type  2   force =     0.00000000    0.00000000    0.00000000
     atom   16 type  2   force =     0.00000000    0.00000000    0.00000000
     The SCF correction term to forces
     atom    1 type  1   force =     0.00000000    0.00000189    0.00000018
     atom    2 type  1   force =    -0.00000000    0.00000197    0.00000191
     atom    3 type  2   force =     0.00000000    0.00000105   -0.00000579
     atom    4 type  2   force =    -0.00000000    0.00000046    0.00000222
     atom    5 type  1   force =     0.00000000    0.00000096    0.00000004
     atom    6 type  1   force =    -0.00000000    0.00000522   -0.00001558
     atom    7 type  2   force =     0.00000000    0.00000014    0.00000464
     atom    8 type  2   force =    -0.00000000    0.00000088    0.00000193
     atom    9 type  1   force =     0.00000000   -0.00000148    0.00000390
     atom   10 type  1   force =    -0.00000000   -0.00000207    0.00000734
     atom   11 type  2   force =     0.00000000   -0.00000068   -0.00000714
     atom   12 type  2   force =    -0.00000000    0.00000065    0.00000087
     atom   13 type  1   force =     0.00000000   -0.00000125    0.00000242
     atom   14 type  1   force =    -0.00000000   -0.00000310   -0.00001484
     atom   15 type  2   force =     0.00000000   -0.00000009    0.00000559
     atom   16 type  2   force =    -0.00000000    0.00000027    0.00000228

     Total force =     0.000246     Total SCF correction =     0.000027
     SCF correction compared to forces is large: reduce conv_thr to get better values

     General routines

     Parallel routines

   This run was terminated on:   5:19:47  18Jul2025

   JOB DONE.
Note: The following floating-point exceptions are signalling: IEEE_INVALID_FLAG
Note: The following floating-point exceptions are signalling: IEEE_INVALID_FLAG