     Program PWSCF v.7.2 starts on 26Jul2025 at 10:17:21

     Reading input from ZnO-2.94-1.52-122.in
Warning: card &CELL ignored
Warning: card / ignored
Warning: card &FCP ignored
Warning: card / ignored
Warning: card &RISM ignored
Warning: card / ignored

     Current dimensions of program PWSCF are:
     Max number of different atomic species (ntypx) = 10
     Max number of k-points (npk) =  40000
     Max angular momentum in pseudopotentials (lmaxx) =  4
     file Zn.upf: wavefunction(s)  3D renormalized
     Found identity + (  0.0000  0.0000 -0.5000) symmetry
     This is a supercell, fractional translations are disabled
     Message from routine setup:
     using ibrav=0 with symmetry is DISCOURAGED, use correct ibrav instead

     K-points division:     npool     =       4
     R & G space division:  proc/nbgrp/npool/nimage =       4
     Subspace diagonalization in iterative solution of the eigenvalue problem:
     a serial algorithm will be used

     Using Slab Decomposition

     bravais-lattice index     =            0
     lattice parameter (alat)  =       6.1788  a.u.
     unit-cell volume          =    1319.1907 (a.u.)^3
     number of atoms/cell      =           16
     number of atomic types    =            2
     number of electrons       =       144.00
     number of Kohn-Sham states=           72
     kinetic-energy cutoff     =      50.0000  Ry
     charge density cutoff     =     400.0000  Ry
     scf convergence threshold =      1.0E-08
     mixing beta               =       0.3000
     number of iterations used =            8  plain     mixing
     Exchange-correlation= PBE
                           (   1   4   3   4   0   0   0)

     celldm(1)=   6.178822  celldm(2)=   0.000000  celldm(3)=   0.000000
     celldm(4)=   0.000000  celldm(5)=   0.000000  celldm(6)=   0.000000

     crystal axes: (cart. coord. in units of alat)
               a(1) = (   1.000000   0.000000   0.000000 )
               a(2) = (  -1.000000   1.732051   0.000000 )
               a(3) = (   0.000000   0.000000   3.228717 )

     reciprocal axes: (cart. coord. in units 2 pi/alat)
               b(1) = (  1.000000  0.577350 -0.000000 )
               b(2) = (  0.000000  0.577350  0.000000 )
               b(3) = (  0.000000 -0.000000  0.309721 )

     PseudoPot. # 1 for Zn read from file:
     /home/jvc/QEspresso7.2/ZnO_database/pseudos/Zn.upf
     MD5 check sum: 7f56cabf9682ed8c977c2f7d0c5985c5
     Pseudo is Ultrasoft + core correction, Zval = 12.0
     Generated using &quot;atomic&quot; code by A. Dal Corso  v.6.2.2
     Using radial grid of 1201 points,  6 beta functions with:
                l(1) =   0
                l(2) =   0
                l(3) =   1
                l(4) =   1
                l(5) =   2
                l(6) =   2
     Q(r) pseudized with 0 coefficients

     PseudoPot. # 2 for O  read from file:
     /home/jvc/QEspresso7.2/ZnO_database/pseudos/O.upf
     MD5 check sum: 91400c9766925bcf19f520983a725ff0
     Pseudo is Ultrasoft + core correction, Zval =  6.0
     Generated using &quot;atomic&quot; code by A. Dal Corso  v.6.3MaX
     Using radial grid of 1095 points,  4 beta functions with:
                l(1) =   0
                l(2) =   0
                l(3) =   1
                l(4) =   1
     Q(r) pseudized with 0 coefficients

     atomic species   valence    mass     pseudopotential
        Zn            12.00    65.38000     Zn( 1.00)
        O              6.00    15.99900     O ( 1.00)

      2 Sym. Ops. (no inversion) found

                                    s                        frac. trans.

      isym =  1     identity

 cryst.   s( 1) = (     1          0          0      )
                  (     0          1          0      )
                  (     0          0          1      )

 cart.    s( 1) = (  1.0000000 -0.0000000  0.0000000 )
                  (  0.0000000  1.0000000  0.0000000 )
                  (  0.0000000  0.0000000  1.0000000 )

      isym =  2     inv. 180 deg rotation - cart. axis [1,0,0]

 cryst.   s( 2) = (    -1          0          0      )
                  (     2          1          0      )
                  (     0          0          1      )

 cart.    s( 2) = ( -1.0000000  0.0000000  0.0000000 )
                  (  0.0000000  1.0000000  0.0000000 )
                  (  0.0000000  0.0000000  1.0000000 )

   Cartesian axes

     site n.     atom                  positions (alat units)
         1           Zn  tau(   1) = (   0.5000000   0.2886751   0.8082020  )
         2           Zn  tau(   2) = (   0.0000000   0.5773503   0.0010228  )
         3           O   tau(   3) = (   0.5000000   0.2886751   1.4201130  )
         4           O   tau(   4) = (   0.0000000   0.5773503   0.6129338  )
         5           Zn  tau(   5) = (   0.5000000   0.2886751   2.4225604  )
         6           Zn  tau(   6) = (   0.0000000   0.5773503   1.6153812  )
         7           O   tau(   7) = (   0.5000000   0.2886751   3.0344713  )
         8           O   tau(   8) = (   0.0000000   0.5773503   2.2272921  )
         9           Zn  tau(   9) = (   0.0000000   1.1547005   0.8082020  )
        10           Zn  tau(  10) = (  -0.5000000   1.4433757   0.0010228  )
        11           O   tau(  11) = (   0.0000000   1.1547005   1.4201130  )
        12           O   tau(  12) = (  -0.5000000   1.4433757   0.6129338  )
        13           Zn  tau(  13) = (   0.0000000   1.1547005   2.4225604  )
        14           Zn  tau(  14) = (  -0.5000000   1.4433757   1.6153812  )
        15           O   tau(  15) = (   0.0000000   1.1547005   3.0344713  )
        16           O   tau(  16) = (  -0.5000000   1.4433757   2.2272921  )

   Crystallographic axes

     site n.     atom                  positions (cryst. coord.)
         1           Zn  tau(   1) = (  0.6666667  0.1666667  0.2503168  )
         2           Zn  tau(   2) = (  0.3333333  0.3333333  0.0003168  )
         3           O   tau(   3) = (  0.6666667  0.1666667  0.4398382  )
         4           O   tau(   4) = (  0.3333333  0.3333333  0.1898382  )
         5           Zn  tau(   5) = (  0.6666667  0.1666667  0.7503168  )
         6           Zn  tau(   6) = (  0.3333333  0.3333333  0.5003168  )
         7           O   tau(   7) = (  0.6666667  0.1666667  0.9398382  )
         8           O   tau(   8) = (  0.3333333  0.3333333  0.6898382  )
         9           Zn  tau(   9) = (  0.6666667  0.6666667  0.2503168  )
        10           Zn  tau(  10) = (  0.3333333  0.8333333  0.0003168  )
        11           O   tau(  11) = (  0.6666667  0.6666667  0.4398382  )
        12           O   tau(  12) = (  0.3333333  0.8333333  0.1898382  )
        13           Zn  tau(  13) = (  0.6666667  0.6666667  0.7503168  )
        14           Zn  tau(  14) = (  0.3333333  0.8333333  0.5003168  )
        15           O   tau(  15) = (  0.6666667  0.6666667  0.9398382  )
        16           O   tau(  16) = (  0.3333333  0.8333333  0.6898382  )

     number of k points=    20
                       cart. coord. in units 2pi/alat
        k(    1) = (   0.0000000   0.0000000   0.0000000), wk =   0.0370370
        k(    2) = (   0.0000000   0.0000000   0.1032402), wk =   0.0740741
        k(    3) = (   0.0000000   0.1924501   0.0000000), wk =   0.0740741
        k(    4) = (   0.0000000   0.1924501   0.1032402), wk =   0.0740741
        k(    5) = (   0.1666667   0.0962250   0.0000000), wk =   0.1481481
        k(    6) = (   0.1666667   0.0962250   0.1032402), wk =   0.1481481
        k(    7) = (   0.1666667   0.2886751   0.0000000), wk =   0.0740741
        k(    8) = (   0.1666667   0.2886751   0.1032402), wk =   0.1481481
        k(    9) = (   0.3333333   0.1924501   0.0000000), wk =   0.1481481
        k(   10) = (   0.3333333   0.1924501   0.1032402), wk =   0.1481481
        k(   11) = (   0.3333333  -0.0000000   0.0000000), wk =   0.0740741
        k(   12) = (   0.3333333  -0.0000000   0.1032402), wk =   0.1481481
        k(   13) = (  -0.5000000  -0.2886751   0.0000000), wk =   0.0370370
        k(   14) = (  -0.5000000  -0.2886751   0.1032402), wk =   0.0740741
        k(   15) = (  -0.5000000  -0.0962250   0.0000000), wk =   0.0740741
        k(   16) = (  -0.5000000  -0.0962250   0.1032402), wk =   0.0740741
        k(   17) = (   0.0000000   0.1924501  -0.1032402), wk =   0.0740741
        k(   18) = (  -0.1666667   0.0962250  -0.1032402), wk =   0.1481481
        k(   19) = (  -0.3333333   0.1924501  -0.1032402), wk =   0.1481481
        k(   20) = (   0.5000000  -0.0962250  -0.1032402), wk =   0.0740741

                       cryst. coord.
        k(    1) = (   0.0000000   0.0000000   0.0000000), wk =   0.0370370
        k(    2) = (   0.0000000   0.0000000   0.3333333), wk =   0.0740741
        k(    3) = (   0.0000000   0.3333333   0.0000000), wk =   0.0740741
        k(    4) = (   0.0000000   0.3333333   0.3333333), wk =   0.0740741
        k(    5) = (   0.1666667  -0.0000000   0.0000000), wk =   0.1481481
        k(    6) = (   0.1666667  -0.0000000   0.3333333), wk =   0.1481481
        k(    7) = (   0.1666667   0.3333333   0.0000000), wk =   0.0740741
        k(    8) = (   0.1666667   0.3333333   0.3333333), wk =   0.1481481
        k(    9) = (   0.3333333  -0.0000000   0.0000000), wk =   0.1481481
        k(   10) = (   0.3333333  -0.0000000   0.3333333), wk =   0.1481481
        k(   11) = (   0.3333333  -0.3333333   0.0000000), wk =   0.0740741
        k(   12) = (   0.3333333  -0.3333333   0.3333333), wk =   0.1481481
        k(   13) = (  -0.5000000   0.0000000   0.0000000), wk =   0.0370370
        k(   14) = (  -0.5000000   0.0000000   0.3333333), wk =   0.0740741
        k(   15) = (  -0.5000000   0.3333333   0.0000000), wk =   0.0740741
        k(   16) = (  -0.5000000   0.3333333   0.3333333), wk =   0.0740741
        k(   17) = (   0.0000000   0.3333333  -0.3333333), wk =   0.0740741
        k(   18) = (  -0.1666667   0.3333333  -0.3333333), wk =   0.1481481
        k(   19) = (  -0.3333333   0.6666667  -0.3333333), wk =   0.1481481
        k(   20) = (   0.5000000  -0.6666667  -0.3333333), wk =   0.0740741

     Check: negative core charge=   -0.000002

     Initial potential from superposition of free atoms

     starting charge     143.9702, renormalised to     144.0000
     Starting wfcs are  104 randomized atomic wfcs

     Self-consistent Calculation

     iteration #  1     ecut=    50.00 Ry     beta= 0.30
     Davidson diagonalization with overlap

     ethr =  1.00E-02,  avg # of iterations =  1.9

     total energy              =   -1445.91824670 Ry
     estimated scf accuracy    <       2.76272324 Ry

[...]

     total energy              =   -1446.54755160 Ry
     estimated scf accuracy    <       0.00000043 Ry

     iteration # 34     ecut=    50.00 Ry     beta= 0.30
     Davidson diagonalization with overlap

     ethr =  1.54E-11,  avg # of iterations =  9.5

     End of self-consistent calculation

          k = 0.0000 0.0000 0.0000 (  7805 PWs)   bands (ev):

   -10.9984 -10.6674 -10.6673 -10.3492 -10.3182 -10.2371 -10.2371 -10.1407
     0.9527   0.9527   1.1141   1.1297   1.1298   1.3159   1.3159   1.3230
     1.3565   1.3852   1.3852   1.3852   1.3852   1.4392   1.5014   1.5014
     1.5609   1.7821   1.7821   1.8587   1.8587   1.9413   1.9538   2.0753
     2.4282   2.4282   2.4642   2.5468   2.5468   2.5468   2.5468   2.5909
     2.6133   2.6133   2.6248   2.6248   2.6705   2.6978   2.6978   2.7418
     2.8918   3.1878   3.1878   3.2047   3.4268   4.1406   4.6601   4.6601
     4.7140   5.4385   5.4386   5.5539   5.5540   5.6403   6.0830   6.1251
     6.1251   6.5108   6.5108   6.5109   6.5109   6.8050   6.8874   6.8874

     occupation numbers
     1.0000   1.0000   1.0000   1.0000   1.0000   1.0000   1.0000   1.0000
     1.0000   1.0000   1.0000   1.0000   1.0000   1.0000   1.0000   1.0000
     1.0000   1.0000   1.0000   1.0000   1.0000   1.0000   1.0000   1.0000
     1.0000   1.0000   1.0000   1.0000   1.0000   1.0000   1.0000   1.0000
     1.0000   1.0000   1.0000   1.0000   1.0000   1.0000   1.0000   1.0000
     1.0000   1.0000   1.0000   1.0000   1.0000   1.0000   1.0000   1.0000
     1.0000   1.0000   1.0000   1.0000   1.0000   1.0000   1.0000   1.0000
     1.0000   1.0000   1.0000   1.0000   1.0000   1.0000   1.0000   1.0000
     1.0000   1.0000   1.0000   1.0000   1.0000   1.0000   1.0000   1.0000

[...]

          k =-0.5000-0.2887 0.0000 (  7852 PWs)   bands (ev):

[...]

          k =-0.3333 0.1925-0.1032 (  7888 PWs)   bands (ev):

[...]

          k = 0.5000-0.0962-0.1032 (  7914 PWs)   bands (ev):

   -10.3401 -10.3401 -10.2961 -10.2961 -10.1858 -10.1858 -10.1494 -10.1494
     1.1038   1.1038   1.1781   1.1781   1.1968   1.1968   1.3762   1.3762
     1.5637   1.5637   1.5839   1.5839   1.7338   1.7338   1.7730   1.7730
     1.8904   1.8904   1.9133   1.9133   1.9824   1.9824   2.0290   2.0291
     2.4172   2.4172   2.4958   2.4958   2.5393   2.5393   2.5677   2.5677
     2.6804   2.6804   2.6913   2.6913   2.8116   2.8116   2.8696   2.8696
     3.1154   3.1154   3.2568   3.2568   3.5916   3.5916   3.6971   3.6971
     4.2092   4.2092   4.5350   4.5350   4.6168   4.6168   5.0817   5.0817
     5.3814   5.3814   5.5973   5.5973   5.7986   5.7987   5.8448   5.8448

     occupation numbers
     1.0000   1.0000   1.0000   1.0000   1.0000   1.0000   1.0000   1.0000
     1.0000   1.0000   1.0000   1.0000   1.0000   1.0000   1.0000   1.0000
     1.0000   1.0000   1.0000   1.0000   1.0000   1.0000   1.0000   1.0000
     1.0000   1.0000   1.0000   1.0000   1.0000   1.0000   1.0000   1.0000
     1.0000   1.0000   1.0000   1.0000   1.0000   1.0000   1.0000   1.0000
     1.0000   1.0000   1.0000   1.0000   1.0000   1.0000   1.0000   1.0000
     1.0000   1.0000   1.0000   1.0000   1.0000   1.0000   1.0000   1.0000
     1.0000   1.0000   1.0000   1.0000   1.0000   1.0000   1.0000   1.0000
     1.0000   1.0000   1.0000   1.0000   1.0000   1.0000   1.0000   1.0000

     highest occupied level (ev):     6.8874

!    total energy              =   -1446.54755165 Ry
     estimated scf accuracy    <          6.9E-09 Ry

     The total energy is the sum of the following terms:
     one-electron contribution =    -618.10023708 Ry
     hartree contribution      =     473.15579171 Ry
     xc contribution           =    -438.18417834 Ry
     ewald contribution        =    -863.41892795 Ry

     convergence has been achieved in  34 iterations

     Forces acting on atoms (cartesian axes, Ry/au):

     atom    1 type  1   force =     0.00000000   -0.00000580    0.00002870
     atom    2 type  1   force =     0.00000000    0.00000169    0.00005405
     atom    3 type  2   force =     0.00000000    0.00000071   -0.00006068
     atom    4 type  2   force =     0.00000000    0.00000030   -0.00005993
     atom    5 type  1   force =     0.00000000    0.00000344    0.00006510
     atom    6 type  1   force =     0.00000000   -0.00000482    0.00009824
     atom    7 type  2   force =     0.00000000    0.00000083   -0.00005954
     atom    8 type  2   force =     0.00000000    0.00000055   -0.00006070
     atom    9 type  1   force =     0.00000000    0.00000139    0.00002897
     atom   10 type  1   force =     0.00000000    0.00000089    0.00005111
     atom   11 type  2   force =     0.00000000    0.00000103   -0.00006039
     atom   12 type  2   force =     0.00000000   -0.00000021   -0.00005996
     atom   13 type  1   force =     0.00000000   -0.00000538    0.00007333
     atom   14 type  1   force =     0.00000000    0.00000520    0.00008325
     atom   15 type  2   force =     0.00000000    0.00000044   -0.00006015
     atom   16 type  2   force =     0.00000000   -0.00000027   -0.00006140
     The non-local contrib.  to forces
     atom    1 type  1   force =     0.00000000   -0.00000166   -0.00485196
     atom    2 type  1   force =     0.00000000   -0.00000116   -0.00483904
     atom    3 type  2   force =     0.00000000    0.00000128    0.00575109
     atom    4 type  2   force =     0.00000000    0.00000064    0.00576352
     atom    5 type  1   force =     0.00000000    0.00000107   -0.00482401
     atom    6 type  1   force =     0.00000000   -0.00000282   -0.00481553
     atom    7 type  2   force =     0.00000000    0.00000302    0.00576108
     atom    8 type  2   force =     0.00000000    0.00000272    0.00574456
     atom    9 type  1   force =     0.00000000    0.00000229   -0.00485129
     atom   10 type  1   force =     0.00000000    0.00000103   -0.00483970
     atom   11 type  2   force =     0.00000000   -0.00000060    0.00575128
     atom   12 type  2   force =     0.00000000   -0.00000189    0.00576526
     atom   13 type  1   force =     0.00000000   -0.00000031   -0.00482138
     atom   14 type  1   force =     0.00000000    0.00000189   -0.00482166
     atom   15 type  2   force =     0.00000000   -0.00000251    0.00575648
     atom   16 type  2   force =     0.00000000   -0.00000280    0.00574283
     The ionic contribution  to forces
     atom    1 type  1   force =     0.00000000    0.00000001    0.06271747
     atom    2 type  1   force =    -0.00000000    0.00000001    0.06271747
     atom    3 type  2   force =     0.00000000    0.00000001   -0.06271747
     atom    4 type  2   force =    -0.00000000    0.00000000   -0.06271747
     atom    5 type  1   force =     0.00000000    0.00000001    0.06271747
     atom    6 type  1   force =    -0.00000000    0.00000001    0.06271747
     atom    7 type  2   force =     0.00000000    0.00000001   -0.06271747
     atom    8 type  2   force =    -0.00000000    0.00000000   -0.06271747
     atom    9 type  1   force =    -0.00000000   -0.00000000    0.06271747
     atom   10 type  1   force =     0.00000000   -0.00000002    0.06271747
     atom   11 type  2   force =    -0.00000000   -0.00000000   -0.06271747
     atom   12 type  2   force =     0.00000000   -0.00000001   -0.06271747
     atom   13 type  1   force =    -0.00000000   -0.00000000    0.06271747
     atom   14 type  1   force =     0.00000000   -0.00000002    0.06271747
     atom   15 type  2   force =    -0.00000000   -0.00000000   -0.06271747
     atom   16 type  2   force =     0.00000000   -0.00000001   -0.06271747
     The local contribution  to forces
     atom    1 type  1   force =    -0.00000009    0.00000638   -0.05823662
     atom    2 type  1   force =     0.00000000    0.00000108   -0.05827259
     atom    3 type  2   force =    -0.00000002    0.00000367    0.05694906
     atom    4 type  2   force =     0.00000000    0.00000116    0.05697723
     atom    5 type  1   force =    -0.00000009   -0.00000798   -0.05830089
     atom    6 type  1   force =     0.00000000    0.00000558   -0.05834568
     atom    7 type  2   force =    -0.00000002    0.00000562    0.05697151
     atom    8 type  2   force =     0.00000000    0.00000367    0.05695377
     atom    9 type  1   force =    -0.00000009   -0.00000517   -0.05823714
     atom   10 type  1   force =     0.00000009   -0.00000180   -0.05827170
     atom   11 type  2   force =    -0.00000002   -0.00000596    0.05695171
     atom   12 type  2   force =     0.00000002   -0.00000123    0.05697854
     atom   13 type  1   force =    -0.00000009    0.00000846   -0.05831047
     atom   14 type  1   force =     0.00000009   -0.00000501   -0.05832499
     atom   15 type  2   force =    -0.00000002   -0.00000601    0.05696845
     atom   16 type  2   force =     0.00000002   -0.00000441    0.05695618
     The core correction contribution to forces
     atom    1 type  1   force =    -0.00000001   -0.00000002    0.00046354
     atom    2 type  1   force =    -0.00000000   -0.00000000    0.00046377
     atom    3 type  2   force =     0.00000000   -0.00000001   -0.00006502
     atom    4 type  2   force =    -0.00000000   -0.00000001   -0.00006514
     atom    5 type  1   force =    -0.00000001    0.00000038    0.00046382
     atom    6 type  1   force =    -0.00000000    0.00000005    0.00046506
     atom    7 type  2   force =     0.00000000   -0.00000002   -0.00006511
     atom    8 type  2   force =    -0.00000000   -0.00000003   -0.00006493
     atom    9 type  1   force =    -0.00000001    0.00000010    0.00046351
     atom   10 type  1   force =     0.00000001   -0.00000002    0.00046392
     atom   11 type  2   force =     0.00000000   -0.00000000   -0.00006501
     atom   12 type  2   force =    -0.00000000    0.00000002   -0.00006516
     atom   13 type  1   force =    -0.00000001   -0.00000038    0.00046393
     atom   14 type  1   force =     0.00000001   -0.00000005    0.00046476
     atom   15 type  2   force =     0.00000000    0.00000002   -0.00006506
     atom   16 type  2   force =    -0.00000000    0.00000002   -0.00006490
     The Hubbard contrib.    to forces
     atom    1 type  1   force =     0.00000000    0.00000000    0.00000000
     atom    2 type  1   force =     0.00000000    0.00000000    0.00000000
     atom    3 type  2   force =     0.00000000    0.00000000    0.00000000
     atom    4 type  2   force =     0.00000000    0.00000000    0.00000000
     atom    5 type  1   force =     0.00000000    0.00000000    0.00000000
     atom    6 type  1   force =     0.00000000    0.00000000    0.00000000
     atom    7 type  2   force =     0.00000000    0.00000000    0.00000000
     atom    8 type  2   force =     0.00000000    0.00000000    0.00000000
     atom    9 type  1   force =     0.00000000    0.00000000    0.00000000
     atom   10 type  1   force =     0.00000000    0.00000000    0.00000000
     atom   11 type  2   force =     0.00000000    0.00000000    0.00000000
     atom   12 type  2   force =     0.00000000    0.00000000    0.00000000
     atom   13 type  1   force =     0.00000000    0.00000000    0.00000000
     atom   14 type  1   force =     0.00000000    0.00000000    0.00000000
     atom   15 type  2   force =     0.00000000    0.00000000    0.00000000
     atom   16 type  2   force =     0.00000000    0.00000000    0.00000000
     The SCF correction term to forces
     atom    1 type  1   force =     0.00000000   -0.00001082   -0.00006662
     atom    2 type  1   force =     0.00000000    0.00000145   -0.00001844
     atom    3 type  2   force =     0.00000000   -0.00000454    0.00001878
     atom    4 type  2   force =    -0.00000000   -0.00000181   -0.00002094
     atom    5 type  1   force =     0.00000000    0.00000964    0.00000582
     atom    6 type  1   force =    -0.00000000   -0.00000796    0.00007403
     atom    7 type  2   force =    -0.00000000   -0.00000811   -0.00001243
     atom    8 type  2   force =    -0.00000000   -0.00000612    0.00002049
     atom    9 type  1   force =     0.00000000    0.00000386   -0.00006645
     atom   10 type  1   force =    -0.00000000    0.00000139   -0.00002176
     atom   11 type  2   force =     0.00000000    0.00000729    0.00001622
     atom   12 type  2   force =     0.00000000    0.00000259   -0.00002402
     atom   13 type  1   force =     0.00000000   -0.00001346    0.00002091
     atom   14 type  1   force =    -0.00000000    0.00000808    0.00004479
     atom   15 type  2   force =    -0.00000000    0.00000864   -0.00000544
     atom   16 type  2   force =     0.00000000    0.00000662    0.00001907

     Total force =     0.000250     Total SCF correction =     0.000145
     SCF correction compared to forces is large: reduce conv_thr to get better values

     General routines

     Parallel routines

   This run was terminated on:  10:25:18  26Jul2025

   JOB DONE.
Note: The following floating-point exceptions are signalling: IEEE_INVALID_FLAG
Note: The following floating-point exceptions are signalling: IEEE_INVALID_FLAG
Note: The following floating-point exceptions are signalling: IEEE_INVALID_FLAG
Note: The following floating-point exceptions are signalling: IEEE_INVALID_FLAG