     Program PWSCF v.7.2 starts on  1Jul2025 at 20:50:25

     Reading input from ZnO-001.in
Warning: card KPAR=8 ! <------- (DIVIDE K-POINTS EM 8 GRUPOS) ignored
Warning: card   O   0.3333333333500000  0.3333333333000000  0.8796764146000000 ignored
Warning: card   O   0.8333333333500000  0.3333333333000000  0.8796764146000000 ignored
Warning: card   O   0.1666666666500000  0.6666666667000000  0.3796764146000000 ignored
Warning: card   O   0.6666666666500001  0.6666666667000000  0.3796764146000000 ignored

     Current dimensions of program PWSCF are:
     Max number of different atomic species (ntypx) = 10
     Max number of k-points (npk) =  40000
     Max angular momentum in pseudopotentials (lmaxx) =  4
     file Zn.upf: wavefunction(s)  3D renormalized

     K-points division:     npool     =       2
     R & G space division:  proc/nbgrp/npool/nimage =       8
     Subspace diagonalization in iterative solution of the eigenvalue problem:
     a serial algorithm will be used

     Using Slab Decomposition

     bravais-lattice index     =            0
     lattice parameter (alat)  =      12.3576  a.u.
     unit-cell volume          =     659.5954 (a.u.)^3
     number of atoms/cell      =            4
     number of atomic types    =            2
     number of electrons       =        48.00
     number of Kohn-Sham states=           24
     kinetic-energy cutoff     =      50.0000  Ry
     charge density cutoff     =     400.0000  Ry
     scf convergence threshold =      1.0E-08
     mixing beta               =       0.3000
     number of iterations used =            8  plain     mixing
     Exchange-correlation= PBE
                           (   1   4   3   4   0   0   0)

     celldm(1)=  12.357644  celldm(2)=   0.000000  celldm(3)=   0.000000
     celldm(4)=   0.000000  celldm(5)=   0.000000  celldm(6)=   0.000000

     crystal axes: (cart. coord. in units of alat)
               a(1) = (   1.000000   0.000000   0.000000 )
               a(2) = (  -0.250000   0.433013   0.000000 )
               a(3) = (   0.000000   0.000000   0.807179 )

     reciprocal axes: (cart. coord. in units 2 pi/alat)
               b(1) = (  1.000000  0.577350 -0.000000 )
               b(2) = (  0.000000  2.309401  0.000000 )
               b(3) = (  0.000000 -0.000000  1.238882 )

     PseudoPot. # 1 for Zn read from file:
     ../../../pseudos/Zn.upf
     MD5 check sum: 7f56cabf9682ed8c977c2f7d0c5985c5
     Pseudo is Ultrasoft + core correction, Zval = 12.0
     Generated using &quot;atomic&quot; code by A. Dal Corso  v.6.2.2
     Using radial grid of 1201 points,  6 beta functions with:
                l(1) =   0
                l(2) =   0
                l(3) =   1
                l(4) =   1
                l(5) =   2
                l(6) =   2
     Q(r) pseudized with 0 coefficients

     PseudoPot. # 2 for O  read from file:
     ../../../pseudos/O.upf
     MD5 check sum: 91400c9766925bcf19f520983a725ff0
     Pseudo is Ultrasoft + core correction, Zval =  6.0
     Generated using &quot;atomic&quot; code by A. Dal Corso  v.6.3MaX
     Using radial grid of 1095 points,  4 beta functions with:
                l(1) =   0
                l(2) =   0
                l(3) =   1
                l(4) =   1
     Q(r) pseudized with 0 coefficients

     atomic species   valence    mass     pseudopotential
        Zn            12.00    65.38000     Zn( 1.00)
        O              6.00    15.99940     O ( 1.00)

     No symmetry found

   Cartesian axes

     site n.     atom                  positions (alat units)
         1           Zn  tau(   1) = (   0.2516184   0.1443376   0.4041010  )
         2           Zn  tau(   2) = (   0.7500000   0.1443376   0.4041010  )
         3           Zn  tau(   3) = (   0.0000000   0.2886751   0.0005114  )
         4           Zn  tau(   4) = (   0.5000000   0.2886751   0.0005114  )

     number of k points=   112

     Number of k-points >= 100: set verbosity='high' to print them.

     Check: negative core charge=   -0.000002

     Initial potential from superposition of free atoms

     starting charge      47.9851, renormalised to      48.0000
     Starting wfcs are   36 randomized atomic wfcs

     Self-consistent Calculation

     iteration #  1     ecut=    50.00 Ry     beta= 0.30
     Davidson diagonalization with overlap
     ethr =  1.00E-02,  avg # of iterations =  1.5

     Threshold (ethr) on eigenvalues was too large:
     Diagonalizing with lowered threshold

     Davidson diagonalization with overlap
     ethr =  1.81E-04,  avg # of iterations =  4.0

     total energy              =    -593.21335343 Ry
     estimated scf accuracy    <       0.07809560 Ry

[...]

     total energy              =    -593.22860757 Ry
     estimated scf accuracy    <       0.00000001 Ry

     iteration # 28     ecut=    50.00 Ry     beta= 0.30
     Davidson diagonalization with overlap
     ethr =  2.77E-11,  avg # of iterations =  3.5

     End of self-consistent calculation

     Number of k-points >= 100: set verbosity='high' to print the bands.

     highest occupied level (ev):     5.9579

!    total energy              =    -593.22860757 Ry
     estimated scf accuracy    <          2.7E-10 Ry

     The total energy is the sum of the following terms:
     one-electron contribution =    -318.53788015 Ry
     hartree contribution      =     216.96749126 Ry
     xc contribution           =    -188.29675591 Ry
     ewald contribution        =    -303.36146278 Ry

     convergence has been achieved in  28 iterations

     Forces acting on atoms (cartesian axes, Ry/au):

     atom    1 type  1   force =    -0.00057883   -0.00039006    0.00000722
     atom    2 type  1   force =    -0.00076422   -0.00038528    0.00000048
     atom    3 type  1   force =     0.00059306    0.00038317   -0.00000369
     atom    4 type  1   force =     0.00074998    0.00039217   -0.00000401
     The non-local contrib.  to forces
     atom    1 type  1   force =     0.01232139    0.00755440    0.00001034
     atom    2 type  1   force =     0.01540458    0.00837206    0.00000311
     atom    3 type  1   force =    -0.01342941   -0.00809469   -0.00000659
     atom    4 type  1   force =    -0.01430724   -0.00783891   -0.00000680
     The ionic contribution  to forces
     atom    1 type  1   force =    -0.12252902   -0.05468826    0.00000000
     atom    2 type  1   force =     0.11195318    0.05457728    0.00000000
     atom    3 type  1   force =    -0.01725279   -0.02058573    0.00000000
     atom    4 type  1   force =     0.02782863    0.02069671   -0.00000000
     The local contribution  to forces
     atom    1 type  1   force =     0.10991585    0.04693418   -0.00001754
     atom    2 type  1   force =    -0.12770417   -0.06311712   -0.00000505
     atom    3 type  1   force =     0.03093498    0.02885051    0.00001110
     atom    4 type  1   force =    -0.01313550   -0.01265851    0.00001195
     The core correction contribution to forces
     atom    1 type  1   force =    -0.00025522   -0.00017573    0.00000013
     atom    2 type  1   force =    -0.00045427   -0.00023799    0.00000025
     atom    3 type  1   force =     0.00034079    0.00021707    0.00000013
     atom    4 type  1   force =     0.00036896    0.00019681    0.00000011
     The Hubbard contrib.    to forces
     atom    1 type  1   force =     0.00000000    0.00000000    0.00000000
     atom    2 type  1   force =     0.00000000    0.00000000    0.00000000
     atom    3 type  1   force =     0.00000000    0.00000000    0.00000000
     atom    4 type  1   force =     0.00000000    0.00000000    0.00000000
     The SCF correction term to forces
     atom    1 type  1   force =    -0.00003371   -0.00001655    0.00001398
     atom    2 type  1   force =     0.00003458    0.00001860    0.00000187
     atom    3 type  1   force =    -0.00000239   -0.00000589   -0.00000864
     atom    4 type  1   force =    -0.00000676   -0.00000582   -0.00000959

     Total force =     0.001560     Total SCF correction =     0.000059

     Writing all to output data dir ./ZnO_ANN.save/

     General routines

     Parallel routines

   This run was terminated on:  20:52:40   1Jul2025

   JOB DONE.