     Program PWSCF v.7.2 starts on  1Jul2025 at 20:56: 2

     Reading input from ZnO-002.in
Warning: card   O   0.3333333333500000  0.3333333333000000  0.8796764146000000 ignored
Warning: card   O   0.8333333333500000  0.3333333333000000  0.8796764146000000 ignored
Warning: card   O   0.1666666666500000  0.6666666667000000  0.3796764146000000 ignored
Warning: card   O   0.6666666666500001  0.6666666667000000  0.3796764146000000 ignored

     Current dimensions of program PWSCF are:
     Max number of different atomic species (ntypx) = 10
     Max number of k-points (npk) =  40000
     Max angular momentum in pseudopotentials (lmaxx) =  4
     file Zn.upf: wavefunction(s)  3D renormalized

     K-points division:     npool     =       2
     R & G space division:  proc/nbgrp/npool/nimage =       8
     Subspace diagonalization in iterative solution of the eigenvalue problem:
     a serial algorithm will be used

     Using Slab Decomposition

     bravais-lattice index     =            0
     lattice parameter (alat)  =      12.3576  a.u.
     unit-cell volume          =     659.5954 (a.u.)^3
     number of atoms/cell      =            4
     number of atomic types    =            2
     number of electrons       =        48.00
     number of Kohn-Sham states=           24
     kinetic-energy cutoff     =      50.0000  Ry
     charge density cutoff     =     400.0000  Ry
     scf convergence threshold =      1.0E-08
     mixing beta               =       0.3000
     number of iterations used =            8  plain     mixing
     Exchange-correlation= PBE
                           (   1   4   3   4   0   0   0)

     celldm(1)=  12.357644  celldm(2)=   0.000000  celldm(3)=   0.000000
     celldm(4)=   0.000000  celldm(5)=   0.000000  celldm(6)=   0.000000

     crystal axes: (cart. coord. in units of alat)
               a(1) = (   1.000000   0.000000   0.000000 )
               a(2) = (  -0.250000   0.433013   0.000000 )
               a(3) = (   0.000000   0.000000   0.807179 )

     reciprocal axes: (cart. coord. in units 2 pi/alat)
               b(1) = (  1.000000  0.577350 -0.000000 )
               b(2) = (  0.000000  2.309401  0.000000 )
               b(3) = (  0.000000 -0.000000  1.238882 )

     PseudoPot. # 1 for Zn read from file:
     ../../../pseudos/Zn.upf
     MD5 check sum: 7f56cabf9682ed8c977c2f7d0c5985c5
     Pseudo is Ultrasoft + core correction, Zval = 12.0
     Generated using &quot;atomic&quot; code by A. Dal Corso  v.6.2.2
     Using radial grid of 1201 points,  6 beta functions with:
                l(1) =   0
                l(2) =   0
                l(3) =   1
                l(4) =   1
                l(5) =   2
                l(6) =   2
     Q(r) pseudized with 0 coefficients

     PseudoPot. # 2 for O  read from file:
     ../../../pseudos/O.upf
     MD5 check sum: 91400c9766925bcf19f520983a725ff0
     Pseudo is Ultrasoft + core correction, Zval =  6.0
     Generated using &quot;atomic&quot; code by A. Dal Corso  v.6.3MaX
     Using radial grid of 1095 points,  4 beta functions with:
                l(1) =   0
                l(2) =   0
                l(3) =   1
                l(4) =   1
     Q(r) pseudized with 0 coefficients

     atomic species   valence    mass     pseudopotential
        Zn            12.00    65.38000     Zn( 1.00)
        O              6.00    15.99940     O ( 1.00)

     No symmetry found

   Cartesian axes

     site n.     atom                  positions (alat units)
         1           Zn  tau(   1) = (   0.2483816   0.1443376   0.4041010  )
         2           Zn  tau(   2) = (   0.7500000   0.1443376   0.4041010  )
         3           Zn  tau(   3) = (   0.0000000   0.2886751   0.0005114  )
         4           Zn  tau(   4) = (   0.5000000   0.2886751   0.0005114  )

     number of k points=   112

     Number of k-points >= 100: set verbosity='high' to print them.

     Check: negative core charge=   -0.000002

     Initial potential from superposition of free atoms

     starting charge      47.9851, renormalised to      48.0000
     Starting wfcs are   36 randomized atomic wfcs

     Self-consistent Calculation

     iteration #  1     ecut=    50.00 Ry     beta= 0.30
     Davidson diagonalization with overlap
     ethr =  1.00E-02,  avg # of iterations =  1.4

     Threshold (ethr) on eigenvalues was too large:
     Diagonalizing with lowered threshold

     Davidson diagonalization with overlap
     ethr =  1.81E-04,  avg # of iterations =  3.9

     total energy              =    -593.21338024 Ry
     estimated scf accuracy    <       0.07809997 Ry

[...]

     total energy              =    -593.22863459 Ry
     estimated scf accuracy    <       0.00000002 Ry

     iteration # 16     ecut=    50.00 Ry     beta= 0.30
     Davidson diagonalization with overlap
     ethr =  3.25E-11,  avg # of iterations =  5.1

     End of self-consistent calculation

     Number of k-points >= 100: set verbosity='high' to print the bands.

     highest occupied level (ev):     5.9512

!    total energy              =    -593.22863460 Ry
     estimated scf accuracy    <          4.9E-09 Ry

     The total energy is the sum of the following terms:
     one-electron contribution =    -318.53796345 Ry
     hartree contribution      =     216.96754590 Ry
     xc contribution           =    -188.29675427 Ry
     ewald contribution        =    -303.36146278 Ry

     convergence has been achieved in  16 iterations

     Forces acting on atoms (cartesian axes, Ry/au):

     atom    1 type  1   force =    -0.00092530   -0.00047784   -0.00000717
     atom    2 type  1   force =    -0.00045339   -0.00031730    0.00000910
     atom    3 type  1   force =     0.00069150    0.00035986    0.00000085
     atom    4 type  1   force =     0.00068719    0.00043528   -0.00000278
     The non-local contrib.  to forces
     atom    1 type  1   force =     0.01529433    0.00838850   -0.00000302
     atom    2 type  1   force =     0.01241855    0.00768774    0.00000367
     atom    3 type  1   force =    -0.01434903   -0.00794140    0.00000008
     atom    4 type  1   force =    -0.01336991   -0.00813796   -0.00000204
     The ionic contribution  to forces
     atom    1 type  1   force =     0.12252902    0.05446629    0.00000000
     atom    2 type  1   force =    -0.11195318   -0.05457728    0.00000000
     atom    3 type  1   force =     0.01767175    0.02096177    0.00000000
     atom    4 type  1   force =    -0.02824760   -0.02085078   -0.00000000
     The local contribution  to forces
     atom    1 type  1   force =    -0.13804529   -0.06295225    0.00000738
     atom    2 type  1   force =     0.09913924    0.04662983   -0.00000919
     atom    3 type  1   force =    -0.00289267   -0.01279474   -0.00000045
     atom    4 type  1   force =     0.04180352    0.02912100    0.00000420
     The core correction contribution to forces
     atom    1 type  1   force =    -0.00046309   -0.00023870    0.00000029
     atom    2 type  1   force =    -0.00026684   -0.00017818    0.00000000
     atom    3 type  1   force =     0.00038051    0.00019914    0.00000016
     atom    4 type  1   force =     0.00034954    0.00021778    0.00000020
     The Hubbard contrib.    to forces
     atom    1 type  1   force =     0.00000000    0.00000000    0.00000000
     atom    2 type  1   force =     0.00000000    0.00000000    0.00000000
     atom    3 type  1   force =     0.00000000    0.00000000    0.00000000
     atom    4 type  1   force =     0.00000000    0.00000000    0.00000000
     The SCF correction term to forces
     atom    1 type  1   force =    -0.00024062   -0.00014262   -0.00001248
     atom    2 type  1   force =     0.00020850    0.00011964    0.00001397
     atom    3 type  1   force =    -0.00011941   -0.00006586    0.00000040
     atom    4 type  1   force =     0.00015129    0.00008429   -0.00000580

     Total force =     0.001631     Total SCF correction =     0.000430
     SCF correction compared to forces is large: reduce conv_thr to get better values

     Writing all to output data dir ./ZnO_ANN.save/

     General routines

     Parallel routines

   This run was terminated on:  20:57:32   1Jul2025

   JOB DONE.