     Program PWSCF v.7.2 starts on 22Apr2025 at 13:17:59

     Waiting for input...
     Reading input from standard input

     Current dimensions of program PWSCF are:
     Max number of different atomic species (ntypx) = 10
     Max number of k-points (npk) =  40000
     Max angular momentum in pseudopotentials (lmaxx) =  4
     file Zn.upf: wavefunction(s)  3D renormalized

     K-points division:     npool     =       4
     R & G space division:  proc/nbgrp/npool/nimage =      16
     Subspace diagonalization in iterative solution of the eigenvalue problem:
     a serial algorithm will be used

     Using Slab Decomposition

     bravais-lattice index     =            4
     lattice parameter (alat)  =       6.1227  a.u.
     unit-cell volume          =     320.2489 (a.u.)^3
     number of atoms/cell      =            4
     number of atomic types    =            2
     number of electrons       =        36.00
     number of Kohn-Sham states=           36
     kinetic-energy cutoff     =      70.0000  Ry
     charge density cutoff     =     350.0000  Ry
     scf convergence threshold =      1.0E-09
     mixing beta               =       0.1000
     number of iterations used =            8  local-TF  mixing
     energy convergence thresh.=      1.0E-06
     force convergence thresh. =      1.0E-05
     press convergence thresh. =      5.0E-01
     Exchange-correlation= PBE
                           (   1   4   3   4   0   0   0)
     nstep                     =          450

     celldm(1)=   6.122712  celldm(2)=   0.000000  celldm(3)=   1.611111
     celldm(4)=   0.000000  celldm(5)=   0.000000  celldm(6)=   0.000000

     crystal axes: (cart. coord. in units of alat)
               a(1) = (   1.000000   0.000000   0.000000 )
               a(2) = (  -0.500000   0.866025   0.000000 )
               a(3) = (   0.000000   0.000000   1.611111 )

     reciprocal axes: (cart. coord. in units 2 pi/alat)
               b(1) = (  1.000000  0.577350 -0.000000 )
               b(2) = (  0.000000  1.154701  0.000000 )
               b(3) = (  0.000000 -0.000000  0.620690 )

     PseudoPot. # 1 for Zn read from file:
     ./Zn.upf
     MD5 check sum: 7f56cabf9682ed8c977c2f7d0c5985c5
     Pseudo is Ultrasoft + core correction, Zval = 12.0
     Generated using &quot;atomic&quot; code by A. Dal Corso  v.6.2.2
     Using radial grid of 1201 points,  6 beta functions with:
                l(1) =   0
                l(2) =   0
                l(3) =   1
                l(4) =   1
                l(5) =   2
                l(6) =   2
     Q(r) pseudized with 0 coefficients

     PseudoPot. # 2 for O  read from file:
     ./O.upf
     MD5 check sum: 91400c9766925bcf19f520983a725ff0
     Pseudo is Ultrasoft + core correction, Zval =  6.0
     Generated using &quot;atomic&quot; code by A. Dal Corso  v.6.3MaX
     Using radial grid of 1095 points,  4 beta functions with:
                l(1) =   0
                l(2) =   0
                l(3) =   1
                l(4) =   1
     Q(r) pseudized with 0 coefficients

     atomic species   valence    mass     pseudopotential
        Zn            12.00    63.38000     Zn( 1.00)
        O              6.00    15.99900     O ( 1.00)

     12 Sym. Ops. (no inversion) found ( 6 have fractional translation)

                                    s                        frac. trans.

      isym =  1     identity

 cryst.   s( 1) = (     1          0          0      )
                  (     0          1          0      )
                  (     0          0          1      )

 cart.    s( 1) = (  1.0000000  0.0000000  0.0000000 )
                  (  0.0000000  1.0000000  0.0000000 )
                  (  0.0000000  0.0000000  1.0000000 )

      isym =  2     180 deg rotation - cart. axis [0,0,1]

 cryst.   s( 2) = (    -1          0          0      )    f =(  0.0000000 )
                  (     0         -1          0      )       (  0.0000000 )
                  (     0          0          1      )       (  0.5000000 )

 cart.    s( 2) = ( -1.0000000  0.0000000  0.0000000 )    f =(  0.0000000 )
                  (  0.0000000 -1.0000000  0.0000000 )       (  0.0000000 )
                  (  0.0000000  0.0000000  1.0000000 )       (  0.8055556 )

      isym =  3      60 deg rotation - cryst. axis [0,0,1]

[...]

      isym =  7     inv. 180 deg rotation - cart. axis [0,1,0]

[...]

      isym =  9     inv. 180 deg rotation - cryst. axis [1,-1,0]

[...]

 cryst.   s(10) = (    -1         -1          0      )    f =(  0.0000000 )
                  (     0          1          0      )       (  0.0000000 )
                  (     0          0          1      )       (  0.5000000 )

 cart.    s(10) = ( -0.5000000 -0.8660254  0.0000000 )    f =(  0.0000000 )
                  ( -0.8660254  0.5000000  0.0000000 )       (  0.0000000 )
                  (  0.0000000  0.0000000  1.0000000 )       (  0.8055556 )

[...]

 cryst.   s(11) = (     1          1          0      )
                  (     0         -1          0      )
                  (     0          0          1      )

 cart.    s(11) = (  0.5000000  0.8660254  0.0000000 )
                  (  0.8660254 -0.5000000  0.0000000 )
                  (  0.0000000  0.0000000  1.0000000 )

[...]

     point group C_6v (6mm)
     there are  6 classes
     the character table:

       E     2C6   2C3   C2    3s_v  3s_d
A_1    1.00  1.00  1.00  1.00  1.00  1.00
A_2    1.00  1.00  1.00  1.00 -1.00 -1.00
B_1    1.00 -1.00  1.00 -1.00  1.00 -1.00
B_2    1.00 -1.00  1.00 -1.00 -1.00  1.00
E_1    2.00  1.00 -1.00 -2.00  0.00  0.00
E_2    2.00 -1.00 -1.00  2.00  0.00  0.00

     the symmetry operations in each class and the name of the first element:

     E        1
          identity
     2C6      3    4
           60 deg rotation - cryst. axis [0,0,1]
     2C3      5    6
          120 deg rotation - cryst. axis [0,0,1]
     C2       2
          180 deg rotation - cart. axis [0,0,1]
     3s_v     8   12   11
          inv. 180 deg rotation - cart. axis [1,0,0]
     3s_d     7    9   10
          inv. 180 deg rotation - cart. axis [0,1,0]

   Cartesian axes

     site n.     atom                  positions (alat units)
         1           Zn  tau(   1) = (   0.5000000   0.2886751   0.8065088  )
         2           Zn  tau(   2) = (  -0.0000000   0.5773503   0.0009533  )
         3           O   tau(   3) = (   0.5000000   0.2886751   1.4173239  )
         4           O   tau(   4) = (  -0.0000000   0.5773503   0.6117684  )

   Crystallographic axes

     site n.     atom                  positions (cryst. coord.)
         1           Zn  tau(   1) = (  0.6666667  0.3333333  0.5005917  )
         2           Zn  tau(   2) = (  0.3333333  0.6666667  0.0005917  )
         3           O   tau(   3) = (  0.6666667  0.3333333  0.8797183  )
         4           O   tau(   4) = (  0.3333333  0.6666667  0.3797183  )

     number of k points=    84  Gaussian smearing, width (Ry)=  0.0050
                       cart. coord. in units 2pi/alat
        k(    1) = (   0.0000000   0.0000000   0.0000000), wk =   0.0020000
        k(    2) = (   0.0000000   0.0000000   0.0620690), wk =   0.0040000
        k(    3) = (   0.0000000   0.0000000   0.1241379), wk =   0.0040000
        k(    4) = (   0.0000000   0.0000000   0.1862069), wk =   0.0040000
        k(    5) = (   0.0000000   0.0000000   0.2482759), wk =   0.0040000
        k(    6) = (   0.0000000   0.0000000  -0.3103448), wk =   0.0020000
        k(    7) = (   0.0000000   0.1154701   0.0000000), wk =   0.0120000
        k(    8) = (   0.0000000   0.1154701   0.0620690), wk =   0.0240000
        k(    9) = (   0.0000000   0.1154701   0.1241379), wk =   0.0240000
        k(   10) = (   0.0000000   0.1154701   0.1862069), wk =   0.0240000
        k(   11) = (   0.0000000   0.1154701   0.2482759), wk =   0.0240000
        k(   12) = (   0.0000000   0.1154701  -0.3103448), wk =   0.0120000
        k(   13) = (   0.0000000   0.2309401   0.0000000), wk =   0.0120000
        k(   14) = (   0.0000000   0.2309401   0.0620690), wk =   0.0240000
        k(   15) = (   0.0000000   0.2309401   0.1241379), wk =   0.0240000
        k(   16) = (   0.0000000   0.2309401   0.1862069), wk =   0.0240000
        k(   17) = (   0.0000000   0.2309401   0.2482759), wk =   0.0240000
        k(   18) = (   0.0000000   0.2309401  -0.3103448), wk =   0.0120000
        k(   19) = (   0.0000000   0.3464102   0.0000000), wk =   0.0120000
        k(   20) = (   0.0000000   0.3464102   0.0620690), wk =   0.0240000
        k(   21) = (   0.0000000   0.3464102   0.1241379), wk =   0.0240000
        k(   22) = (   0.0000000   0.3464102   0.1862069), wk =   0.0240000
        k(   23) = (   0.0000000   0.3464102   0.2482759), wk =   0.0240000
        k(   24) = (   0.0000000   0.3464102  -0.3103448), wk =   0.0120000
        k(   25) = (   0.0000000   0.4618802   0.0000000), wk =   0.0120000
        k(   26) = (   0.0000000   0.4618802   0.0620690), wk =   0.0240000
        k(   27) = (   0.0000000   0.4618802   0.1241379), wk =   0.0240000
        k(   28) = (   0.0000000   0.4618802   0.1862069), wk =   0.0240000
        k(   29) = (   0.0000000   0.4618802   0.2482759), wk =   0.0240000
        k(   30) = (   0.0000000   0.4618802  -0.3103448), wk =   0.0120000
        k(   31) = (   0.0000000  -0.5773503   0.0000000), wk =   0.0060000
        k(   32) = (   0.0000000  -0.5773503   0.0620690), wk =   0.0120000
        k(   33) = (   0.0000000  -0.5773503   0.1241379), wk =   0.0120000
        k(   34) = (   0.0000000  -0.5773503   0.1862069), wk =   0.0120000
        k(   35) = (   0.0000000  -0.5773503   0.2482759), wk =   0.0120000
        k(   36) = (   0.0000000  -0.5773503  -0.3103448), wk =   0.0060000
        k(   37) = (   0.1000000   0.1732051   0.0000000), wk =   0.0120000
        k(   38) = (   0.1000000   0.1732051   0.0620690), wk =   0.0240000
        k(   39) = (   0.1000000   0.1732051   0.1241379), wk =   0.0240000
        k(   40) = (   0.1000000   0.1732051   0.1862069), wk =   0.0240000
        k(   41) = (   0.1000000   0.1732051   0.2482759), wk =   0.0240000
        k(   42) = (   0.1000000   0.1732051  -0.3103448), wk =   0.0120000
        k(   43) = (   0.1000000   0.2886751   0.0000000), wk =   0.0240000
        k(   44) = (   0.1000000   0.2886751   0.0620690), wk =   0.0480000
        k(   45) = (   0.1000000   0.2886751   0.1241379), wk =   0.0480000
        k(   46) = (   0.1000000   0.2886751   0.1862069), wk =   0.0480000
        k(   47) = (   0.1000000   0.2886751   0.2482759), wk =   0.0480000
        k(   48) = (   0.1000000   0.2886751  -0.3103448), wk =   0.0240000
        k(   49) = (   0.1000000   0.4041452   0.0000000), wk =   0.0240000
        k(   50) = (   0.1000000   0.4041452   0.0620690), wk =   0.0480000
        k(   51) = (   0.1000000   0.4041452   0.1241379), wk =   0.0480000
        k(   52) = (   0.1000000   0.4041452   0.1862069), wk =   0.0480000
        k(   53) = (   0.1000000   0.4041452   0.2482759), wk =   0.0480000
        k(   54) = (   0.1000000   0.4041452  -0.3103448), wk =   0.0240000
[...]
        k(   41) = (   0.0988400   0.1711958   0.2449022), wk =   0.0240000
        k(   42) = (   0.0988400   0.1711958  -0.3061277), wk =   0.0120000
        k(   43) = (   0.0988400   0.2853264   0.0000000), wk =   0.0240000
        k(   44) = (   0.0988400   0.2853264   0.0612255), wk =   0.0480000
        k(   45) = (   0.0988400   0.2853264   0.1224511), wk =   0.0480000
        k(   46) = (   0.0988400   0.2853264   0.1836766), wk =   0.0480000
        k(   47) = (   0.0988400   0.2853264   0.2449022), wk =   0.0480000
        k(   48) = (   0.0988400   0.2853264  -0.3061277), wk =   0.0240000
        k(   49) = (   0.0988400   0.3994570   0.0000000), wk =   0.0240000
        k(   50) = (   0.0988400   0.3994570   0.0612255), wk =   0.0480000
        k(   51) = (   0.0988400   0.3994570   0.1224511), wk =   0.0480000
        k(   52) = (   0.0988400   0.3994570   0.1836766), wk =   0.0480000
        k(   53) = (   0.0988400   0.3994570   0.2449022), wk =   0.0480000
        k(   54) = (   0.0988400   0.3994570  -0.3061277), wk =   0.0240000
        k(   55) = (   0.0988400   0.5135875   0.0000000), wk =   0.0240000
        k(   56) = (   0.0988400   0.5135875   0.0612255), wk =   0.0480000
        k(   57) = (   0.0988400   0.5135875   0.1224511), wk =   0.0480000
        k(   58) = (   0.0988400   0.5135875   0.1836766), wk =   0.0480000
        k(   59) = (   0.0988400   0.5135875   0.2449022), wk =   0.0480000
        k(   60) = (   0.0988400   0.5135875  -0.3061277), wk =   0.0240000
[...]
        k(   70) = (   0.1976799   0.4565222   0.1836766), wk =   0.0480000
        k(   71) = (   0.1976799   0.4565222   0.2449022), wk =   0.0480000
        k(   72) = (   0.1976799   0.4565222  -0.3061277), wk =   0.0240000
        k(   73) = (   0.1976799   0.5706528   0.0000000), wk =   0.0120000
        k(   74) = (   0.1976799   0.5706528   0.0612255), wk =   0.0240000
        k(   75) = (   0.1976799   0.5706528   0.1224511), wk =   0.0240000
        k(   76) = (   0.1976799   0.5706528   0.1836766), wk =   0.0240000
        k(   77) = (   0.1976799   0.5706528   0.2449022), wk =   0.0240000
        k(   78) = (   0.1976799   0.5706528  -0.3061277), wk =   0.0120000
        k(   79) = (   0.2965199   0.5135875   0.0000000), wk =   0.0120000
        k(   80) = (   0.2965199   0.5135875   0.0612255), wk =   0.0240000
        k(   81) = (   0.2965199   0.5135875   0.1224511), wk =   0.0240000
        k(   82) = (   0.2965199   0.5135875   0.1836766), wk =   0.0240000
        k(   83) = (   0.2965199   0.5135875   0.2449022), wk =   0.0240000
        k(   84) = (   0.2965199   0.5135875  -0.3061277), wk =   0.0120000

                       cryst. coord.
        k(    1) = (   0.0000000   0.0000000   0.0000000), wk =   0.0020000
        k(    2) = (   0.0000000   0.0000000   0.1000000), wk =   0.0040000
        k(    3) = (   0.0000000   0.0000000   0.2000000), wk =   0.0040000
        k(    4) = (   0.0000000   0.0000000   0.3000000), wk =   0.0040000
        k(    5) = (   0.0000000   0.0000000   0.4000000), wk =   0.0040000
        k(    6) = (   0.0000000   0.0000000  -0.5000000), wk =   0.0020000
        k(    7) = (   0.0000000   0.1000000   0.0000000), wk =   0.0120000
        k(    8) = (   0.0000000   0.1000000   0.1000000), wk =   0.0240000
        k(    9) = (   0.0000000   0.1000000   0.2000000), wk =   0.0240000
        k(   10) = (   0.0000000   0.1000000   0.3000000), wk =   0.0240000
        k(   11) = (   0.0000000   0.1000000   0.4000000), wk =   0.0240000
        k(   12) = (   0.0000000   0.1000000  -0.5000000), wk =   0.0120000
        k(   13) = (   0.0000000   0.2000000   0.0000000), wk =   0.0120000
        k(   14) = (   0.0000000   0.2000000   0.1000000), wk =   0.0240000
        k(   15) = (   0.0000000   0.2000000   0.2000000), wk =   0.0240000
        k(   16) = (   0.0000000   0.2000000   0.3000000), wk =   0.0240000
        k(   17) = (   0.0000000   0.2000000   0.4000000), wk =   0.0240000
        k(   18) = (   0.0000000   0.2000000  -0.5000000), wk =   0.0120000
        k(   19) = (   0.0000000   0.3000000   0.0000000), wk =   0.0120000
        k(   20) = (   0.0000000   0.3000000   0.1000000), wk =   0.0240000
        k(   21) = (   0.0000000   0.3000000   0.2000000), wk =   0.0240000
        k(   22) = (   0.0000000   0.3000000   0.3000000), wk =   0.0240000
        k(   23) = (   0.0000000   0.3000000   0.4000000), wk =   0.0240000
        k(   24) = (   0.0000000   0.3000000  -0.5000000), wk =   0.0120000
        k(   25) = (   0.0000000   0.4000000   0.0000000), wk =   0.0120000
        k(   26) = (   0.0000000   0.4000000   0.1000000), wk =   0.0240000
        k(   27) = (   0.0000000   0.4000000   0.2000000), wk =   0.0240000
        k(   28) = (   0.0000000   0.4000000   0.3000000), wk =   0.0240000
        k(   29) = (   0.0000000   0.4000000   0.4000000), wk =   0.0240000
        k(   30) = (   0.0000000   0.4000000  -0.5000000), wk =   0.0120000
        k(   31) = (   0.0000000  -0.5000000   0.0000000), wk =   0.0060000
        k(   32) = (   0.0000000  -0.5000000   0.1000000), wk =   0.0120000
        k(   33) = (   0.0000000  -0.5000000   0.2000000), wk =   0.0120000
        k(   34) = (   0.0000000  -0.5000000   0.3000000), wk =   0.0120000
        k(   35) = (   0.0000000  -0.5000000   0.4000000), wk =   0.0120000
        k(   36) = (   0.0000000  -0.5000000  -0.5000000), wk =   0.0060000
        k(   37) = (   0.1000000   0.1000000   0.0000000), wk =   0.0120000
        k(   38) = (   0.1000000   0.1000000   0.1000000), wk =   0.0240000
        k(   39) = (   0.1000000   0.1000000   0.2000000), wk =   0.0240000
        k(   40) = (   0.1000000   0.1000000   0.3000000), wk =   0.0240000
        k(   41) = (   0.1000000   0.1000000   0.4000000), wk =   0.0240000
        k(   42) = (   0.1000000   0.1000000  -0.5000000), wk =   0.0120000
        k(   43) = (   0.1000000   0.2000000   0.0000000), wk =   0.0240000
        k(   44) = (   0.1000000   0.2000000   0.1000000), wk =   0.0480000
        k(   45) = (   0.1000000   0.2000000   0.2000000), wk =   0.0480000
        k(   46) = (   0.1000000   0.2000000   0.3000000), wk =   0.0480000
        k(   47) = (   0.1000000   0.2000000   0.4000000), wk =   0.0480000
        k(   48) = (   0.1000000   0.2000000  -0.5000000), wk =   0.0240000
        k(   49) = (   0.1000000   0.3000000   0.0000000), wk =   0.0240000
        k(   50) = (   0.1000000   0.3000000   0.1000000), wk =   0.0480000
        k(   51) = (   0.1000000   0.3000000   0.2000000), wk =   0.0480000
        k(   52) = (   0.1000000   0.3000000   0.3000000), wk =   0.0480000
        k(   53) = (   0.1000000   0.3000000   0.4000000), wk =   0.0480000
        k(   54) = (   0.1000000   0.3000000  -0.5000000), wk =   0.0240000
        k(   55) = (   0.1000000   0.4000000   0.0000000), wk =   0.0240000
        k(   56) = (   0.1000000   0.4000000   0.1000000), wk =   0.0480000
        k(   57) = (   0.1000000   0.4000000   0.2000000), wk =   0.0480000
        k(   58) = (   0.1000000   0.4000000   0.3000000), wk =   0.0480000
        k(   59) = (   0.1000000   0.4000000   0.4000000), wk =   0.0480000
        k(   60) = (   0.1000000   0.4000000  -0.5000000), wk =   0.0240000
[...]
        k(   70) = (   0.2000000   0.3000000   0.3000000), wk =   0.0480000
        k(   71) = (   0.2000000   0.3000000   0.4000000), wk =   0.0480000
        k(   72) = (   0.2000000   0.3000000  -0.5000000), wk =   0.0240000
        k(   73) = (   0.2000000   0.4000000   0.0000000), wk =   0.0120000
        k(   74) = (   0.2000000   0.4000000   0.1000000), wk =   0.0240000
        k(   75) = (   0.2000000   0.4000000   0.2000000), wk =   0.0240000
        k(   76) = (   0.2000000   0.4000000   0.3000000), wk =   0.0240000
        k(   77) = (   0.2000000   0.4000000   0.4000000), wk =   0.0240000
        k(   78) = (   0.2000000   0.4000000  -0.5000000), wk =   0.0120000
        k(   79) = (   0.3000000   0.3000000   0.0000000), wk =   0.0120000
        k(   80) = (   0.3000000   0.3000000   0.1000000), wk =   0.0240000
        k(   81) = (   0.3000000   0.3000000   0.2000000), wk =   0.0240000
        k(   82) = (   0.3000000   0.3000000   0.3000000), wk =   0.0240000
        k(   83) = (   0.3000000   0.3000000   0.4000000), wk =   0.0240000
        k(   84) = (   0.3000000   0.3000000  -0.5000000), wk =   0.0120000

     Check: negative core charge=   -0.000003

     Initial potential from superposition of free atoms

     starting charge      35.9925, renormalised to      36.0000
     Starting wfcs are   26 randomized atomic wfcs +   10 random wfcs

     Self-consistent Calculation

[...]

     c_bands:  1 eigenvalues not converged
     c_bands:  2 eigenvalues not converged
     c_bands:  2 eigenvalues not converged
     c_bands:  2 eigenvalues not converged
     c_bands:  1 eigenvalues not converged
     c_bands:  1 eigenvalues not converged
     c_bands:  2 eigenvalues not converged
     c_bands:  2 eigenvalues not converged
     c_bands:  3 eigenvalues not converged
     c_bands:  2 eigenvalues not converged
     c_bands:  2 eigenvalues not converged
     c_bands:  2 eigenvalues not converged
     c_bands:  2 eigenvalues not converged
     c_bands:  2 eigenvalues not converged
     c_bands:  2 eigenvalues not converged
     c_bands:  4 eigenvalues not converged
     c_bands:  1 eigenvalues not converged
     c_bands:  2 eigenvalues not converged
     c_bands:  3 eigenvalues not converged
     c_bands:  2 eigenvalues not converged
     ethr =  1.00E-06,  avg # of iterations = 19.8

[...]

     total energy              =    -361.64694483 Ry
     estimated scf accuracy    <          7.2E-11 Ry

     iteration # 21     ecut=    70.00 Ry     beta= 0.10
     Davidson diagonalization with overlap

     ethr =  2.01E-13,  avg # of iterations =  1.4

     End of self-consistent calculation

[...]

          k = 0.2965 0.5136-0.3061 (  3288 PWs)   bands (ev):

   -10.2587 -10.2587   1.2006   1.2006   1.4792   1.4792   1.9132   1.9132
     2.3602   2.3602   2.7700   2.7700   3.1803   3.1803   4.2807   4.2807
     5.5748   5.5748  14.0232  14.0232  15.1205  15.1205  15.6452  15.6452
    21.7857  21.7857  22.7867  22.7867  26.0799  26.0799  29.9461  29.9461
    32.1556  32.1556  33.8206  33.8206

     occupation numbers
     1.0000   1.0000   1.0000   1.0000   1.0000   1.0000   1.0000   1.0000
     1.0000   1.0000   1.0000   1.0000   1.0000   1.0000   1.0000   1.0000
     1.0000   1.0000   0.0000   0.0000   0.0000   0.0000   0.0000   0.0000
     0.0000   0.0000   0.0000   0.0000   0.0000   0.0000   0.0000   0.0000
     0.0000   0.0000   0.0000   0.0000

     the Fermi energy is     7.1861 ev

!    total energy              =    -361.64694485 Ry
     estimated scf accuracy    <          2.0E-12 Ry
     smearing contrib. (-TS)   =      -0.00000000 Ry
     internal energy E=F+TS    =    -361.64694485 Ry

     The total energy is F=E-TS. E is the sum of the following terms:
     one-electron contribution =    -155.40757957 Ry
     hartree contribution      =     118.59380249 Ry
     xc contribution           =    -109.52721915 Ry
     ewald contribution        =    -215.30594863 Ry

     convergence has been achieved in  21 iterations

     Forces acting on atoms (cartesian axes, Ry/au):

     atom    1 type  1   force =     0.00000000    0.00000000    0.00000790
     atom    2 type  1   force =     0.00000000   -0.00000000    0.00000790
     atom    3 type  2   force =     0.00000000    0.00000000   -0.00000790
     atom    4 type  2   force =     0.00000000   -0.00000000   -0.00000790
     The non-local contrib.  to forces
     atom    1 type  1   force =     0.00000000   -0.00000000   -0.00479998
     atom    2 type  1   force =     0.00000000    0.00000000   -0.00479998
     atom    3 type  2   force =    -0.00000000    0.00000000    0.00543382
     atom    4 type  2   force =    -0.00000000   -0.00000000    0.00543382
     The ionic contribution  to forces
     atom    1 type  1   force =    -0.00000000   -0.00000000    0.06174507
     atom    2 type  1   force =     0.00000000    0.00000000    0.06174507
     atom    3 type  2   force =    -0.00000000   -0.00000000   -0.06174507
     atom    4 type  2   force =     0.00000000    0.00000000   -0.06174507
     The local contribution  to forces
     atom    1 type  1   force =    -0.00000000    0.00000000   -0.05739499
     atom    2 type  1   force =    -0.00000000   -0.00000000   -0.05739499
     atom    3 type  2   force =    -0.00000000    0.00000000    0.05636886
     atom    4 type  2   force =    -0.00000000   -0.00000000    0.05636886
     The core correction contribution to forces
     atom    1 type  1   force =    -0.00000000   -0.00000000    0.00046161
     atom    2 type  1   force =    -0.00000000   -0.00000000    0.00046161
     atom    3 type  2   force =     0.00000000    0.00000000   -0.00006213
     atom    4 type  2   force =    -0.00000000    0.00000000   -0.00006213
     The Hubbard contrib.    to forces
     atom    1 type  1   force =     0.00000000    0.00000000    0.00000000
     atom    2 type  1   force =     0.00000000    0.00000000    0.00000000
     atom    3 type  2   force =     0.00000000    0.00000000    0.00000000
     atom    4 type  2   force =     0.00000000    0.00000000    0.00000000
     The SCF correction term to forces
     atom    1 type  1   force =    -0.00000000    0.00000000   -0.00000002
     atom    2 type  1   force =     0.00000000   -0.00000000   -0.00000002
     atom    3 type  2   force =    -0.00000000    0.00000000    0.00000041
     atom    4 type  2   force =    -0.00000000   -0.00000000    0.00000041

     Total force =     0.000016     Total SCF correction =     0.000001

     Computing stress (Cartesian axis) and pressure

          total   stress  (Ry/bohr**3)                   (kbar)     P=        0.41
   0.00000281   0.00000000   0.00000000            0.41        0.00        0.00
   0.00000000   0.00000281   0.00000000            0.00        0.41        0.00
   0.00000000   0.00000000   0.00000270            0.00        0.00        0.40

     kinetic stress (kbar)  23923.54     -0.00      0.00
                               -0.00  23923.54     -0.00
                                0.00     -0.00  23945.20

     local   stress (kbar)   3376.95      0.00      0.00
                                0.00   3376.95      0.00
                                0.00      0.00   1479.08

     nonloc. stress (kbar)  -3117.67      0.00      0.00
                                0.00  -3117.67      0.00
                                0.00      0.00  -3123.45

     hartree stress (kbar)  17201.41      0.00      0.00
                                0.00  17201.41      0.00
                                0.00      0.00  18093.06

     exc-cor stress (kbar)  13371.51     -0.00     -0.00
                               -0.00  13371.51      0.00
                               -0.00      0.00  13371.36

     corecor stress (kbar) -22656.69      0.00      0.00
                                0.00 -22656.69     -0.00
                                0.00     -0.00 -22656.34

     ewald   stress (kbar) -32098.64      0.00     -0.00
                                0.00 -32098.64     -0.00
                               -0.00     -0.00 -31108.52

     hubbard stress (kbar)      0.00      0.00      0.00
                                0.00      0.00      0.00
                                0.00      0.00      0.00

     DFT-D   stress (kbar)      0.00      0.00      0.00
                                0.00      0.00      0.00
                                0.00      0.00      0.00

     XDM     stress (kbar)      0.00      0.00      0.00
                                0.00      0.00      0.00
                                0.00      0.00      0.00

     dft-nl  stress (kbar)      0.00      0.00      0.00
                                0.00      0.00      0.00
                                0.00      0.00      0.00

     TS-vdW  stress (kbar)      0.00      0.00      0.00
                                0.00      0.00      0.00
                                0.00      0.00      0.00

     MDB     stress (kbar)      0.00      0.00      0.00
                                0.00      0.00      0.00
                                0.00      0.00      0.00

     3D-RISM stress (kbar)      0.00      0.00      0.00
                                0.00      0.00      0.00
                                0.00      0.00      0.00

     Writing all to output data dir ./ZnO_PBE_bulk.save/

     General routines

     Parallel routines

   This run was terminated on:  22:39:59  22Apr2025

   JOB DONE.