     Program PWSCF v.7.2 starts on 24Jul2025 at 20:37:12

     Reading input from /home/jvc/QEspresso7.2/ZnO_database/scripts/cell222.in/ZnO-3.40-1.68-222.in
Warning: card &CELL ignored
Warning: card / ignored
Warning: card &FCP ignored
Warning: card / ignored
Warning: card &RISM ignored
Warning: card / ignored

     Current dimensions of program PWSCF are:
     Max number of different atomic species (ntypx) = 10
     Max number of k-points (npk) =  40000
     Max angular momentum in pseudopotentials (lmaxx) =  4
     file Zn.upf: wavefunction(s)  3D renormalized
     Found identity + (  0.0000  0.0000 -0.5000) symmetry
     This is a supercell, fractional translations are disabled
     Message from routine setup:
     using ibrav=0 with symmetry is DISCOURAGED, use correct ibrav instead

     K-points division:     npool     =       4
     R & G space division:  proc/nbgrp/npool/nimage =       4
     Subspace diagonalization in iterative solution of the eigenvalue problem:
     a serial algorithm will be used

     Using Slab Decomposition

     bravais-lattice index     =            0
     lattice parameter (alat)  =      12.3576  a.u.
     unit-cell volume          =    2638.3815 (a.u.)^3
     number of atoms/cell      =           32
     number of atomic types    =            2
     number of electrons       =       288.00
     number of Kohn-Sham states=          144
     kinetic-energy cutoff     =      50.0000  Ry
     charge density cutoff     =     400.0000  Ry
     scf convergence threshold =      1.0E-08
     mixing beta               =       0.3000
     number of iterations used =            8  plain     mixing
     Exchange-correlation= PBE
                           (   1   4   3   4   0   0   0)

     celldm(1)=  12.357644  celldm(2)=   0.000000  celldm(3)=   0.000000
     celldm(4)=   0.000000  celldm(5)=   0.000000  celldm(6)=   0.000000

     crystal axes: (cart. coord. in units of alat)
               a(1) = (   1.000000   0.000000   0.000000 )
               a(2) = (  -0.500000   0.866025   0.000000 )
               a(3) = (   0.000000   0.000000   1.614358 )

     reciprocal axes: (cart. coord. in units 2 pi/alat)
               b(1) = (  1.000000  0.577350 -0.000000 )
               b(2) = (  0.000000  1.154701  0.000000 )
               b(3) = (  0.000000 -0.000000  0.619441 )

     PseudoPot. # 1 for Zn read from file:
     /home/jvc/QEspresso7.2/ZnO_database/pseudos/Zn.upf
     MD5 check sum: 7f56cabf9682ed8c977c2f7d0c5985c5
     Pseudo is Ultrasoft + core correction, Zval = 12.0
     Generated using &quot;atomic&quot; code by A. Dal Corso  v.6.2.2
     Using radial grid of 1201 points,  6 beta functions with:
                l(1) =   0
                l(2) =   0
                l(3) =   1
                l(4) =   1
                l(5) =   2
                l(6) =   2
     Q(r) pseudized with 0 coefficients

     PseudoPot. # 2 for O  read from file:
     /home/jvc/QEspresso7.2/ZnO_database/pseudos/O.upf
     MD5 check sum: 91400c9766925bcf19f520983a725ff0
     Pseudo is Ultrasoft + core correction, Zval =  6.0
     Generated using &quot;atomic&quot; code by A. Dal Corso  v.6.3MaX
     Using radial grid of 1095 points,  4 beta functions with:
                l(1) =   0
                l(2) =   0
                l(3) =   1
                l(4) =   1
     Q(r) pseudized with 0 coefficients

     atomic species   valence    mass     pseudopotential
        Zn            12.00    65.38000     Zn( 1.00)
        O              6.00    15.99900     O ( 1.00)

      6 Sym. Ops. (no inversion) found

                                    s                        frac. trans.

      isym =  1     identity

 cryst.   s( 1) = (     1          0          0      )
                  (     0          1          0      )
                  (     0          0          1      )

 cart.    s( 1) = (  1.0000000 -0.0000000  0.0000000 )
                  (  0.0000000  1.0000000  0.0000000 )
                  (  0.0000000  0.0000000  1.0000000 )

      isym =  2     120 deg rotation - cryst. axis [0,0,1]

[...]

      isym =  3     120 deg rotation - cryst. axis [0,0,-1]

[...]

      isym =  4     inv. 180 deg rotation - cart. axis [1,0,0]

[...]

      isym =  5     inv. 180 deg rotation - cryst. axis [0,1,0]

[...]

      isym =  6     inv. 180 deg rotation - cryst. axis [1,1,0]

 cryst.   s( 6) = (     0         -1          0      )
                  (    -1          0          0      )
                  (     0          0          1      )

 cart.    s( 6) = (  0.5000000 -0.8660254  0.0000000 )
                  ( -0.8660254 -0.5000000  0.0000000 )
                  (  0.0000000  0.0000000  1.0000000 )

   Cartesian axes

     site n.     atom                  positions (alat units)
         1           Zn  tau(   1) = (   0.2500000   0.1443376   0.4041010  )
         2           Zn  tau(   2) = (   0.0000000   0.2886751   0.0005114  )
         3           O   tau(   3) = (   0.2500000   0.1443376   0.7100565  )
         4           O   tau(   4) = (   0.0000000   0.2886751   0.3064669  )
         5           Zn  tau(   5) = (   0.2500000   0.1443376   1.2112802  )
         6           Zn  tau(   6) = (   0.0000000   0.2886751   0.8076906  )
         7           O   tau(   7) = (   0.2500000   0.1443376   1.5172357  )
         8           O   tau(   8) = (   0.0000000   0.2886751   1.1136461  )
         9           Zn  tau(   9) = (   0.0000000   0.5773503   0.4041010  )
        10           Zn  tau(  10) = (  -0.2500000   0.7216878   0.0005114  )
        11           O   tau(  11) = (   0.0000000   0.5773503   0.7100565  )
        12           O   tau(  12) = (  -0.2500000   0.7216878   0.3064669  )
        13           Zn  tau(  13) = (   0.0000000   0.5773503   1.2112802  )
        14           Zn  tau(  14) = (  -0.2500000   0.7216878   0.8076906  )
        15           O   tau(  15) = (   0.0000000   0.5773503   1.5172357  )
        16           O   tau(  16) = (  -0.2500000   0.7216878   1.1136461  )
        17           Zn  tau(  17) = (   0.7500000   0.1443376   0.4041010  )
        18           Zn  tau(  18) = (   0.5000000   0.2886751   0.0005114  )
        19           O   tau(  19) = (   0.7500000   0.1443376   0.7100565  )
        20           O   tau(  20) = (   0.5000000   0.2886751   0.3064669  )
        21           Zn  tau(  21) = (   0.7500000   0.1443376   1.2112802  )
        22           Zn  tau(  22) = (   0.5000000   0.2886751   0.8076906  )
        23           O   tau(  23) = (   0.7500000   0.1443376   1.5172357  )
        24           O   tau(  24) = (   0.5000000   0.2886751   1.1136461  )
        25           Zn  tau(  25) = (   0.5000000   0.5773503   0.4041010  )
        26           Zn  tau(  26) = (   0.2500000   0.7216878   0.0005114  )
        27           O   tau(  27) = (   0.5000000   0.5773503   0.7100565  )
        28           O   tau(  28) = (   0.2500000   0.7216878   0.3064669  )
        29           Zn  tau(  29) = (   0.5000000   0.5773503   1.2112802  )
        30           Zn  tau(  30) = (   0.2500000   0.7216878   0.8076906  )
        31           O   tau(  31) = (   0.5000000   0.5773503   1.5172357  )
        32           O   tau(  32) = (   0.2500000   0.7216878   1.1136461  )

   Crystallographic axes

     site n.     atom                  positions (cryst. coord.)
         1           Zn  tau(   1) = (  0.3333333  0.1666667  0.2503168  )
         2           Zn  tau(   2) = (  0.1666667  0.3333333  0.0003168  )
         3           O   tau(   3) = (  0.3333333  0.1666667  0.4398382  )
         4           O   tau(   4) = (  0.1666667  0.3333333  0.1898382  )
         5           Zn  tau(   5) = (  0.3333333  0.1666667  0.7503168  )
         6           Zn  tau(   6) = (  0.1666667  0.3333333  0.5003168  )
         7           O   tau(   7) = (  0.3333333  0.1666667  0.9398382  )
         8           O   tau(   8) = (  0.1666667  0.3333333  0.6898382  )
         9           Zn  tau(   9) = (  0.3333333  0.6666667  0.2503168  )
        10           Zn  tau(  10) = (  0.1666667  0.8333333  0.0003168  )
        11           O   tau(  11) = (  0.3333333  0.6666667  0.4398382  )
        12           O   tau(  12) = (  0.1666667  0.8333333  0.1898382  )
        13           Zn  tau(  13) = (  0.3333333  0.6666667  0.7503168  )
        14           Zn  tau(  14) = (  0.1666667  0.8333333  0.5003168  )
        15           O   tau(  15) = (  0.3333333  0.6666667  0.9398382  )
        16           O   tau(  16) = (  0.1666667  0.8333333  0.6898382  )
        17           Zn  tau(  17) = (  0.8333333  0.1666667  0.2503168  )
        18           Zn  tau(  18) = (  0.6666667  0.3333333  0.0003168  )
        19           O   tau(  19) = (  0.8333333  0.1666667  0.4398382  )
        20           O   tau(  20) = (  0.6666667  0.3333333  0.1898382  )
        21           Zn  tau(  21) = (  0.8333333  0.1666667  0.7503168  )
        22           Zn  tau(  22) = (  0.6666667  0.3333333  0.5003168  )
        23           O   tau(  23) = (  0.8333333  0.1666667  0.9398382  )
        24           O   tau(  24) = (  0.6666667  0.3333333  0.6898382  )
        25           Zn  tau(  25) = (  0.8333333  0.6666667  0.2503168  )
        26           Zn  tau(  26) = (  0.6666667  0.8333333  0.0003168  )
        27           O   tau(  27) = (  0.8333333  0.6666667  0.4398382  )
        28           O   tau(  28) = (  0.6666667  0.8333333  0.1898382  )
        29           Zn  tau(  29) = (  0.8333333  0.6666667  0.7503168  )
        30           Zn  tau(  30) = (  0.6666667  0.8333333  0.5003168  )
        31           O   tau(  31) = (  0.8333333  0.6666667  0.9398382  )
        32           O   tau(  32) = (  0.6666667  0.8333333  0.6898382  )

     number of k points=     7
                       cart. coord. in units 2pi/alat
        k(    1) = (   0.0000000   0.0000000   0.0000000), wk =   0.0740741
        k(    2) = (   0.0000000   0.0000000   0.2064804), wk =   0.1481481
        k(    3) = (   0.0000000   0.3849002   0.0000000), wk =   0.4444444
        k(    4) = (   0.0000000   0.3849002   0.2064804), wk =   0.4444444
        k(    5) = (   0.3333333   0.5773503   0.0000000), wk =   0.1481481
        k(    6) = (   0.3333333   0.5773503   0.2064804), wk =   0.2962963
        k(    7) = (   0.0000000  -0.3849002   0.2064804), wk =   0.4444444

                       cryst. coord.
        k(    1) = (   0.0000000   0.0000000   0.0000000), wk =   0.0740741
        k(    2) = (   0.0000000   0.0000000   0.3333333), wk =   0.1481481
        k(    3) = (   0.0000000   0.3333333   0.0000000), wk =   0.4444444
        k(    4) = (   0.0000000   0.3333333   0.3333333), wk =   0.4444444
        k(    5) = (   0.3333333   0.3333333   0.0000000), wk =   0.1481481
        k(    6) = (   0.3333333   0.3333333   0.3333333), wk =   0.2962963
        k(    7) = (   0.0000000  -0.3333333   0.3333333), wk =   0.4444444

     Check: negative core charge=   -0.000002

     Initial potential from superposition of free atoms

     starting charge     287.9404, renormalised to     288.0000
     Starting wfcs are  208 randomized atomic wfcs

[...]
     atom   14 type  1   force =     0.00000257   -0.00000148    0.00006007
     atom   15 type  2   force =     0.00000000    0.00000000   -0.00006015
     atom   16 type  2   force =    -0.00000037    0.00000022   -0.00006300
     atom   17 type  1   force =    -0.00000030    0.00000017    0.00006023
     atom   18 type  1   force =     0.00000000    0.00000000    0.00006260
     atom   19 type  2   force =    -0.00000032    0.00000018   -0.00006069
     atom   20 type  2   force =     0.00000000    0.00000000   -0.00005931
     atom   21 type  1   force =     0.00000027   -0.00000016    0.00006315
     atom   22 type  1   force =     0.00000000    0.00000000    0.00005871
     atom   23 type  2   force =     0.00000003   -0.00000002   -0.00006191
     atom   24 type  2   force =     0.00000000    0.00000000   -0.00006399
     atom   25 type  1   force =    -0.00000000   -0.00000035    0.00006023
     atom   26 type  1   force =    -0.00000022   -0.00000013    0.00006112
     atom   27 type  2   force =     0.00000000   -0.00000037   -0.00006069
     atom   28 type  2   force =     0.00000046    0.00000026   -0.00005996
     atom   29 type  1   force =     0.00000000    0.00000031    0.00006315
     atom   30 type  1   force =    -0.00000257   -0.00000148    0.00006007
     atom   31 type  2   force =     0.00000000    0.00000003   -0.00006191
     atom   32 type  2   force =     0.00000037    0.00000022   -0.00006300
     The non-local contrib.  to forces
     atom    1 type  1   force =     0.00000023    0.00000013   -0.00483644
     atom    2 type  1   force =     0.00000000   -0.00000030   -0.00483310
     atom    3 type  2   force =    -0.00000014   -0.00000008    0.00575461
     atom    4 type  2   force =     0.00000000   -0.00000014    0.00575388
     atom    5 type  1   force =     0.00000077    0.00000044   -0.00483013
     atom    6 type  1   force =    -0.00000000    0.00000042   -0.00483479
     atom    7 type  2   force =     0.00000003    0.00000002    0.00575373
     atom    8 type  2   force =     0.00000000   -0.00000061    0.00575353
     atom    9 type  1   force =     0.00000000   -0.00000000   -0.00483689
     atom   10 type  1   force =    -0.00000026    0.00000015   -0.00483310
     atom   11 type  2   force =     0.00000000   -0.00000000    0.00575351
     atom   12 type  2   force =    -0.00000012    0.00000007    0.00575388
     atom   13 type  1   force =     0.00000000   -0.00000000   -0.00482958
     atom   14 type  1   force =     0.00000036   -0.00000021   -0.00483479
     atom   15 type  2   force =     0.00000000   -0.00000000    0.00575549
     atom   16 type  2   force =    -0.00000053    0.00000030    0.00575353
     atom   17 type  1   force =    -0.00000023    0.00000013   -0.00483644
     atom   18 type  1   force =     0.00000000    0.00000000   -0.00483158
     atom   19 type  2   force =     0.00000014   -0.00000008    0.00575461
     atom   20 type  2   force =     0.00000000   -0.00000000    0.00575515
     atom   21 type  1   force =    -0.00000077    0.00000044   -0.00483013
     atom   22 type  1   force =     0.00000000   -0.00000000   -0.00483447
     atom   23 type  2   force =    -0.00000003    0.00000002    0.00575373
     atom   24 type  2   force =     0.00000000   -0.00000000    0.00575276
     atom   25 type  1   force =     0.00000000   -0.00000026   -0.00483644
     atom   26 type  1   force =     0.00000026    0.00000015   -0.00483310
     atom   27 type  2   force =     0.00000000    0.00000017    0.00575461
     atom   28 type  2   force =     0.00000012    0.00000007    0.00575388
     atom   29 type  1   force =     0.00000000   -0.00000089   -0.00483013
     atom   30 type  1   force =    -0.00000036   -0.00000021   -0.00483479
     atom   31 type  2   force =     0.00000000   -0.00000004    0.00575373
     atom   32 type  2   force =     0.00000053    0.00000030    0.00575353
     The ionic contribution  to forces
     atom    1 type  1   force =    -0.00000000    0.00000001    0.06271747
     atom    2 type  1   force =     0.00000000    0.00000001    0.06271747
     atom    3 type  2   force =    -0.00000000    0.00000001   -0.06271747
     atom    4 type  2   force =     0.00000000    0.00000000   -0.06271747
     atom    5 type  1   force =    -0.00000000    0.00000001    0.06271747
     atom    6 type  1   force =     0.00000000    0.00000001    0.06271747
     atom    7 type  2   force =    -0.00000000    0.00000001   -0.06271747
     atom    8 type  2   force =     0.00000000    0.00000000   -0.06271747
     atom    9 type  1   force =     0.00000000   -0.00000000    0.06271747
     atom   10 type  1   force =    -0.00000000   -0.00000002    0.06271747
     atom   11 type  2   force =     0.00000000   -0.00000000   -0.06271747
     atom   12 type  2   force =    -0.00000000   -0.00000001   -0.06271747
     atom   13 type  1   force =     0.00000000   -0.00000000    0.06271747
     atom   14 type  1   force =    -0.00000000   -0.00000002    0.06271747
     atom   15 type  2   force =     0.00000000   -0.00000000   -0.06271747
     atom   16 type  2   force =    -0.00000000   -0.00000001   -0.06271747
     atom   17 type  1   force =    -0.00000000    0.00000001    0.06271747
     atom   18 type  1   force =     0.00000000    0.00000001    0.06271747
     atom   19 type  2   force =    -0.00000000    0.00000001   -0.06271747
     atom   20 type  2   force =     0.00000000    0.00000000   -0.06271747
     atom   21 type  1   force =    -0.00000000    0.00000001    0.06271747
     atom   22 type  1   force =     0.00000000    0.00000001    0.06271747
     atom   23 type  2   force =    -0.00000000    0.00000001   -0.06271747
     atom   24 type  2   force =     0.00000000    0.00000000   -0.06271747
     atom   25 type  1   force =     0.00000000   -0.00000000    0.06271747
     atom   26 type  1   force =    -0.00000000   -0.00000002    0.06271747
     atom   27 type  2   force =     0.00000000   -0.00000000   -0.06271747
     atom   28 type  2   force =    -0.00000000   -0.00000001   -0.06271747
     atom   29 type  1   force =     0.00000000   -0.00000000    0.06271747
     atom   30 type  1   force =    -0.00000000   -0.00000002    0.06271747
     atom   31 type  2   force =     0.00000000   -0.00000000   -0.06271747
     atom   32 type  2   force =    -0.00000000   -0.00000001   -0.06271747
     The local contribution  to forces
     atom    1 type  1   force =    -0.00000072   -0.00000032   -0.05828193
     atom    2 type  1   force =     0.00000009    0.00000017   -0.05828711
     atom    3 type  2   force =     0.00000047    0.00000030    0.05696730
     atom    4 type  2   force =     0.00000002   -0.00000021    0.05696837
     atom    5 type  1   force =    -0.00000098   -0.00000047   -0.05829346
     atom    6 type  1   force =     0.00000009   -0.00000221   -0.05828459
     atom    7 type  2   force =    -0.00000024   -0.00000011    0.05696480
     atom    8 type  2   force =     0.00000002    0.00000029    0.05696255
     atom    9 type  1   force =    -0.00000000    0.00000010   -0.05828332
     atom   10 type  1   force =     0.00000011   -0.00000016   -0.05828711
     atom   11 type  2   force =    -0.00000000    0.00000003    0.05696649
     atom   12 type  2   force =    -0.00000019    0.00000008    0.05696837
     atom   13 type  1   force =    -0.00000000    0.00000010   -0.05829479
     atom   14 type  1   force =    -0.00000195    0.00000103   -0.05828459
     atom   15 type  2   force =    -0.00000000    0.00000003    0.05696564
     atom   16 type  2   force =     0.00000024   -0.00000017    0.05696255
     atom   17 type  1   force =     0.00000072   -0.00000032   -0.05828193
     atom   18 type  1   force =     0.00000009    0.00000005   -0.05828989
     atom   19 type  2   force =    -0.00000047    0.00000030    0.05696730
     atom   20 type  2   force =     0.00000002    0.00000001    0.05696829
     atom   21 type  1   force =     0.00000098   -0.00000047   -0.05829346
     atom   22 type  1   force =     0.00000009    0.00000005   -0.05828493
     atom   23 type  2   force =     0.00000023   -0.00000011    0.05696480
     atom   24 type  2   force =     0.00000002    0.00000001    0.05696229
     atom   25 type  1   force =    -0.00000000    0.00000093   -0.05828193
     atom   26 type  1   force =    -0.00000010   -0.00000016   -0.05828711
     atom   27 type  2   force =    -0.00000000   -0.00000051    0.05696730
     atom   28 type  2   force =     0.00000019    0.00000008    0.05696837
     atom   29 type  1   force =    -0.00000000    0.00000123   -0.05829346
     atom   30 type  1   force =     0.00000195    0.00000103   -0.05828459
     atom   31 type  2   force =    -0.00000000    0.00000030    0.05696480
     atom   32 type  2   force =    -0.00000024   -0.00000017    0.05696255
     The core correction contribution to forces
     atom    1 type  1   force =     0.00000005    0.00000004    0.00046401
     atom    2 type  1   force =     0.00000001   -0.00000001    0.00046396
     atom    3 type  2   force =     0.00000000    0.00000000   -0.00006504
     atom    4 type  2   force =    -0.00000000   -0.00000000   -0.00006503
     atom    5 type  1   force =     0.00000002    0.00000002    0.00046411
     atom    6 type  1   force =     0.00000001   -0.00000006    0.00046404
     atom    7 type  2   force =    -0.00000000   -0.00000000   -0.00006503
     atom    8 type  2   force =    -0.00000000    0.00000001   -0.00006503
     atom    9 type  1   force =    -0.00000000    0.00000001    0.00046399
     atom   10 type  1   force =    -0.00000001   -0.00000001    0.00046396
     atom   11 type  2   force =    -0.00000000   -0.00000000   -0.00006502
     atom   12 type  2   force =    -0.00000000    0.00000000   -0.00006503
     atom   13 type  1   force =    -0.00000000    0.00000001    0.00046407
     atom   14 type  1   force =    -0.00000005    0.00000002    0.00046404
     atom   15 type  2   force =    -0.00000000   -0.00000000   -0.00006504
     atom   16 type  2   force =     0.00000001   -0.00000000   -0.00006503
     atom   17 type  1   force =    -0.00000005    0.00000004    0.00046401
     atom   18 type  1   force =     0.00000001    0.00000001    0.00046396
     atom   19 type  2   force =    -0.00000000    0.00000000   -0.00006504
     atom   20 type  2   force =    -0.00000000   -0.00000000   -0.00006504
     atom   21 type  1   force =    -0.00000002    0.00000002    0.00046411
     atom   22 type  1   force =     0.00000001    0.00000001    0.00046407
     atom   23 type  2   force =     0.00000000   -0.00000000   -0.00006503
     atom   24 type  2   force =    -0.00000000   -0.00000000   -0.00006502
     atom   25 type  1   force =    -0.00000000   -0.00000004    0.00046401
     atom   26 type  1   force =     0.00000001   -0.00000001    0.00046396
     atom   27 type  2   force =    -0.00000000   -0.00000000   -0.00006504
     atom   28 type  2   force =     0.00000000    0.00000000   -0.00006503
     atom   29 type  1   force =    -0.00000000   -0.00000001    0.00046411
     atom   30 type  1   force =     0.00000005    0.00000002    0.00046404
     atom   31 type  2   force =    -0.00000000    0.00000000   -0.00006503
     atom   32 type  2   force =    -0.00000001   -0.00000000   -0.00006503
     The Hubbard contrib.    to forces
     atom    1 type  1   force =     0.00000000    0.00000000    0.00000000
     atom    2 type  1   force =     0.00000000    0.00000000    0.00000000
     atom    3 type  2   force =     0.00000000    0.00000000    0.00000000
     atom    4 type  2   force =     0.00000000    0.00000000    0.00000000
     atom    5 type  1   force =     0.00000000    0.00000000    0.00000000
     atom    6 type  1   force =     0.00000000    0.00000000    0.00000000
     atom    7 type  2   force =     0.00000000    0.00000000    0.00000000
     atom    8 type  2   force =     0.00000000    0.00000000    0.00000000
     atom    9 type  1   force =     0.00000000    0.00000000    0.00000000
     atom   10 type  1   force =     0.00000000    0.00000000    0.00000000
     atom   11 type  2   force =     0.00000000    0.00000000    0.00000000
     atom   12 type  2   force =     0.00000000    0.00000000    0.00000000
     atom   13 type  1   force =     0.00000000    0.00000000    0.00000000
     atom   14 type  1   force =     0.00000000    0.00000000    0.00000000
     atom   15 type  2   force =     0.00000000    0.00000000    0.00000000
     atom   16 type  2   force =     0.00000000    0.00000000    0.00000000
     atom   17 type  1   force =     0.00000000    0.00000000    0.00000000
     atom   18 type  1   force =     0.00000000    0.00000000    0.00000000
     atom   19 type  2   force =     0.00000000    0.00000000    0.00000000
     atom   20 type  2   force =     0.00000000    0.00000000    0.00000000
     atom   21 type  1   force =     0.00000000    0.00000000    0.00000000
     atom   22 type  1   force =     0.00000000    0.00000000    0.00000000
     atom   23 type  2   force =     0.00000000    0.00000000    0.00000000
     atom   24 type  2   force =     0.00000000    0.00000000    0.00000000
     atom   25 type  1   force =     0.00000000    0.00000000    0.00000000
     atom   26 type  1   force =     0.00000000    0.00000000    0.00000000
     atom   27 type  2   force =     0.00000000    0.00000000    0.00000000
     atom   28 type  2   force =     0.00000000    0.00000000    0.00000000
     atom   29 type  1   force =     0.00000000    0.00000000    0.00000000
     atom   30 type  1   force =     0.00000000    0.00000000    0.00000000
     atom   31 type  2   force =     0.00000000    0.00000000    0.00000000
     atom   32 type  2   force =     0.00000000    0.00000000    0.00000000
     The SCF correction term to forces
     atom    1 type  1   force =     0.00000075    0.00000043   -0.00000470
     atom    2 type  1   force =     0.00000000    0.00000038   -0.00000192
     atom    3 type  2   force =    -0.00000001   -0.00000001   -0.00000191
     atom    4 type  2   force =     0.00000000   -0.00000018   -0.00000152
     atom    5 type  1   force =    -0.00000008   -0.00000004    0.00000335
     atom    6 type  1   force =     0.00000000    0.00000480   -0.00000388
     atom    7 type  2   force =     0.00000018    0.00000010    0.00000024
     atom    8 type  2   force =     0.00000000   -0.00000013    0.00000160
     atom    9 type  1   force =     0.00000000    0.00000000   -0.00000033
     atom   10 type  1   force =     0.00000033   -0.00000019   -0.00000192
     atom   11 type  2   force =     0.00000000    0.00000000   -0.00000121
     atom   12 type  2   force =    -0.00000015    0.00000009   -0.00000152
     atom   13 type  1   force =     0.00000000    0.00000000    0.00000522
     atom   14 type  1   force =     0.00000416   -0.00000240   -0.00000388
     atom   15 type  2   force =     0.00000000    0.00000000   -0.00000059
     atom   16 type  2   force =    -0.00000011    0.00000006    0.00000160
     atom   17 type  1   force =    -0.00000075    0.00000043   -0.00000470
     atom   18 type  1   force =     0.00000000    0.00000000    0.00000082
     atom   19 type  2   force =     0.00000001   -0.00000001   -0.00000191
     atom   20 type  2   force =     0.00000000    0.00000000   -0.00000205
     atom   21 type  1   force =     0.00000008   -0.00000004    0.00000335
     atom   22 type  1   force =     0.00000000    0.00000000   -0.00000525
     atom   23 type  2   force =    -0.00000018    0.00000010    0.00000024
     atom   24 type  2   force =     0.00000000    0.00000000    0.00000164
     atom   25 type  1   force =     0.00000000   -0.00000086   -0.00000470
     atom   26 type  1   force =    -0.00000033   -0.00000019   -0.00000192
     atom   27 type  2   force =     0.00000000    0.00000002   -0.00000191
     atom   28 type  2   force =     0.00000015    0.00000009   -0.00000152
     atom   29 type  1   force =     0.00000000    0.00000009    0.00000335
     atom   30 type  1   force =    -0.00000416   -0.00000240   -0.00000388
     atom   31 type  2   force =     0.00000000   -0.00000020    0.00000024
     atom   32 type  2   force =     0.00000011    0.00000006    0.00000160

     Total force =     0.000347     Total SCF correction =     0.000018

     General routines

     Parallel routines

   This run was terminated on:  20:42:55  24Jul2025

   JOB DONE.
Note: The following floating-point exceptions are signalling: IEEE_INVALID_FLAG
Note: The following floating-point exceptions are signalling: IEEE_INVALID_FLAG
Note: The following floating-point exceptions are signalling: IEEE_INVALID_FLAG
Note: The following floating-point exceptions are signalling: IEEE_INVALID_FLAG