     Program PWSCF v.7.2 starts on 25Jul2025 at  0:18:58

     Reading input from cell222.in/ZnO-2.94-1.55-222.in
Warning: card &CELL ignored
Warning: card / ignored
Warning: card &FCP ignored
Warning: card / ignored
Warning: card &RISM ignored
Warning: card / ignored

     Current dimensions of program PWSCF are:
     Max number of different atomic species (ntypx) = 10
     Max number of k-points (npk) =  40000
     Max angular momentum in pseudopotentials (lmaxx) =  4
     file Zn.upf: wavefunction(s)  3D renormalized
     Found identity + (  0.0000  0.0000 -0.5000) symmetry
     This is a supercell, fractional translations are disabled
     Message from routine setup:
     using ibrav=0 with symmetry is DISCOURAGED, use correct ibrav instead

     K-points division:     npool     =       8
     R & G space division:  proc/nbgrp/npool/nimage =       4
     Subspace diagonalization in iterative solution of the eigenvalue problem:
     a serial algorithm will be used

     Message from routine divide_et_impera:
     suboptimal parallelization: some nodes have no k-points

     Using Slab Decomposition

     bravais-lattice index     =            0
     lattice parameter (alat)  =      12.3576  a.u.
     unit-cell volume          =    2638.3815 (a.u.)^3
     number of atoms/cell      =           32
     number of atomic types    =            2
     number of electrons       =       288.00
     number of Kohn-Sham states=          144
     kinetic-energy cutoff     =      50.0000  Ry
     charge density cutoff     =     400.0000  Ry
     scf convergence threshold =      1.0E-08
     mixing beta               =       0.3000
     number of iterations used =            8  plain     mixing
     Exchange-correlation= PBE
                           (   1   4   3   4   0   0   0)

     celldm(1)=  12.357644  celldm(2)=   0.000000  celldm(3)=   0.000000
     celldm(4)=   0.000000  celldm(5)=   0.000000  celldm(6)=   0.000000

     crystal axes: (cart. coord. in units of alat)
               a(1) = (   1.000000   0.000000   0.000000 )
               a(2) = (  -0.500000   0.866025   0.000000 )
               a(3) = (   0.000000   0.000000   1.614358 )

     reciprocal axes: (cart. coord. in units 2 pi/alat)
               b(1) = (  1.000000  0.577350 -0.000000 )
               b(2) = (  0.000000  1.154701  0.000000 )
               b(3) = (  0.000000 -0.000000  0.619441 )

     PseudoPot. # 1 for Zn read from file:
     /home/jvc/QEspresso7.2/ZnO_database/pseudos/Zn.upf
     MD5 check sum: 7f56cabf9682ed8c977c2f7d0c5985c5
     Pseudo is Ultrasoft + core correction, Zval = 12.0
     Generated using &quot;atomic&quot; code by A. Dal Corso  v.6.2.2
     Using radial grid of 1201 points,  6 beta functions with:
                l(1) =   0
                l(2) =   0
                l(3) =   1
                l(4) =   1
                l(5) =   2
                l(6) =   2
     Q(r) pseudized with 0 coefficients

     PseudoPot. # 2 for O  read from file:
     /home/jvc/QEspresso7.2/ZnO_database/pseudos/O.upf
     MD5 check sum: 91400c9766925bcf19f520983a725ff0
     Pseudo is Ultrasoft + core correction, Zval =  6.0
     Generated using &quot;atomic&quot; code by A. Dal Corso  v.6.3MaX
     Using radial grid of 1095 points,  4 beta functions with:
                l(1) =   0
                l(2) =   0
                l(3) =   1
                l(4) =   1
     Q(r) pseudized with 0 coefficients

     atomic species   valence    mass     pseudopotential
        Zn            12.00    65.38000     Zn( 1.00)
        O              6.00    15.99900     O ( 1.00)

      6 Sym. Ops. (no inversion) found

                                    s                        frac. trans.

      isym =  1     identity

 cryst.   s( 1) = (     1          0          0      )
                  (     0          1          0      )
                  (     0          0          1      )

 cart.    s( 1) = (  1.0000000 -0.0000000  0.0000000 )
                  (  0.0000000  1.0000000  0.0000000 )
                  (  0.0000000  0.0000000  1.0000000 )

      isym =  2     120 deg rotation - cryst. axis [0,0,1]

[...]

      isym =  3     120 deg rotation - cryst. axis [0,0,-1]

[...]

      isym =  4     inv. 180 deg rotation - cart. axis [1,0,0]

[...]

      isym =  5     inv. 180 deg rotation - cryst. axis [0,1,0]

[...]

      isym =  6     inv. 180 deg rotation - cryst. axis [1,1,0]

 cryst.   s( 6) = (     0         -1          0      )
                  (    -1          0          0      )
                  (     0          0          1      )

 cart.    s( 6) = (  0.5000000 -0.8660254  0.0000000 )
                  ( -0.8660254 -0.5000000  0.0000000 )
                  (  0.0000000  0.0000000  1.0000000 )

   Cartesian axes

     site n.     atom                  positions (alat units)
         1           Zn  tau(   1) = (   0.2500000   0.1443376   0.4041010  )
         2           Zn  tau(   2) = (   0.0000000   0.2886751   0.0005114  )
         3           O   tau(   3) = (   0.2500000   0.1443376   0.7100565  )
         4           O   tau(   4) = (   0.0000000   0.2886751   0.3064669  )
         5           Zn  tau(   5) = (   0.2500000   0.1443376   1.2112802  )
         6           Zn  tau(   6) = (   0.0000000   0.2886751   0.8076906  )
         7           O   tau(   7) = (   0.2500000   0.1443376   1.5172357  )
         8           O   tau(   8) = (   0.0000000   0.2886751   1.1136461  )
         9           Zn  tau(   9) = (   0.0000000   0.5773503   0.4041010  )
        10           Zn  tau(  10) = (  -0.2500000   0.7216878   0.0005114  )
        11           O   tau(  11) = (   0.0000000   0.5773503   0.7100565  )
        12           O   tau(  12) = (  -0.2500000   0.7216878   0.3064669  )
        13           Zn  tau(  13) = (   0.0000000   0.5773503   1.2112802  )
        14           Zn  tau(  14) = (  -0.2500000   0.7216878   0.8076906  )
        15           O   tau(  15) = (   0.0000000   0.5773503   1.5172357  )
        16           O   tau(  16) = (  -0.2500000   0.7216878   1.1136461  )
        17           Zn  tau(  17) = (   0.7500000   0.1443376   0.4041010  )
        18           Zn  tau(  18) = (   0.5000000   0.2886751   0.0005114  )
        19           O   tau(  19) = (   0.7500000   0.1443376   0.7100565  )
        20           O   tau(  20) = (   0.5000000   0.2886751   0.3064669  )
        21           Zn  tau(  21) = (   0.7500000   0.1443376   1.2112802  )
        22           Zn  tau(  22) = (   0.5000000   0.2886751   0.8076906  )
        23           O   tau(  23) = (   0.7500000   0.1443376   1.5172357  )
        24           O   tau(  24) = (   0.5000000   0.2886751   1.1136461  )
        25           Zn  tau(  25) = (   0.5000000   0.5773503   0.4041010  )
        26           Zn  tau(  26) = (   0.2500000   0.7216878   0.0005114  )
        27           O   tau(  27) = (   0.5000000   0.5773503   0.7100565  )
        28           O   tau(  28) = (   0.2500000   0.7216878   0.3064669  )
        29           Zn  tau(  29) = (   0.5000000   0.5773503   1.2112802  )
        30           Zn  tau(  30) = (   0.2500000   0.7216878   0.8076906  )
        31           O   tau(  31) = (   0.5000000   0.5773503   1.5172357  )
        32           O   tau(  32) = (   0.2500000   0.7216878   1.1136461  )

   Crystallographic axes

     site n.     atom                  positions (cryst. coord.)
         1           Zn  tau(   1) = (  0.3333333  0.1666667  0.2503168  )
         2           Zn  tau(   2) = (  0.1666667  0.3333333  0.0003168  )
         3           O   tau(   3) = (  0.3333333  0.1666667  0.4398382  )
         4           O   tau(   4) = (  0.1666667  0.3333333  0.1898382  )
         5           Zn  tau(   5) = (  0.3333333  0.1666667  0.7503168  )
         6           Zn  tau(   6) = (  0.1666667  0.3333333  0.5003168  )
         7           O   tau(   7) = (  0.3333333  0.1666667  0.9398382  )
         8           O   tau(   8) = (  0.1666667  0.3333333  0.6898382  )
         9           Zn  tau(   9) = (  0.3333333  0.6666667  0.2503168  )
        10           Zn  tau(  10) = (  0.1666667  0.8333333  0.0003168  )
        11           O   tau(  11) = (  0.3333333  0.6666667  0.4398382  )
        12           O   tau(  12) = (  0.1666667  0.8333333  0.1898382  )
        13           Zn  tau(  13) = (  0.3333333  0.6666667  0.7503168  )
        14           Zn  tau(  14) = (  0.1666667  0.8333333  0.5003168  )
        15           O   tau(  15) = (  0.3333333  0.6666667  0.9398382  )
        16           O   tau(  16) = (  0.1666667  0.8333333  0.6898382  )
        17           Zn  tau(  17) = (  0.8333333  0.1666667  0.2503168  )
        18           Zn  tau(  18) = (  0.6666667  0.3333333  0.0003168  )
        19           O   tau(  19) = (  0.8333333  0.1666667  0.4398382  )
        20           O   tau(  20) = (  0.6666667  0.3333333  0.1898382  )
        21           Zn  tau(  21) = (  0.8333333  0.1666667  0.7503168  )
        22           Zn  tau(  22) = (  0.6666667  0.3333333  0.5003168  )
        23           O   tau(  23) = (  0.8333333  0.1666667  0.9398382  )
        24           O   tau(  24) = (  0.6666667  0.3333333  0.6898382  )
        25           Zn  tau(  25) = (  0.8333333  0.6666667  0.2503168  )
        26           Zn  tau(  26) = (  0.6666667  0.8333333  0.0003168  )
        27           O   tau(  27) = (  0.8333333  0.6666667  0.4398382  )
        28           O   tau(  28) = (  0.6666667  0.8333333  0.1898382  )
        29           Zn  tau(  29) = (  0.8333333  0.6666667  0.7503168  )
        30           Zn  tau(  30) = (  0.6666667  0.8333333  0.5003168  )
        31           O   tau(  31) = (  0.8333333  0.6666667  0.9398382  )
        32           O   tau(  32) = (  0.6666667  0.8333333  0.6898382  )

     number of k points=     7
                       cart. coord. in units 2pi/alat
        k(    1) = (   0.0000000   0.0000000   0.0000000), wk =   0.0740741
        k(    2) = (   0.0000000   0.0000000   0.2064804), wk =   0.1481481
        k(    3) = (   0.0000000   0.3849002   0.0000000), wk =   0.4444444
        k(    4) = (   0.0000000   0.3849002   0.2064804), wk =   0.4444444
        k(    5) = (   0.3333333   0.5773503   0.0000000), wk =   0.1481481
        k(    6) = (   0.3333333   0.5773503   0.2064804), wk =   0.2962963
        k(    7) = (   0.0000000  -0.3849002   0.2064804), wk =   0.4444444

                       cryst. coord.
        k(    1) = (   0.0000000   0.0000000   0.0000000), wk =   0.0740741
        k(    2) = (   0.0000000   0.0000000   0.3333333), wk =   0.1481481
        k(    3) = (   0.0000000   0.3333333   0.0000000), wk =   0.4444444
        k(    4) = (   0.0000000   0.3333333   0.3333333), wk =   0.4444444
        k(    5) = (   0.3333333   0.3333333   0.0000000), wk =   0.1481481
        k(    6) = (   0.3333333   0.3333333   0.3333333), wk =   0.2962963
        k(    7) = (   0.0000000  -0.3333333   0.3333333), wk =   0.4444444

     Check: negative core charge=   -0.000002

     Initial potential from superposition of free atoms

     starting charge     287.9404, renormalised to     288.0000
[...]
     atom   19 type  2   force =     0.00000039   -0.00000023   -0.00006211
     atom   20 type  2   force =     0.00000000   -0.00000000   -0.00006301
     atom   21 type  1   force =    -0.00000057    0.00000033    0.00006043
     atom   22 type  1   force =     0.00000000    0.00000000    0.00006276
     atom   23 type  2   force =     0.00000029   -0.00000017   -0.00006146
     atom   24 type  2   force =     0.00000000    0.00000000   -0.00006137
     atom   25 type  1   force =     0.00000000    0.00000021    0.00006263
     atom   26 type  1   force =     0.00000056    0.00000032    0.00006151
     atom   27 type  2   force =    -0.00000000    0.00000046   -0.00006211
     atom   28 type  2   force =    -0.00000055   -0.00000032   -0.00006232
     atom   29 type  1   force =     0.00000000   -0.00000066    0.00006043
     atom   30 type  1   force =     0.00000042    0.00000024    0.00006295
     atom   31 type  2   force =     0.00000000    0.00000034   -0.00006146
     atom   32 type  2   force =     0.00000028    0.00000016   -0.00006129
     The non-local contrib.  to forces
     atom    1 type  1   force =    -0.00000015   -0.00000009   -0.00483223
     atom    2 type  1   force =     0.00000000   -0.00000076   -0.00483404
     atom    3 type  2   force =    -0.00000075   -0.00000043    0.00575275
     atom    4 type  2   force =     0.00000000    0.00000089    0.00575239
     atom    5 type  1   force =     0.00000090    0.00000052   -0.00483540
     atom    6 type  1   force =     0.00000000    0.00000016   -0.00483231
     atom    7 type  2   force =    -0.00000073   -0.00000042    0.00575480
     atom    8 type  2   force =     0.00000000    0.00000039    0.00575399
     atom    9 type  1   force =     0.00000000    0.00000000   -0.00483102
     atom   10 type  1   force =    -0.00000066    0.00000038   -0.00483404
     atom   11 type  2   force =     0.00000000   -0.00000000    0.00575315
     atom   12 type  2   force =     0.00000077   -0.00000044    0.00575239
     atom   13 type  1   force =     0.00000000    0.00000000   -0.00483575
     atom   14 type  1   force =     0.00000014   -0.00000008   -0.00483231
     atom   15 type  2   force =     0.00000000   -0.00000000    0.00575424
     atom   16 type  2   force =     0.00000034   -0.00000020    0.00575399
     atom   17 type  1   force =     0.00000015   -0.00000009   -0.00483223
     atom   18 type  1   force =     0.00000000    0.00000000   -0.00483476
     atom   19 type  2   force =     0.00000075   -0.00000043    0.00575275
     atom   20 type  2   force =     0.00000000    0.00000000    0.00575228
     atom   21 type  1   force =    -0.00000090    0.00000052   -0.00483540
     atom   22 type  1   force =     0.00000000   -0.00000000   -0.00483178
     atom   23 type  2   force =     0.00000073   -0.00000042    0.00575480
     atom   24 type  2   force =     0.00000000    0.00000000    0.00575367
     atom   25 type  1   force =     0.00000000    0.00000018   -0.00483223
     atom   26 type  1   force =     0.00000066    0.00000038   -0.00483404
     atom   27 type  2   force =     0.00000000    0.00000087    0.00575275
     atom   28 type  2   force =    -0.00000077   -0.00000044    0.00575239
     atom   29 type  1   force =     0.00000000   -0.00000104   -0.00483540
     atom   30 type  1   force =    -0.00000014   -0.00000008   -0.00483231
     atom   31 type  2   force =     0.00000000    0.00000084    0.00575480
     atom   32 type  2   force =    -0.00000034   -0.00000020    0.00575399
     The ionic contribution  to forces
     atom    1 type  1   force =    -0.00000000    0.00000001    0.06271747
     atom    2 type  1   force =     0.00000000    0.00000001    0.06271747
     atom    3 type  2   force =    -0.00000000    0.00000001   -0.06271747
     atom    4 type  2   force =     0.00000000    0.00000000   -0.06271747
     atom    5 type  1   force =    -0.00000000    0.00000001    0.06271747
     atom    6 type  1   force =     0.00000000    0.00000001    0.06271747
     atom    7 type  2   force =    -0.00000000    0.00000001   -0.06271747
     atom    8 type  2   force =     0.00000000    0.00000000   -0.06271747
     atom    9 type  1   force =     0.00000000   -0.00000000    0.06271747
     atom   10 type  1   force =    -0.00000000   -0.00000002    0.06271747
     atom   11 type  2   force =     0.00000000   -0.00000000   -0.06271747
     atom   12 type  2   force =    -0.00000000   -0.00000001   -0.06271747
     atom   13 type  1   force =     0.00000000   -0.00000000    0.06271747
     atom   14 type  1   force =    -0.00000000   -0.00000002    0.06271747
     atom   15 type  2   force =     0.00000000   -0.00000000   -0.06271747
     atom   16 type  2   force =    -0.00000000   -0.00000001   -0.06271747
     atom   17 type  1   force =    -0.00000000    0.00000001    0.06271747
     atom   18 type  1   force =     0.00000000    0.00000001    0.06271747
     atom   19 type  2   force =    -0.00000000    0.00000001   -0.06271747
     atom   20 type  2   force =     0.00000000    0.00000000   -0.06271747
     atom   21 type  1   force =    -0.00000000    0.00000001    0.06271747
     atom   22 type  1   force =     0.00000000    0.00000001    0.06271747
     atom   23 type  2   force =    -0.00000000    0.00000001   -0.06271747
     atom   24 type  2   force =     0.00000000    0.00000000   -0.06271747
     atom   25 type  1   force =     0.00000000   -0.00000000    0.06271747
     atom   26 type  1   force =    -0.00000000   -0.00000002    0.06271747
     atom   27 type  2   force =     0.00000000   -0.00000000   -0.06271747
     atom   28 type  2   force =    -0.00000000   -0.00000001   -0.06271747
     atom   29 type  1   force =     0.00000000   -0.00000000    0.06271747
     atom   30 type  1   force =    -0.00000000   -0.00000002    0.06271747
     atom   31 type  2   force =     0.00000000   -0.00000000   -0.06271747
     atom   32 type  2   force =    -0.00000000   -0.00000001   -0.06271747
     The local contribution  to forces
     atom    1 type  1   force =     0.00000026    0.00000025   -0.05829029
     atom    2 type  1   force =     0.00000009    0.00000224   -0.05828701
     atom    3 type  2   force =     0.00000032    0.00000021    0.05696465
     atom    4 type  2   force =     0.00000002    0.00000074    0.05696481
     atom    5 type  1   force =    -0.00000279   -0.00000151   -0.05828320
     atom    6 type  1   force =     0.00000009    0.00000001   -0.05828987
     atom    7 type  2   force =     0.00000022    0.00000015    0.05696555
     atom    8 type  2   force =     0.00000002   -0.00000037    0.05696726
     atom    9 type  1   force =    -0.00000000    0.00000010   -0.05829189
     atom   10 type  1   force =     0.00000190   -0.00000120   -0.05828701
     atom   11 type  2   force =    -0.00000000    0.00000003    0.05696501
     atom   12 type  2   force =     0.00000064   -0.00000039    0.05696481
     atom   13 type  1   force =    -0.00000000    0.00000010   -0.05828209
     atom   14 type  1   force =    -0.00000003   -0.00000008   -0.05828987
     atom   15 type  2   force =    -0.00000000    0.00000003    0.05696602
     atom   16 type  2   force =    -0.00000033    0.00000016    0.05696726
     atom   17 type  1   force =    -0.00000026    0.00000025   -0.05829029
     atom   18 type  1   force =     0.00000009    0.00000005   -0.05828488
     atom   19 type  2   force =    -0.00000032    0.00000021    0.05696465
     atom   20 type  2   force =     0.00000002    0.00000001    0.05696327
     atom   21 type  1   force =     0.00000279   -0.00000151   -0.05828320
     atom   22 type  1   force =     0.00000009    0.00000005   -0.05829171
     atom   23 type  2   force =    -0.00000022    0.00000015    0.05696555
     atom   24 type  2   force =     0.00000002    0.00000001    0.05696666
     atom   25 type  1   force =    -0.00000000   -0.00000020   -0.05829029
     atom   26 type  1   force =    -0.00000190   -0.00000120   -0.05828701
     atom   27 type  2   force =    -0.00000000   -0.00000034    0.05696465
     atom   28 type  2   force =    -0.00000063   -0.00000039    0.05696481
     atom   29 type  1   force =    -0.00000000    0.00000332   -0.05828320
     atom   30 type  1   force =     0.00000004   -0.00000008   -0.05828987
     atom   31 type  2   force =    -0.00000000   -0.00000022    0.05696555
     atom   32 type  2   force =     0.00000033    0.00000016    0.05696726
     The core correction contribution to forces
     atom    1 type  1   force =    -0.00000000    0.00000001    0.00046408
     atom    2 type  1   force =     0.00000001   -0.00000006    0.00046408
     atom    3 type  2   force =     0.00000001    0.00000001   -0.00006502
     atom    4 type  2   force =    -0.00000000   -0.00000001   -0.00006501
     atom    5 type  1   force =     0.00000011    0.00000007    0.00046396
     atom    6 type  1   force =     0.00000001    0.00000000    0.00046402
     atom    7 type  2   force =     0.00000001    0.00000001   -0.00006504
     atom    8 type  2   force =    -0.00000000   -0.00000001   -0.00006503
     atom    9 type  1   force =    -0.00000000    0.00000001    0.00046406
     atom   10 type  1   force =    -0.00000006    0.00000002    0.00046408
     atom   11 type  2   force =    -0.00000000   -0.00000000   -0.00006502
     atom   12 type  2   force =    -0.00000001    0.00000000   -0.00006501
     atom   13 type  1   force =    -0.00000000    0.00000001    0.00046393
     atom   14 type  1   force =    -0.00000000   -0.00000001    0.00046402
     atom   15 type  2   force =    -0.00000000   -0.00000000   -0.00006503
     atom   16 type  2   force =    -0.00000000    0.00000000   -0.00006503
     atom   17 type  1   force =     0.00000000    0.00000001    0.00046408
     atom   18 type  1   force =     0.00000001    0.00000001    0.00046407
     atom   19 type  2   force =    -0.00000001    0.00000001   -0.00006502
     atom   20 type  2   force =    -0.00000000   -0.00000000   -0.00006502
     atom   21 type  1   force =    -0.00000011    0.00000007    0.00046396
     atom   22 type  1   force =     0.00000001    0.00000001    0.00046415
     atom   23 type  2   force =    -0.00000001    0.00000001   -0.00006504
     atom   24 type  2   force =    -0.00000000   -0.00000000   -0.00006503
     atom   25 type  1   force =    -0.00000000    0.00000002    0.00046408
     atom   26 type  1   force =     0.00000006    0.00000002    0.00046408
     atom   27 type  2   force =    -0.00000000   -0.00000001   -0.00006502
     atom   28 type  2   force =     0.00000001    0.00000000   -0.00006501
     atom   29 type  1   force =    -0.00000000   -0.00000011    0.00046396
     atom   30 type  1   force =     0.00000000   -0.00000001    0.00046402
     atom   31 type  2   force =    -0.00000000   -0.00000001   -0.00006504
     atom   32 type  2   force =     0.00000000    0.00000000   -0.00006503
     The Hubbard contrib.    to forces
     atom    1 type  1   force =     0.00000000    0.00000000    0.00000000
     atom    2 type  1   force =     0.00000000    0.00000000    0.00000000
     atom    3 type  2   force =     0.00000000    0.00000000    0.00000000
     atom    4 type  2   force =     0.00000000    0.00000000    0.00000000
     atom    5 type  1   force =     0.00000000    0.00000000    0.00000000
     atom    6 type  1   force =     0.00000000    0.00000000    0.00000000
     atom    7 type  2   force =     0.00000000    0.00000000    0.00000000
     atom    8 type  2   force =     0.00000000    0.00000000    0.00000000
     atom    9 type  1   force =     0.00000000    0.00000000    0.00000000
     atom   10 type  1   force =     0.00000000    0.00000000    0.00000000
     atom   11 type  2   force =     0.00000000    0.00000000    0.00000000
     atom   12 type  2   force =     0.00000000    0.00000000    0.00000000
     atom   13 type  1   force =     0.00000000    0.00000000    0.00000000
     atom   14 type  1   force =     0.00000000    0.00000000    0.00000000
     atom   15 type  2   force =     0.00000000    0.00000000    0.00000000
     atom   16 type  2   force =     0.00000000    0.00000000    0.00000000
     atom   17 type  1   force =     0.00000000    0.00000000    0.00000000
     atom   18 type  1   force =     0.00000000    0.00000000    0.00000000
     atom   19 type  2   force =     0.00000000    0.00000000    0.00000000
     atom   20 type  2   force =     0.00000000    0.00000000    0.00000000
     atom   21 type  1   force =     0.00000000    0.00000000    0.00000000
     atom   22 type  1   force =     0.00000000    0.00000000    0.00000000
     atom   23 type  2   force =     0.00000000    0.00000000    0.00000000
     atom   24 type  2   force =     0.00000000    0.00000000    0.00000000
     atom   25 type  1   force =     0.00000000    0.00000000    0.00000000
     atom   26 type  1   force =     0.00000000    0.00000000    0.00000000
     atom   27 type  2   force =     0.00000000    0.00000000    0.00000000
     atom   28 type  2   force =     0.00000000    0.00000000    0.00000000
     atom   29 type  1   force =     0.00000000    0.00000000    0.00000000
     atom   30 type  1   force =     0.00000000    0.00000000    0.00000000
     atom   31 type  2   force =     0.00000000    0.00000000    0.00000000
     atom   32 type  2   force =     0.00000000    0.00000000    0.00000000
     The SCF correction term to forces
     atom    1 type  1   force =    -0.00000029   -0.00000017    0.00000183
     atom    2 type  1   force =     0.00000000   -0.00000207   -0.00000076
     atom    3 type  2   force =     0.00000002    0.00000001    0.00000121
     atom    4 type  2   force =     0.00000000   -0.00000099    0.00000119
     atom    5 type  1   force =     0.00000235    0.00000136   -0.00000417
     atom    6 type  1   force =     0.00000000   -0.00000066    0.00000187
     atom    7 type  2   force =     0.00000021    0.00000012   -0.00000106
     atom    8 type  2   force =     0.00000000   -0.00000035   -0.00000181
     atom    9 type  1   force =     0.00000000    0.00000000    0.00000263
     atom   10 type  1   force =    -0.00000180    0.00000104   -0.00000076
     atom   11 type  2   force =     0.00000000    0.00000000    0.00000070
     atom   12 type  2   force =    -0.00000086    0.00000050    0.00000119
     atom   13 type  1   force =     0.00000000    0.00000000   -0.00000526
     atom   14 type  1   force =    -0.00000057    0.00000033    0.00000187
     atom   15 type  2   force =     0.00000000    0.00000000   -0.00000078
     atom   16 type  2   force =    -0.00000030    0.00000017   -0.00000181
     atom   17 type  1   force =     0.00000029   -0.00000017    0.00000183
     atom   18 type  1   force =     0.00000000    0.00000000   -0.00000315
     atom   19 type  2   force =    -0.00000002    0.00000001    0.00000121
     atom   20 type  2   force =     0.00000000    0.00000000    0.00000215
     atom   21 type  1   force =    -0.00000235    0.00000136   -0.00000417
     atom   22 type  1   force =     0.00000000    0.00000000    0.00000285
     atom   23 type  2   force =    -0.00000021    0.00000012   -0.00000106
     atom   24 type  2   force =     0.00000000    0.00000000   -0.00000097
     atom   25 type  1   force =     0.00000000    0.00000033    0.00000183
     atom   26 type  1   force =     0.00000180    0.00000104   -0.00000076
     atom   27 type  2   force =     0.00000000   -0.00000002    0.00000121
     atom   28 type  2   force =     0.00000086    0.00000050    0.00000119
     atom   29 type  1   force =    -0.00000000   -0.00000272   -0.00000417
     atom   30 type  1   force =     0.00000057    0.00000033    0.00000187
     atom   31 type  2   force =     0.00000000   -0.00000024   -0.00000106
     atom   32 type  2   force =     0.00000030    0.00000017   -0.00000181

     Total force =     0.000350     Total SCF correction =     0.000014

     General routines

     Parallel routines

   This run was terminated on:   0:26:45  25Jul2025

   JOB DONE.
Note: The following floating-point exceptions are signalling: IEEE_INVALID_FLAG
Note: The following floating-point exceptions are signalling: IEEE_INVALID_FLAG
Note: The following floating-point exceptions are signalling: IEEE_INVALID_FLAG
Note: The following floating-point exceptions are signalling: IEEE_INVALID_FLAG
Note: The following floating-point exceptions are signalling: IEEE_INVALID_FLAG
Note: The following floating-point exceptions are signalling: IEEE_INVALID_FLAG
Note: The following floating-point exceptions are signalling: IEEE_INVALID_FLAG
Note: The following floating-point exceptions are signalling: IEEE_INVALID_FLAG