     Program PWSCF v.7.2 starts on 18Jul2025 at 16: 8:55

     Reading input from /home/jvc/QEspresso7.2/ZnO_database/scripts/cell212.in/ZnO-3.40-1.78-212.in
Warning: card &CELL ignored
Warning: card / ignored
Warning: card &FCP ignored
Warning: card / ignored
Warning: card &RISM ignored
Warning: card / ignored

     Current dimensions of program PWSCF are:
     Max number of different atomic species (ntypx) = 10
     Max number of k-points (npk) =  40000
     Max angular momentum in pseudopotentials (lmaxx) =  4
     file Zn.upf: wavefunction(s)  3D renormalized
     Found identity + (  0.0000  0.0000 -0.5000) symmetry
     This is a supercell, fractional translations are disabled
     Message from routine setup:
     using ibrav=0 with symmetry is DISCOURAGED, use correct ibrav instead

     K-points division:     npool     =       2
     R & G space division:  proc/nbgrp/npool/nimage =       8
     Subspace diagonalization in iterative solution of the eigenvalue problem:
     a serial algorithm will be used

     Using Slab Decomposition

     bravais-lattice index     =            0
     lattice parameter (alat)  =      12.3576  a.u.
     unit-cell volume          =    1319.1907 (a.u.)^3
     number of atoms/cell      =           16
     number of atomic types    =            2
     number of electrons       =       144.00
     number of Kohn-Sham states=           72
     kinetic-energy cutoff     =      50.0000  Ry
     charge density cutoff     =     400.0000  Ry
     scf convergence threshold =      1.0E-08
     mixing beta               =       0.3000
     number of iterations used =            8  plain     mixing
     Exchange-correlation= PBE
                           (   1   4   3   4   0   0   0)

     celldm(1)=  12.357644  celldm(2)=   0.000000  celldm(3)=   0.000000
     celldm(4)=   0.000000  celldm(5)=   0.000000  celldm(6)=   0.000000

     crystal axes: (cart. coord. in units of alat)
               a(1) = (   1.000000   0.000000   0.000000 )
               a(2) = (  -0.250000   0.433013   0.000000 )
               a(3) = (   0.000000   0.000000   1.614358 )

     reciprocal axes: (cart. coord. in units 2 pi/alat)
               b(1) = (  1.000000  0.577350 -0.000000 )
               b(2) = (  0.000000  2.309401  0.000000 )
               b(3) = (  0.000000 -0.000000  0.619441 )

     PseudoPot. # 1 for Zn read from file:
     /home/jvc/QEspresso7.2/ZnO_database/pseudos/Zn.upf
     MD5 check sum: 7f56cabf9682ed8c977c2f7d0c5985c5
     Pseudo is Ultrasoft + core correction, Zval = 12.0
     Generated using &quot;atomic&quot; code by A. Dal Corso  v.6.2.2
     Using radial grid of 1201 points,  6 beta functions with:
                l(1) =   0
                l(2) =   0
                l(3) =   1
                l(4) =   1
                l(5) =   2
                l(6) =   2
     Q(r) pseudized with 0 coefficients

     PseudoPot. # 2 for O  read from file:
     /home/jvc/QEspresso7.2/ZnO_database/pseudos/O.upf
     MD5 check sum: 91400c9766925bcf19f520983a725ff0
     Pseudo is Ultrasoft + core correction, Zval =  6.0
     Generated using &quot;atomic&quot; code by A. Dal Corso  v.6.3MaX
     Using radial grid of 1095 points,  4 beta functions with:
                l(1) =   0
                l(2) =   0
                l(3) =   1
                l(4) =   1
     Q(r) pseudized with 0 coefficients

     atomic species   valence    mass     pseudopotential
        Zn            12.00    65.38000     Zn( 1.00)
        O              6.00    15.99900     O ( 1.00)

      2 Sym. Ops. (no inversion) found

                                    s                        frac. trans.

      isym =  1     identity

 cryst.   s( 1) = (     1          0          0      )
                  (     0          1          0      )
                  (     0          0          1      )

 cart.    s( 1) = (  1.0000000 -0.0000000  0.0000000 )
                  (  0.0000000  1.0000000  0.0000000 )
                  (  0.0000000  0.0000000  1.0000000 )

      isym =  2     inv. 180 deg rotation - cryst. axis [0,1,0]

 cryst.   s( 2) = (     1          2          0      )
                  (     0         -1          0      )
                  (     0          0          1      )

 cart.    s( 2) = (  0.5000000  0.8660254  0.0000000 )
                  (  0.8660254 -0.5000000  0.0000000 )
                  (  0.0000000  0.0000000  1.0000000 )

   Cartesian axes

     site n.     atom                  positions (alat units)
         1           Zn  tau(   1) = (   0.2500000   0.1443376   0.4041010  )
         2           Zn  tau(   2) = (  -0.0000000   0.2886751   0.0005114  )
         3           O   tau(   3) = (   0.2500000   0.1443376   0.7100565  )
         4           O   tau(   4) = (  -0.0000000   0.2886751   0.3064669  )
         5           Zn  tau(   5) = (   0.2500000   0.1443376   1.2112802  )
         6           Zn  tau(   6) = (  -0.0000000   0.2886751   0.8076906  )
         7           O   tau(   7) = (   0.2500000   0.1443376   1.5172357  )
         8           O   tau(   8) = (  -0.0000000   0.2886751   1.1136461  )
         9           Zn  tau(   9) = (   0.7500000   0.1443376   0.4041010  )
        10           Zn  tau(  10) = (   0.5000000   0.2886751   0.0005114  )
        11           O   tau(  11) = (   0.7500000   0.1443376   0.7100565  )
        12           O   tau(  12) = (   0.5000000   0.2886751   0.3064669  )
        13           Zn  tau(  13) = (   0.7500000   0.1443376   1.2112802  )
        14           Zn  tau(  14) = (   0.5000000   0.2886751   0.8076906  )
        15           O   tau(  15) = (   0.7500000   0.1443376   1.5172357  )
        16           O   tau(  16) = (   0.5000000   0.2886751   1.1136461  )

   Crystallographic axes

     site n.     atom                  positions (cryst. coord.)
         1           Zn  tau(   1) = (  0.3333333  0.3333333  0.2503168  )
         2           Zn  tau(   2) = (  0.1666667  0.6666667  0.0003168  )
         3           O   tau(   3) = (  0.3333333  0.3333333  0.4398382  )
         4           O   tau(   4) = (  0.1666667  0.6666667  0.1898382  )
         5           Zn  tau(   5) = (  0.3333333  0.3333333  0.7503168  )
         6           Zn  tau(   6) = (  0.1666667  0.6666667  0.5003168  )
         7           O   tau(   7) = (  0.3333333  0.3333333  0.9398382  )
         8           O   tau(   8) = (  0.1666667  0.6666667  0.6898382  )
         9           Zn  tau(   9) = (  0.8333333  0.3333333  0.2503168  )
        10           Zn  tau(  10) = (  0.6666667  0.6666667  0.0003168  )
        11           O   tau(  11) = (  0.8333333  0.3333333  0.4398382  )
        12           O   tau(  12) = (  0.6666667  0.6666667  0.1898382  )
        13           Zn  tau(  13) = (  0.8333333  0.3333333  0.7503168  )
        14           Zn  tau(  14) = (  0.6666667  0.6666667  0.5003168  )
        15           O   tau(  15) = (  0.8333333  0.3333333  0.9398382  )
        16           O   tau(  16) = (  0.6666667  0.6666667  0.6898382  )

     number of k points=    20
                       cart. coord. in units 2pi/alat
        k(    1) = (   0.0000000   0.0000000   0.0000000), wk =   0.0370370
        k(    2) = (   0.0000000   0.0000000   0.2064804), wk =   0.0740741
        k(    3) = (   0.0000000   0.3849002   0.0000000), wk =   0.1481481
        k(    4) = (   0.0000000   0.3849002   0.2064804), wk =   0.1481481
        k(    5) = (   0.0000000   0.7698004   0.0000000), wk =   0.1481481
        k(    6) = (   0.0000000   0.7698004   0.2064804), wk =   0.1481481
        k(    7) = (   0.0000000  -1.1547005   0.0000000), wk =   0.0370370
        k(    8) = (   0.0000000  -1.1547005   0.2064804), wk =   0.0740741
        k(    9) = (   0.3333333   0.1924501   0.0000000), wk =   0.0740741
        k(   10) = (   0.3333333   0.1924501   0.2064804), wk =   0.0740741
        k(   11) = (   0.3333333   0.5773503   0.0000000), wk =   0.0740741
        k(   12) = (   0.3333333   0.5773503   0.2064804), wk =   0.1481481
        k(   13) = (   0.3333333  -0.9622504   0.0000000), wk =   0.0740741
        k(   14) = (   0.3333333  -0.9622504   0.2064804), wk =   0.0740741
        k(   15) = (   0.3333333  -0.5773503   0.0000000), wk =   0.0740741
        k(   16) = (   0.3333333  -0.5773503   0.2064804), wk =   0.1481481
        k(   17) = (   0.3333333  -0.1924501  -0.2064804), wk =   0.1481481
        k(   18) = (   0.6666667  -0.3849002  -0.2064804), wk =   0.1481481
        k(   19) = (   0.3333333   0.1924501  -0.2064804), wk =   0.0740741
        k(   20) = (  -0.6666667   0.7698004  -0.2064804), wk =   0.0740741

                       cryst. coord.
        k(    1) = (   0.0000000   0.0000000   0.0000000), wk =   0.0370370
        k(    2) = (   0.0000000   0.0000000   0.3333333), wk =   0.0740741
        k(    3) = (   0.0000000   0.1666667   0.0000000), wk =   0.1481481
        k(    4) = (   0.0000000   0.1666667   0.3333333), wk =   0.1481481
        k(    5) = (   0.0000000   0.3333333   0.0000000), wk =   0.1481481
        k(    6) = (   0.0000000   0.3333333   0.3333333), wk =   0.1481481
        k(    7) = (   0.0000000  -0.5000000   0.0000000), wk =   0.0370370
        k(    8) = (   0.0000000  -0.5000000   0.3333333), wk =   0.0740741
        k(    9) = (   0.3333333  -0.0000000   0.0000000), wk =   0.0740741
        k(   10) = (   0.3333333  -0.0000000   0.3333333), wk =   0.0740741
        k(   11) = (   0.3333333   0.1666667   0.0000000), wk =   0.0740741
        k(   12) = (   0.3333333   0.1666667   0.3333333), wk =   0.1481481
        k(   13) = (   0.3333333  -0.5000000   0.0000000), wk =   0.0740741
        k(   14) = (   0.3333333  -0.5000000   0.3333333), wk =   0.0740741
        k(   15) = (   0.3333333  -0.3333333   0.0000000), wk =   0.0740741
        k(   16) = (   0.3333333  -0.3333333   0.3333333), wk =   0.1481481
        k(   17) = (   0.3333333  -0.1666667  -0.3333333), wk =   0.1481481
        k(   18) = (   0.6666667  -0.3333333  -0.3333333), wk =   0.1481481
        k(   19) = (   0.3333333   0.0000000  -0.3333333), wk =   0.0740741
        k(   20) = (  -0.6666667   0.5000000  -0.3333333), wk =   0.0740741

     Check: negative core charge=   -0.000002

     Initial potential from superposition of free atoms

     starting charge     143.9702, renormalised to     144.0000
     Starting wfcs are  104 randomized atomic wfcs

     Self-consistent Calculation

     iteration #  1     ecut=    50.00 Ry     beta= 0.30
     Davidson diagonalization with overlap

     ethr =  1.00E-02,  avg # of iterations =  1.9

     total energy              =   -1445.91838738 Ry
     estimated scf accuracy    <       2.76298630 Ry

[...]

     c_bands:  1 eigenvalues not converged
     c_bands:  1 eigenvalues not converged
     ethr =  1.11E-08,  avg # of iterations = 15.2

[...]

     c_bands:  1 eigenvalues not converged
     c_bands:  1 eigenvalues not converged
     ethr =  7.28E-11,  avg # of iterations = 13.6

[...]

     total energy              =   -1446.54755149 Ry
     estimated scf accuracy    <       0.00000038 Ry

     iteration # 26     ecut=    50.00 Ry     beta= 0.30
     Davidson diagonalization with overlap

     ethr =  7.28E-11,  avg # of iterations =  6.8

     End of self-consistent calculation

          k = 0.0000 0.0000 0.0000 (  7805 PWs)   bands (ev):

   -10.9985 -10.6675 -10.6674 -10.3493 -10.3182 -10.2372 -10.2371 -10.1407
     0.9527   0.9527   1.1141   1.1297   1.1298   1.3159   1.3159   1.3230
     1.3565   1.3852   1.3852   1.3852   1.3852   1.4392   1.5014   1.5014
     1.5609   1.7821   1.7821   1.8587   1.8587   1.9413   1.9538   2.0753
     2.4282   2.4282   2.4642   2.5468   2.5468   2.5469   2.5469   2.5909
     2.6133   2.6133   2.6248   2.6248   2.6706   2.6978   2.6978   2.7418
     2.8918   3.1878   3.1878   3.2047   3.4268   4.1406   4.6601   4.6601
     4.7139   5.4385   5.4385   5.5539   5.5539   5.6402   6.0830   6.1251
     6.1251   6.5108   6.5108   6.5108   6.5108   6.8049   6.8873   6.8873

     occupation numbers
     1.0000   1.0000   1.0000   1.0000   1.0000   1.0000   1.0000   1.0000
     1.0000   1.0000   1.0000   1.0000   1.0000   1.0000   1.0000   1.0000
     1.0000   1.0000   1.0000   1.0000   1.0000   1.0000   1.0000   1.0000
     1.0000   1.0000   1.0000   1.0000   1.0000   1.0000   1.0000   1.0000
     1.0000   1.0000   1.0000   1.0000   1.0000   1.0000   1.0000   1.0000
     1.0000   1.0000   1.0000   1.0000   1.0000   1.0000   1.0000   1.0000
     1.0000   1.0000   1.0000   1.0000   1.0000   1.0000   1.0000   1.0000
     1.0000   1.0000   1.0000   1.0000   1.0000   1.0000   1.0000   1.0000
     1.0000   1.0000   1.0000   1.0000   1.0000   1.0000   1.0000   1.0000

[...]

          k = 0.3333 0.1925-0.2065 (  7840 PWs)   bands (ev):

[...]

          k =-0.6667 0.7698-0.2065 (  7914 PWs)   bands (ev):

   -10.3402 -10.3402 -10.2962 -10.2962 -10.1859 -10.1859 -10.1495 -10.1495
     1.1038   1.1038   1.1780   1.1780   1.1968   1.1968   1.3762   1.3762
     1.5637   1.5637   1.5839   1.5839   1.7338   1.7338   1.7730   1.7730
     1.8904   1.8904   1.9134   1.9134   1.9824   1.9824   2.0291   2.0291
     2.4172   2.4172   2.4958   2.4958   2.5393   2.5393   2.5677   2.5677
     2.6804   2.6804   2.6913   2.6913   2.8116   2.8116   2.8697   2.8697
     3.1154   3.1154   3.2568   3.2568   3.5916   3.5916   3.6971   3.6971
     4.2091   4.2091   4.5350   4.5350   4.6168   4.6168   5.0817   5.0817
     5.3813   5.3813   5.5972   5.5972   5.7986   5.7986   5.8447   5.8447

     occupation numbers
     1.0000   1.0000   1.0000   1.0000   1.0000   1.0000   1.0000   1.0000
     1.0000   1.0000   1.0000   1.0000   1.0000   1.0000   1.0000   1.0000
     1.0000   1.0000   1.0000   1.0000   1.0000   1.0000   1.0000   1.0000
     1.0000   1.0000   1.0000   1.0000   1.0000   1.0000   1.0000   1.0000
     1.0000   1.0000   1.0000   1.0000   1.0000   1.0000   1.0000   1.0000
     1.0000   1.0000   1.0000   1.0000   1.0000   1.0000   1.0000   1.0000
     1.0000   1.0000   1.0000   1.0000   1.0000   1.0000   1.0000   1.0000
     1.0000   1.0000   1.0000   1.0000   1.0000   1.0000   1.0000   1.0000
     1.0000   1.0000   1.0000   1.0000   1.0000   1.0000   1.0000   1.0000

     highest occupied level (ev):     6.8873

!    total energy              =   -1446.54755157 Ry
     estimated scf accuracy    <          3.2E-09 Ry

     The total energy is the sum of the following terms:
     one-electron contribution =    -618.10096731 Ry
     hartree contribution      =     473.15686165 Ry
     xc contribution           =    -438.18451797 Ry
     ewald contribution        =    -863.41892795 Ry

     convergence has been achieved in  26 iterations

     Forces acting on atoms (cartesian axes, Ry/au):

     atom    1 type  1   force =    -0.00000655   -0.00000378    0.00006367
     atom    2 type  1   force =     0.00000518    0.00000299    0.00006891
     atom    3 type  2   force =     0.00000053    0.00000031   -0.00006153
     atom    4 type  2   force =    -0.00000024   -0.00000014   -0.00006037
     atom    5 type  1   force =    -0.00000095   -0.00000055    0.00004736
     atom    6 type  1   force =    -0.00000157   -0.00000091    0.00006439
     atom    7 type  2   force =     0.00000023    0.00000013   -0.00006029
     atom    8 type  2   force =     0.00000004    0.00000002   -0.00006166
     atom    9 type  1   force =    -0.00000342   -0.00000197    0.00007257
     atom   10 type  1   force =     0.00000557    0.00000322    0.00006584
     atom   11 type  2   force =     0.00000054    0.00000031   -0.00006074
     atom   12 type  2   force =    -0.00000055   -0.00000032   -0.00006195
     atom   13 type  1   force =    -0.00000311   -0.00000180    0.00004477
     atom   14 type  1   force =     0.00000364    0.00000210    0.00006159
     atom   15 type  2   force =     0.00000064    0.00000037   -0.00005988
     atom   16 type  2   force =     0.00000002    0.00000001   -0.00006267
     The non-local contrib.  to forces
     atom    1 type  1   force =    -0.00000135   -0.00000078   -0.00482845
     atom    2 type  1   force =     0.00000055    0.00000032   -0.00483016
     atom    3 type  2   force =     0.00000148    0.00000085    0.00575537
     atom    4 type  2   force =    -0.00000281   -0.00000162    0.00575197
     atom    5 type  1   force =    -0.00000001   -0.00000001   -0.00483885
     atom    6 type  1   force =    -0.00000128   -0.00000074   -0.00483184
     atom    7 type  2   force =     0.00000259    0.00000149    0.00575540
     atom    8 type  2   force =    -0.00000050   -0.00000029    0.00575813
     atom    9 type  1   force =     0.00000017    0.00000010   -0.00482709
     atom   10 type  1   force =     0.00000036    0.00000021   -0.00483126
     atom   11 type  2   force =     0.00000212    0.00000122    0.00575515
     atom   12 type  2   force =    -0.00000262   -0.00000151    0.00574887
     atom   13 type  1   force =     0.00000034    0.00000019   -0.00484033
     atom   14 type  1   force =     0.00000073    0.00000042   -0.00483223
     atom   15 type  2   force =     0.00000199    0.00000115    0.00575751
     atom   16 type  2   force =    -0.00000332   -0.00000192    0.00575932
     The ionic contribution  to forces
     atom    1 type  1   force =    -0.00000000    0.00000000    0.06271747
     atom    2 type  1   force =     0.00000000   -0.00000000    0.06271747
     atom    3 type  2   force =    -0.00000000    0.00000000   -0.06271747
     atom    4 type  2   force =     0.00000000   -0.00000000   -0.06271747
     atom    5 type  1   force =    -0.00000000    0.00000000    0.06271747
     atom    6 type  1   force =     0.00000000   -0.00000000    0.06271747
     atom    7 type  2   force =    -0.00000000    0.00000000   -0.06271747
     atom    8 type  2   force =     0.00000000   -0.00000000   -0.06271747
     atom    9 type  1   force =    -0.00000000    0.00000000    0.06271747
     atom   10 type  1   force =     0.00000000   -0.00000000    0.06271747
     atom   11 type  2   force =    -0.00000000    0.00000000   -0.06271747
     atom   12 type  2   force =     0.00000000   -0.00000000   -0.06271747
     atom   13 type  1   force =    -0.00000000    0.00000000    0.06271747
     atom   14 type  1   force =     0.00000000   -0.00000000    0.06271747
     atom   15 type  2   force =    -0.00000000    0.00000000   -0.06271747
     atom   16 type  2   force =     0.00000000   -0.00000000   -0.06271747
     The local contribution  to forces
     atom    1 type  1   force =     0.00000655    0.00000379   -0.05829445
     atom    2 type  1   force =    -0.00000392   -0.00000237   -0.05830209
     atom    3 type  2   force =     0.00000114    0.00000066    0.05696384
     atom    4 type  2   force =    -0.00000253   -0.00000149    0.05696115
     atom    5 type  1   force =     0.00000175    0.00000102   -0.05827092
     atom    6 type  1   force =     0.00000324    0.00000177   -0.05829325
     atom    7 type  2   force =     0.00000011    0.00000007    0.05696516
     atom    8 type  2   force =    -0.00000056   -0.00000035    0.05697077
     atom    9 type  1   force =    -0.00000067   -0.00000039   -0.05830159
     atom   10 type  1   force =    -0.00000114   -0.00000076   -0.05829689
     atom   11 type  2   force =     0.00000000    0.00000001    0.05696470
     atom   12 type  2   force =    -0.00000025   -0.00000017    0.05696003
     atom   13 type  1   force =     0.00000033    0.00000020   -0.05826610
     atom   14 type  1   force =    -0.00000369   -0.00000223   -0.05829100
     atom   15 type  2   force =    -0.00000439   -0.00000253    0.05696384
     atom   16 type  2   force =    -0.00000063   -0.00000039    0.05697063
     The core correction contribution to forces
     atom    1 type  1   force =    -0.00000005   -0.00000003    0.00046383
     atom    2 type  1   force =     0.00000003    0.00000000    0.00046439
     atom    3 type  2   force =    -0.00000001   -0.00000001   -0.00006505
     atom    4 type  2   force =     0.00000002    0.00000001   -0.00006500
     atom    5 type  1   force =    -0.00000000   -0.00000000    0.00046386
     atom    6 type  1   force =    -0.00000006   -0.00000005    0.00046409
     atom    7 type  2   force =    -0.00000003   -0.00000002   -0.00006504
     atom    8 type  2   force =     0.00000000    0.00000000   -0.00006509
     atom    9 type  1   force =     0.00000022    0.00000013    0.00046386
     atom   10 type  1   force =    -0.00000017   -0.00000011    0.00046428
     atom   11 type  2   force =    -0.00000002   -0.00000001   -0.00006505
     atom   12 type  2   force =     0.00000003    0.00000002   -0.00006497
     atom   13 type  1   force =     0.00000006    0.00000003    0.00046378
     atom   14 type  1   force =     0.00000007    0.00000003    0.00046406
     atom   15 type  2   force =    -0.00000004   -0.00000002   -0.00006507
     atom   16 type  2   force =     0.00000004    0.00000002   -0.00006510
     The Hubbard contrib.    to forces
     atom    1 type  1   force =     0.00000000    0.00000000    0.00000000
     atom    2 type  1   force =     0.00000000    0.00000000    0.00000000
     atom    3 type  2   force =     0.00000000    0.00000000    0.00000000
     atom    4 type  2   force =     0.00000000    0.00000000    0.00000000
     atom    5 type  1   force =     0.00000000    0.00000000    0.00000000
     atom    6 type  1   force =     0.00000000    0.00000000    0.00000000
     atom    7 type  2   force =     0.00000000    0.00000000    0.00000000
     atom    8 type  2   force =     0.00000000    0.00000000    0.00000000
     atom    9 type  1   force =     0.00000000    0.00000000    0.00000000
     atom   10 type  1   force =     0.00000000    0.00000000    0.00000000
     atom   11 type  2   force =     0.00000000    0.00000000    0.00000000
     atom   12 type  2   force =     0.00000000    0.00000000    0.00000000
     atom   13 type  1   force =     0.00000000    0.00000000    0.00000000
     atom   14 type  1   force =     0.00000000    0.00000000    0.00000000
     atom   15 type  2   force =     0.00000000    0.00000000    0.00000000
     atom   16 type  2   force =     0.00000000    0.00000000    0.00000000
     The SCF correction term to forces
     atom    1 type  1   force =    -0.00001197   -0.00000691    0.00000353
     atom    2 type  1   force =     0.00000830    0.00000479    0.00001756
     atom    3 type  2   force =    -0.00000235   -0.00000136    0.00000005
     atom    4 type  2   force =     0.00000482    0.00000278    0.00000725
     atom    5 type  1   force =    -0.00000297   -0.00000172   -0.00002593
     atom    6 type  1   force =    -0.00000369   -0.00000213    0.00000618
     atom    7 type  2   force =    -0.00000271   -0.00000157   -0.00000008
     atom    8 type  2   force =     0.00000084    0.00000049   -0.00000973
     atom    9 type  1   force =    -0.00000340   -0.00000196    0.00001819
     atom   10 type  1   force =     0.00000630    0.00000364    0.00001051
     atom   11 type  2   force =    -0.00000184   -0.00000106    0.00000020
     atom   12 type  2   force =     0.00000202    0.00000116    0.00000986
     atom   13 type  1   force =    -0.00000412   -0.00000238   -0.00003178
     atom   14 type  1   force =     0.00000630    0.00000364    0.00000155
     atom   15 type  2   force =     0.00000280    0.00000162   -0.00000042
     atom   16 type  2   force =     0.00000367    0.00000212   -0.00001178

     Total force =     0.000246     Total SCF correction =     0.000058
     SCF correction compared to forces is large: reduce conv_thr to get better values

     General routines

     Parallel routines

   This run was terminated on:  16:13: 6  18Jul2025

   JOB DONE.
Note: The following floating-point exceptions are signalling: IEEE_INVALID_FLAG
Note: The following floating-point exceptions are signalling: IEEE_INVALID_FLAG