     Program PWSCF v.7.2 starts on 26Jul2025 at 10:41:13

     Reading input from ZnO-2.94-1.45-212.in
Warning: card &CELL ignored
Warning: card / ignored
Warning: card &FCP ignored
Warning: card / ignored
Warning: card &RISM ignored
Warning: card / ignored

     Current dimensions of program PWSCF are:
     Max number of different atomic species (ntypx) = 10
     Max number of k-points (npk) =  40000
     Max angular momentum in pseudopotentials (lmaxx) =  4
     file Zn.upf: wavefunction(s)  3D renormalized
     Found identity + (  0.0000  0.0000 -0.5000) symmetry
     This is a supercell, fractional translations are disabled
     Message from routine setup:
     using ibrav=0 with symmetry is DISCOURAGED, use correct ibrav instead

     K-points division:     npool     =       4
     R & G space division:  proc/nbgrp/npool/nimage =       4
     Subspace diagonalization in iterative solution of the eigenvalue problem:
     a serial algorithm will be used

     Using Slab Decomposition

     bravais-lattice index     =            0
     lattice parameter (alat)  =      12.3576  a.u.
     unit-cell volume          =    1319.1907 (a.u.)^3
     number of atoms/cell      =           16
     number of atomic types    =            2
     number of electrons       =       144.00
     number of Kohn-Sham states=           72
     kinetic-energy cutoff     =      50.0000  Ry
     charge density cutoff     =     400.0000  Ry
     scf convergence threshold =      1.0E-08
     mixing beta               =       0.3000
     number of iterations used =            8  plain     mixing
     Exchange-correlation= PBE
                           (   1   4   3   4   0   0   0)

     celldm(1)=  12.357644  celldm(2)=   0.000000  celldm(3)=   0.000000
     celldm(4)=   0.000000  celldm(5)=   0.000000  celldm(6)=   0.000000

     crystal axes: (cart. coord. in units of alat)
               a(1) = (   1.000000   0.000000   0.000000 )
               a(2) = (  -0.250000   0.433013   0.000000 )
               a(3) = (   0.000000   0.000000   1.614358 )

     reciprocal axes: (cart. coord. in units 2 pi/alat)
               b(1) = (  1.000000  0.577350 -0.000000 )
               b(2) = (  0.000000  2.309401  0.000000 )
               b(3) = (  0.000000 -0.000000  0.619441 )

     PseudoPot. # 1 for Zn read from file:
     /home/jvc/QEspresso7.2/ZnO_database/pseudos/Zn.upf
     MD5 check sum: 7f56cabf9682ed8c977c2f7d0c5985c5
     Pseudo is Ultrasoft + core correction, Zval = 12.0
     Generated using &quot;atomic&quot; code by A. Dal Corso  v.6.2.2
     Using radial grid of 1201 points,  6 beta functions with:
                l(1) =   0
                l(2) =   0
                l(3) =   1
                l(4) =   1
                l(5) =   2
                l(6) =   2
     Q(r) pseudized with 0 coefficients

     PseudoPot. # 2 for O  read from file:
     /home/jvc/QEspresso7.2/ZnO_database/pseudos/O.upf
     MD5 check sum: 91400c9766925bcf19f520983a725ff0
     Pseudo is Ultrasoft + core correction, Zval =  6.0
     Generated using &quot;atomic&quot; code by A. Dal Corso  v.6.3MaX
     Using radial grid of 1095 points,  4 beta functions with:
                l(1) =   0
                l(2) =   0
                l(3) =   1
                l(4) =   1
     Q(r) pseudized with 0 coefficients

     atomic species   valence    mass     pseudopotential
        Zn            12.00    65.38000     Zn( 1.00)
        O              6.00    15.99900     O ( 1.00)

      2 Sym. Ops. (no inversion) found

                                    s                        frac. trans.

      isym =  1     identity

 cryst.   s( 1) = (     1          0          0      )
                  (     0          1          0      )
                  (     0          0          1      )

 cart.    s( 1) = (  1.0000000 -0.0000000  0.0000000 )
                  (  0.0000000  1.0000000  0.0000000 )
                  (  0.0000000  0.0000000  1.0000000 )

      isym =  2     inv. 180 deg rotation - cryst. axis [0,1,0]

 cryst.   s( 2) = (     1          2          0      )
                  (     0         -1          0      )
                  (     0          0          1      )

 cart.    s( 2) = (  0.5000000  0.8660254  0.0000000 )
                  (  0.8660254 -0.5000000  0.0000000 )
                  (  0.0000000  0.0000000  1.0000000 )

   Cartesian axes

     site n.     atom                  positions (alat units)
         1           Zn  tau(   1) = (   0.2500000   0.1443376   0.4041010  )
         2           Zn  tau(   2) = (  -0.0000000   0.2886751   0.0005114  )
         3           O   tau(   3) = (   0.2500000   0.1443376   0.7100565  )
         4           O   tau(   4) = (  -0.0000000   0.2886751   0.3064669  )
         5           Zn  tau(   5) = (   0.2500000   0.1443376   1.2112802  )
         6           Zn  tau(   6) = (  -0.0000000   0.2886751   0.8076906  )
         7           O   tau(   7) = (   0.2500000   0.1443376   1.5172357  )
         8           O   tau(   8) = (  -0.0000000   0.2886751   1.1136461  )
         9           Zn  tau(   9) = (   0.7500000   0.1443376   0.4041010  )
        10           Zn  tau(  10) = (   0.5000000   0.2886751   0.0005114  )
        11           O   tau(  11) = (   0.7500000   0.1443376   0.7100565  )
        12           O   tau(  12) = (   0.5000000   0.2886751   0.3064669  )
        13           Zn  tau(  13) = (   0.7500000   0.1443376   1.2112802  )
        14           Zn  tau(  14) = (   0.5000000   0.2886751   0.8076906  )
        15           O   tau(  15) = (   0.7500000   0.1443376   1.5172357  )
        16           O   tau(  16) = (   0.5000000   0.2886751   1.1136461  )

   Crystallographic axes

     site n.     atom                  positions (cryst. coord.)
         1           Zn  tau(   1) = (  0.3333333  0.3333333  0.2503168  )
         2           Zn  tau(   2) = (  0.1666667  0.6666667  0.0003168  )
         3           O   tau(   3) = (  0.3333333  0.3333333  0.4398382  )
         4           O   tau(   4) = (  0.1666667  0.6666667  0.1898382  )
         5           Zn  tau(   5) = (  0.3333333  0.3333333  0.7503168  )
         6           Zn  tau(   6) = (  0.1666667  0.6666667  0.5003168  )
         7           O   tau(   7) = (  0.3333333  0.3333333  0.9398382  )
         8           O   tau(   8) = (  0.1666667  0.6666667  0.6898382  )
         9           Zn  tau(   9) = (  0.8333333  0.3333333  0.2503168  )
        10           Zn  tau(  10) = (  0.6666667  0.6666667  0.0003168  )
        11           O   tau(  11) = (  0.8333333  0.3333333  0.4398382  )
        12           O   tau(  12) = (  0.6666667  0.6666667  0.1898382  )
        13           Zn  tau(  13) = (  0.8333333  0.3333333  0.7503168  )
        14           Zn  tau(  14) = (  0.6666667  0.6666667  0.5003168  )
        15           O   tau(  15) = (  0.8333333  0.3333333  0.9398382  )
        16           O   tau(  16) = (  0.6666667  0.6666667  0.6898382  )

     number of k points=    20
                       cart. coord. in units 2pi/alat
        k(    1) = (   0.0000000   0.0000000   0.0000000), wk =   0.0370370
        k(    2) = (   0.0000000   0.0000000   0.2064804), wk =   0.0740741
        k(    3) = (   0.0000000   0.3849002   0.0000000), wk =   0.1481481
        k(    4) = (   0.0000000   0.3849002   0.2064804), wk =   0.1481481
        k(    5) = (   0.0000000   0.7698004   0.0000000), wk =   0.1481481
        k(    6) = (   0.0000000   0.7698004   0.2064804), wk =   0.1481481
        k(    7) = (   0.0000000  -1.1547005   0.0000000), wk =   0.0370370
        k(    8) = (   0.0000000  -1.1547005   0.2064804), wk =   0.0740741
        k(    9) = (   0.3333333   0.1924501   0.0000000), wk =   0.0740741
        k(   10) = (   0.3333333   0.1924501   0.2064804), wk =   0.0740741
        k(   11) = (   0.3333333   0.5773503   0.0000000), wk =   0.0740741
        k(   12) = (   0.3333333   0.5773503   0.2064804), wk =   0.1481481
        k(   13) = (   0.3333333  -0.9622504   0.0000000), wk =   0.0740741
        k(   14) = (   0.3333333  -0.9622504   0.2064804), wk =   0.0740741
        k(   15) = (   0.3333333  -0.5773503   0.0000000), wk =   0.0740741
        k(   16) = (   0.3333333  -0.5773503   0.2064804), wk =   0.1481481
        k(   17) = (   0.3333333  -0.1924501  -0.2064804), wk =   0.1481481
        k(   18) = (   0.6666667  -0.3849002  -0.2064804), wk =   0.1481481
        k(   19) = (   0.3333333   0.1924501  -0.2064804), wk =   0.0740741
        k(   20) = (  -0.6666667   0.7698004  -0.2064804), wk =   0.0740741

                       cryst. coord.
        k(    1) = (   0.0000000   0.0000000   0.0000000), wk =   0.0370370
        k(    2) = (   0.0000000   0.0000000   0.3333333), wk =   0.0740741
        k(    3) = (   0.0000000   0.1666667   0.0000000), wk =   0.1481481
        k(    4) = (   0.0000000   0.1666667   0.3333333), wk =   0.1481481
        k(    5) = (   0.0000000   0.3333333   0.0000000), wk =   0.1481481
        k(    6) = (   0.0000000   0.3333333   0.3333333), wk =   0.1481481
        k(    7) = (   0.0000000  -0.5000000   0.0000000), wk =   0.0370370
        k(    8) = (   0.0000000  -0.5000000   0.3333333), wk =   0.0740741
        k(    9) = (   0.3333333  -0.0000000   0.0000000), wk =   0.0740741
        k(   10) = (   0.3333333  -0.0000000   0.3333333), wk =   0.0740741
        k(   11) = (   0.3333333   0.1666667   0.0000000), wk =   0.0740741
        k(   12) = (   0.3333333   0.1666667   0.3333333), wk =   0.1481481
        k(   13) = (   0.3333333  -0.5000000   0.0000000), wk =   0.0740741
        k(   14) = (   0.3333333  -0.5000000   0.3333333), wk =   0.0740741
        k(   15) = (   0.3333333  -0.3333333   0.0000000), wk =   0.0740741
        k(   16) = (   0.3333333  -0.3333333   0.3333333), wk =   0.1481481
        k(   17) = (   0.3333333  -0.1666667  -0.3333333), wk =   0.1481481
        k(   18) = (   0.6666667  -0.3333333  -0.3333333), wk =   0.1481481
        k(   19) = (   0.3333333   0.0000000  -0.3333333), wk =   0.0740741
        k(   20) = (  -0.6666667   0.5000000  -0.3333333), wk =   0.0740741

     Check: negative core charge=   -0.000002

     Initial potential from superposition of free atoms

     starting charge     143.9702, renormalised to     144.0000
     Starting wfcs are  104 randomized atomic wfcs

     Self-consistent Calculation

     iteration #  1     ecut=    50.00 Ry     beta= 0.30
     Davidson diagonalization with overlap

     ethr =  1.00E-02,  avg # of iterations =  1.9

     total energy              =   -1445.91837576 Ry
     estimated scf accuracy    <       2.76120644 Ry

[...]

     total energy              =   -1446.54755156 Ry
     estimated scf accuracy    <       0.00000001 Ry

     iteration # 27     ecut=    50.00 Ry     beta= 0.30
     Davidson diagonalization with overlap

     ethr =  9.29E-12,  avg # of iterations =  2.2

     End of self-consistent calculation

          k = 0.0000 0.0000 0.0000 (  7805 PWs)   bands (ev):

   -10.9985 -10.6675 -10.6675 -10.3493 -10.3183 -10.2372 -10.2372 -10.1408
     0.9526   0.9527   1.1141   1.1297   1.1297   1.3159   1.3159   1.3230
     1.3565   1.3852   1.3852   1.3852   1.3852   1.4392   1.5014   1.5014
     1.5609   1.7821   1.7821   1.8586   1.8586   1.9413   1.9538   2.0753
     2.4282   2.4282   2.4642   2.5468   2.5468   2.5468   2.5468   2.5909
     2.6133   2.6133   2.6248   2.6248   2.6705   2.6978   2.6978   2.7418
     2.8918   3.1878   3.1878   3.2047   3.4268   4.1406   4.6601   4.6601
     4.7139   5.4384   5.4385   5.5539   5.5539   5.6402   6.0829   6.1250
     6.1250   6.5108   6.5108   6.5108   6.5108   6.8049   6.8873   6.8873

     occupation numbers
     1.0000   1.0000   1.0000   1.0000   1.0000   1.0000   1.0000   1.0000
     1.0000   1.0000   1.0000   1.0000   1.0000   1.0000   1.0000   1.0000
     1.0000   1.0000   1.0000   1.0000   1.0000   1.0000   1.0000   1.0000
     1.0000   1.0000   1.0000   1.0000   1.0000   1.0000   1.0000   1.0000
     1.0000   1.0000   1.0000   1.0000   1.0000   1.0000   1.0000   1.0000
     1.0000   1.0000   1.0000   1.0000   1.0000   1.0000   1.0000   1.0000
     1.0000   1.0000   1.0000   1.0000   1.0000   1.0000   1.0000   1.0000
     1.0000   1.0000   1.0000   1.0000   1.0000   1.0000   1.0000   1.0000
     1.0000   1.0000   1.0000   1.0000   1.0000   1.0000   1.0000   1.0000

[...]

          k = 0.3333 0.1925-0.2065 (  7840 PWs)   bands (ev):

[...]

          k =-0.6667 0.7698-0.2065 (  7914 PWs)   bands (ev):

   -10.3402 -10.3402 -10.2962 -10.2962 -10.1859 -10.1859 -10.1495 -10.1495
     1.1038   1.1038   1.1780   1.1780   1.1968   1.1968   1.3762   1.3762
     1.5637   1.5637   1.5839   1.5839   1.7338   1.7338   1.7730   1.7730
     1.8904   1.8904   1.9133   1.9133   1.9824   1.9824   2.0290   2.0290
     2.4172   2.4172   2.4958   2.4958   2.5393   2.5393   2.5677   2.5677
     2.6804   2.6804   2.6913   2.6913   2.8116   2.8116   2.8696   2.8696
     3.1154   3.1154   3.2568   3.2568   3.5916   3.5916   3.6971   3.6971
     4.2091   4.2091   4.5349   4.5350   4.6167   4.6167   5.0817   5.0817
     5.3813   5.3813   5.5972   5.5972   5.7986   5.7986   5.8447   5.8447

     occupation numbers
     1.0000   1.0000   1.0000   1.0000   1.0000   1.0000   1.0000   1.0000
     1.0000   1.0000   1.0000   1.0000   1.0000   1.0000   1.0000   1.0000
     1.0000   1.0000   1.0000   1.0000   1.0000   1.0000   1.0000   1.0000
     1.0000   1.0000   1.0000   1.0000   1.0000   1.0000   1.0000   1.0000
     1.0000   1.0000   1.0000   1.0000   1.0000   1.0000   1.0000   1.0000
     1.0000   1.0000   1.0000   1.0000   1.0000   1.0000   1.0000   1.0000
     1.0000   1.0000   1.0000   1.0000   1.0000   1.0000   1.0000   1.0000
     1.0000   1.0000   1.0000   1.0000   1.0000   1.0000   1.0000   1.0000
     1.0000   1.0000   1.0000   1.0000   1.0000   1.0000   1.0000   1.0000

     highest occupied level (ev):     6.8873

!    total energy              =   -1446.54755156 Ry
     estimated scf accuracy    <          4.8E-09 Ry

     The total energy is the sum of the following terms:
     one-electron contribution =    -618.10100344 Ry
     hartree contribution      =     473.15690937 Ry
     xc contribution           =    -438.18452955 Ry
     ewald contribution        =    -863.41892795 Ry

     convergence has been achieved in  27 iterations

     Forces acting on atoms (cartesian axes, Ry/au):

     atom    1 type  1   force =     0.00000036    0.00000021    0.00005838
     atom    2 type  1   force =    -0.00000076   -0.00000044    0.00005543
     atom    3 type  2   force =     0.00000019    0.00000011   -0.00006051
     atom    4 type  2   force =    -0.00000146   -0.00000085   -0.00006085
     atom    5 type  1   force =     0.00000027    0.00000015    0.00006418
     atom    6 type  1   force =    -0.00000214   -0.00000123    0.00006867
     atom    7 type  2   force =    -0.00000034   -0.00000019   -0.00006353
     atom    8 type  2   force =    -0.00000056   -0.00000033   -0.00006141
     atom    9 type  1   force =     0.00000081    0.00000047    0.00005937
     atom   10 type  1   force =    -0.00000104   -0.00000060    0.00005516
     atom   11 type  2   force =     0.00000101    0.00000058   -0.00005981
     atom   12 type  2   force =     0.00000073    0.00000042   -0.00006081
     atom   13 type  1   force =     0.00000146    0.00000084    0.00006273
     atom   14 type  1   force =    -0.00000030   -0.00000017    0.00006719
     atom   15 type  2   force =     0.00000184    0.00000106   -0.00006266
     atom   16 type  2   force =    -0.00000006   -0.00000003   -0.00006153
     The non-local contrib.  to forces
     atom    1 type  1   force =    -0.00000000   -0.00000000   -0.00483582
     atom    2 type  1   force =     0.00000279    0.00000161   -0.00483254
     atom    3 type  2   force =     0.00000021    0.00000012    0.00575229
     atom    4 type  2   force =    -0.00000146   -0.00000084    0.00575477
     atom    5 type  1   force =    -0.00000008   -0.00000005   -0.00483263
     atom    6 type  1   force =     0.00000139    0.00000080   -0.00483267
     atom    7 type  2   force =     0.00000011    0.00000007    0.00575451
     atom    8 type  2   force =    -0.00000097   -0.00000056    0.00575347
     atom    9 type  1   force =    -0.00000088   -0.00000051   -0.00483459
     atom   10 type  1   force =    -0.00000197   -0.00000114   -0.00483271
     atom   11 type  2   force =     0.00000037    0.00000022    0.00575080
     atom   12 type  2   force =     0.00000017    0.00000010    0.00575444
     atom   13 type  1   force =    -0.00000075   -0.00000044   -0.00483369
     atom   14 type  1   force =    -0.00000069   -0.00000040   -0.00483242
     atom   15 type  2   force =     0.00000077    0.00000045    0.00575476
     atom   16 type  2   force =    -0.00000038   -0.00000022    0.00575122
     The ionic contribution  to forces
     atom    1 type  1   force =    -0.00000000    0.00000000    0.06271747
     atom    2 type  1   force =     0.00000000   -0.00000000    0.06271747
     atom    3 type  2   force =    -0.00000000    0.00000000   -0.06271747
     atom    4 type  2   force =     0.00000000   -0.00000000   -0.06271747
     atom    5 type  1   force =    -0.00000000    0.00000000    0.06271747
     atom    6 type  1   force =     0.00000000   -0.00000000    0.06271747
     atom    7 type  2   force =    -0.00000000    0.00000000   -0.06271747
     atom    8 type  2   force =     0.00000000   -0.00000000   -0.06271747
     atom    9 type  1   force =    -0.00000000    0.00000000    0.06271747
     atom   10 type  1   force =     0.00000000   -0.00000000    0.06271747
     atom   11 type  2   force =    -0.00000000    0.00000000   -0.06271747
     atom   12 type  2   force =     0.00000000   -0.00000000   -0.06271747
     atom   13 type  1   force =    -0.00000000    0.00000000    0.06271747
     atom   14 type  1   force =     0.00000000   -0.00000000    0.06271747
     atom   15 type  2   force =    -0.00000000    0.00000000   -0.06271747
     atom   16 type  2   force =     0.00000000   -0.00000000   -0.06271747
     The local contribution  to forces
     atom    1 type  1   force =    -0.00000026   -0.00000015   -0.05828109
     atom    2 type  1   force =    -0.00000326   -0.00000198   -0.05828516
     atom    3 type  2   force =     0.00000006    0.00000004    0.05695354
     atom    4 type  2   force =    -0.00000082   -0.00000050    0.05696267
     atom    5 type  1   force =    -0.00000022   -0.00000013   -0.05828877
     atom    6 type  1   force =    -0.00000044   -0.00000035   -0.05829226
     atom    7 type  2   force =    -0.00000170   -0.00000098    0.05696207
     atom    8 type  2   force =     0.00000199    0.00000112    0.05695828
     atom    9 type  1   force =     0.00000053    0.00000031   -0.05828367
     atom   10 type  1   force =     0.00000301    0.00000164   -0.05828415
     atom   11 type  2   force =     0.00000148    0.00000086    0.05695675
     atom   12 type  2   force =     0.00000226    0.00000127    0.05696452
     atom   13 type  1   force =     0.00000058    0.00000034   -0.05828703
     atom   14 type  1   force =     0.00000064    0.00000027   -0.05829126
     atom   15 type  2   force =     0.00000267    0.00000154    0.05696225
     atom   16 type  2   force =    -0.00000035   -0.00000023    0.05696037
     The core correction contribution to forces
     atom    1 type  1   force =    -0.00000002   -0.00000001    0.00046405
     atom    2 type  1   force =     0.00000004    0.00000001    0.00046416
     atom    3 type  2   force =    -0.00000000   -0.00000000   -0.00006505
     atom    4 type  2   force =     0.00000002    0.00000001   -0.00006505
     atom    5 type  1   force =     0.00000000    0.00000000    0.00046401
     atom    6 type  1   force =     0.00000001   -0.00000000    0.00046400
     atom    7 type  2   force =    -0.00000001   -0.00000000   -0.00006505
     atom    8 type  2   force =     0.00000002    0.00000001   -0.00006506
     atom    9 type  1   force =     0.00000001    0.00000001    0.00046407
     atom   10 type  1   force =    -0.00000001   -0.00000002    0.00046414
     atom   11 type  2   force =     0.00000000    0.00000000   -0.00006502
     atom   12 type  2   force =     0.00000000    0.00000000   -0.00006504
     atom   13 type  1   force =    -0.00000001   -0.00000000    0.00046402
     atom   14 type  1   force =     0.00000003    0.00000000    0.00046400
     atom   15 type  2   force =    -0.00000000   -0.00000000   -0.00006506
     atom   16 type  2   force =    -0.00000000   -0.00000000   -0.00006502
     The Hubbard contrib.    to forces
     atom    1 type  1   force =     0.00000000    0.00000000    0.00000000
     atom    2 type  1   force =     0.00000000    0.00000000    0.00000000
     atom    3 type  2   force =     0.00000000    0.00000000    0.00000000
     atom    4 type  2   force =     0.00000000    0.00000000    0.00000000
     atom    5 type  1   force =     0.00000000    0.00000000    0.00000000
     atom    6 type  1   force =     0.00000000    0.00000000    0.00000000
     atom    7 type  2   force =     0.00000000    0.00000000    0.00000000
     atom    8 type  2   force =     0.00000000    0.00000000    0.00000000
     atom    9 type  1   force =     0.00000000    0.00000000    0.00000000
     atom   10 type  1   force =     0.00000000    0.00000000    0.00000000
     atom   11 type  2   force =     0.00000000    0.00000000    0.00000000
     atom   12 type  2   force =     0.00000000    0.00000000    0.00000000
     atom   13 type  1   force =     0.00000000    0.00000000    0.00000000
     atom   14 type  1   force =     0.00000000    0.00000000    0.00000000
     atom   15 type  2   force =     0.00000000    0.00000000    0.00000000
     atom   16 type  2   force =     0.00000000    0.00000000    0.00000000
     The SCF correction term to forces
     atom    1 type  1   force =     0.00000070    0.00000040   -0.00001002
     atom    2 type  1   force =    -0.00000023   -0.00000013   -0.00001230
     atom    3 type  2   force =    -0.00000002   -0.00000001    0.00001238
     atom    4 type  2   force =     0.00000087    0.00000050    0.00000043
     atom    5 type  1   force =     0.00000062    0.00000036    0.00000031
     atom    6 type  1   force =    -0.00000300   -0.00000173    0.00000833
     atom    7 type  2   force =     0.00000131    0.00000076   -0.00000139
     atom    8 type  2   force =    -0.00000154   -0.00000089    0.00000557
     atom    9 type  1   force =     0.00000120    0.00000069   -0.00000771
     atom   10 type  1   force =    -0.00000197   -0.00000114   -0.00001339
     atom   11 type  2   force =    -0.00000080   -0.00000046    0.00001134
     atom   12 type  2   force =    -0.00000163   -0.00000094   -0.00000105
     atom   13 type  1   force =     0.00000170    0.00000098   -0.00000184
     atom   14 type  1   force =    -0.00000017   -0.00000010    0.00000560
     atom   15 type  2   force =    -0.00000154   -0.00000089   -0.00000094
     atom   16 type  2   force =     0.00000074    0.00000043    0.00000557

     Total force =     0.000246     Total SCF correction =     0.000031
     SCF correction compared to forces is large: reduce conv_thr to get better values

     General routines

     Parallel routines

   This run was terminated on:  10:44:15  26Jul2025

   JOB DONE.
Note: The following floating-point exceptions are signalling: IEEE_INVALID_FLAG
Note: The following floating-point exceptions are signalling: IEEE_INVALID_FLAG
Note: The following floating-point exceptions are signalling: IEEE_INVALID_FLAG
Note: The following floating-point exceptions are signalling: IEEE_INVALID_FLAG