     Program PWSCF v.7.2 starts on 30Jun2025 at 15:45:23

     Reading input from scf-rnd-ibrav0.in

     Current dimensions of program PWSCF are:
     Max number of different atomic species (ntypx) = 10
     Max number of k-points (npk) =  40000
     Max angular momentum in pseudopotentials (lmaxx) =  4
     file Zn.upf: wavefunction(s)  3D renormalized

     R & G space division:  proc/nbgrp/npool/nimage =       8
     Subspace diagonalization in iterative solution of the eigenvalue problem:
     a serial algorithm will be used

     Using Slab Decomposition

     bravais-lattice index     =            0
     lattice parameter (alat)  =       5.5609  a.u.
     unit-cell volume          =     238.2841 (a.u.)^3
     number of atoms/cell      =            4
     number of atomic types    =            2
     number of electrons       =        36.00
     number of Kohn-Sham states=           18
     kinetic-energy cutoff     =      50.0000  Ry
     charge density cutoff     =     400.0000  Ry
     scf convergence threshold =      1.0E-08
     mixing beta               =       0.3000
     number of iterations used =            8  plain     mixing
     Exchange-correlation= PBE
                           (   1   4   3   4   0   0   0)

     celldm(1)=   5.560939  celldm(2)=   0.000000  celldm(3)=   0.000000
     celldm(4)=   0.000000  celldm(5)=   0.000000  celldm(6)=   0.000000

     crystal axes: (cart. coord. in units of alat)
               a(1) = (   1.000000   0.000000   0.000000 )
               a(2) = (  -0.500000   0.866025   0.000000 )
               a(3) = (   0.000000   0.000000   1.600000 )

     reciprocal axes: (cart. coord. in units 2 pi/alat)
               b(1) = (  1.000000  0.577350 -0.000000 )
               b(2) = (  0.000000  1.154701  0.000000 )
               b(3) = (  0.000000 -0.000000  0.625000 )

     PseudoPot. # 1 for Zn read from file:
     ../pseudos/Zn.upf
     MD5 check sum: 7f56cabf9682ed8c977c2f7d0c5985c5
     Pseudo is Ultrasoft + core correction, Zval = 12.0
     Generated using &quot;atomic&quot; code by A. Dal Corso  v.6.2.2
     Using radial grid of 1201 points,  6 beta functions with:
                l(1) =   0
                l(2) =   0
                l(3) =   1
                l(4) =   1
                l(5) =   2
                l(6) =   2
     Q(r) pseudized with 0 coefficients

     PseudoPot. # 2 for O  read from file:
     ../pseudos/O.upf
     MD5 check sum: 91400c9766925bcf19f520983a725ff0
     Pseudo is Ultrasoft + core correction, Zval =  6.0
     Generated using &quot;atomic&quot; code by A. Dal Corso  v.6.3MaX
     Using radial grid of 1095 points,  4 beta functions with:
                l(1) =   0
                l(2) =   0
                l(3) =   1
                l(4) =   1
     Q(r) pseudized with 0 coefficients

     atomic species   valence    mass     pseudopotential
        Zn            12.00    63.38000     Zn( 1.00)
        O              6.00    15.99900     O ( 1.00)

     No symmetry found

   Cartesian axes

     site n.     atom                  positions (alat units)
         1           Zn  tau(   1) = (   0.5786181   0.3453468   0.5396671  )
         2           Zn  tau(   2) = (   0.2575738   0.3672778   0.0065635  )
         3           O   tau(   3) = (   0.7894368   0.0768586   1.0855228  )
         4           O   tau(   4) = (   0.2664907   0.3989639   0.3650247  )

     number of k points=   112

     Number of k-points >= 100: set verbosity='high' to print them.

     Check: negative core charge=   -0.000002

     Initial potential from superposition of free atoms

     starting charge      35.9925, renormalised to      36.0000
     Starting wfcs are   26 randomized atomic wfcs

     Self-consistent Calculation

     iteration #  1     ecut=    50.00 Ry     beta= 0.30
     Davidson diagonalization with overlap
     ethr =  1.00E-02,  avg # of iterations =  3.7

     total energy              =    -356.86937087 Ry
     estimated scf accuracy    <       1.69217141 Ry

[...]

     total energy              =    -357.10028250 Ry
     estimated scf accuracy    <       0.00000019 Ry

     iteration # 22     ecut=    50.00 Ry     beta= 0.30
     Davidson diagonalization with overlap
     ethr =  3.45E-10,  avg # of iterations =  4.3

     End of self-consistent calculation

     Number of k-points >= 100: set verbosity='high' to print the bands.

     highest occupied level (ev):    13.5959

!    total energy              =    -357.10028254 Ry
     estimated scf accuracy    <          6.1E-09 Ry

     The total energy is the sum of the following terms:
     one-electron contribution =    -180.73541496 Ry
     hartree contribution      =     133.96978017 Ry
     xc contribution           =    -111.41306947 Ry
     ewald contribution        =    -198.92157827 Ry

     convergence has been achieved in  22 iterations

     Forces acting on atoms (cartesian axes, Ry/au):

     atom    1 type  1   force =     5.07426213   -0.87565147    3.31834940
     atom    2 type  1   force =    -0.37326800   -0.50403549   -6.39218239
     atom    3 type  2   force =     0.02765700    0.01193545    0.06820866
     atom    4 type  2   force =    -4.72865113    1.36775151    3.00562433
     The non-local contrib.  to forces
     atom    1 type  1   force =     0.13336867    0.08250752   -0.86957343
     atom    2 type  1   force =     0.40664443   -0.08377868    0.49177679
     atom    3 type  2   force =    -0.06103867    0.33844403   -0.07385103
     atom    4 type  2   force =     0.44269476   -0.16326171   -0.68673729
     The ionic contribution  to forces
     atom    1 type  1   force =    26.03114006   -2.96754726   31.93997525
     atom    2 type  1   force =    -4.92695344   -2.23032603  -50.03653502
     atom    3 type  2   force =     0.95765586   -1.43280617    2.26187993
     atom    4 type  2   force =   -22.06184248    6.63067947   15.83467984
     The local contribution  to forces
     atom    1 type  1   force =   -20.72802837    1.96225996  -27.55533637
     atom    2 type  1   force =     4.13279167    1.77334285   42.71993284
     atom    3 type  2   force =    -0.86919193    1.10936262   -2.12013661
     atom    4 type  2   force =    16.87992376   -5.09691137  -12.13867810
     The core correction contribution to forces
     atom    1 type  1   force =    -0.36238269    0.04714207   -0.19671240
     atom    2 type  1   force =     0.01427236    0.03674528    0.43280943
     atom    3 type  2   force =     0.00025688   -0.00306965    0.00020284
     atom    4 type  2   force =     0.01061435   -0.00275752   -0.00355752
     The Hubbard contrib.    to forces
     atom    1 type  1   force =     0.00000000    0.00000000    0.00000000
     atom    2 type  1   force =     0.00000000    0.00000000    0.00000000
     atom    3 type  2   force =     0.00000000    0.00000000    0.00000000
     atom    4 type  2   force =     0.00000000    0.00000000    0.00000000
     The SCF correction term to forces
     atom    1 type  1   force =     0.00019208   -0.00001892   -0.00004035
     atom    2 type  1   force =     0.00000459   -0.00002407   -0.00020313
     atom    3 type  2   force =     0.00000247   -0.00000052    0.00007682
     atom    4 type  2   force =    -0.00001392   -0.00000252   -0.00011929

     Total force =    10.585365     Total SCF correction =     0.000318

     Writing all to output data dir ./ZnO_ANN.save/

     General routines

     Parallel routines

   This run was terminated on:  15:46:43  30Jun2025

   JOB DONE.