     Program PWSCF v.7.2 starts on 17Jul2025 at 19:12: 9

     Reading input from /home/jvc/QEspresso7.2/ZnO_database/scripts/cell311.in/ZnO-3.60-1.68-311.in
Warning: card &CELL ignored
Warning: card / ignored
Warning: card &FCP ignored
Warning: card / ignored
Warning: card &RISM ignored
Warning: card / ignored

     Current dimensions of program PWSCF are:
     Max number of different atomic species (ntypx) = 10
     Max number of k-points (npk) =  40000
     Max angular momentum in pseudopotentials (lmaxx) =  4
     file Zn.upf: wavefunction(s)  3D renormalized
     Found identity + (  0.3333  0.0000  0.0000) symmetry
     This is a supercell, fractional translations are disabled
     Message from routine setup:
     using ibrav=0 with symmetry is DISCOURAGED, use correct ibrav instead

     K-points division:     npool     =       2
     R & G space division:  proc/nbgrp/npool/nimage =       8
     Subspace diagonalization in iterative solution of the eigenvalue problem:
     a serial algorithm will be used

     Using Slab Decomposition

     bravais-lattice index     =            0
     lattice parameter (alat)  =      18.5365  a.u.
     unit-cell volume          =     989.3930 (a.u.)^3
     number of atoms/cell      =           12
     number of atomic types    =            2
     number of electrons       =       108.00
     number of Kohn-Sham states=           54
     kinetic-energy cutoff     =      50.0000  Ry
     charge density cutoff     =     400.0000  Ry
     scf convergence threshold =      1.0E-08
     mixing beta               =       0.3000
     number of iterations used =            8  plain     mixing
     Exchange-correlation= PBE
                           (   1   4   3   4   0   0   0)

     celldm(1)=  18.536466  celldm(2)=   0.000000  celldm(3)=   0.000000
     celldm(4)=   0.000000  celldm(5)=   0.000000  celldm(6)=   0.000000

     crystal axes: (cart. coord. in units of alat)
               a(1) = (   1.000000   0.000000   0.000000 )
               a(2) = (  -0.166667   0.288675   0.000000 )
               a(3) = (   0.000000   0.000000   0.538119 )

     reciprocal axes: (cart. coord. in units 2 pi/alat)
               b(1) = (  1.000000  0.577350 -0.000000 )
               b(2) = (  0.000000  3.464102  0.000000 )
               b(3) = (  0.000000 -0.000000  1.858323 )

     PseudoPot. # 1 for Zn read from file:
     /home/jvc/QEspresso7.2/ZnO_database/pseudos/Zn.upf
     MD5 check sum: 7f56cabf9682ed8c977c2f7d0c5985c5
     Pseudo is Ultrasoft + core correction, Zval = 12.0
     Generated using &quot;atomic&quot; code by A. Dal Corso  v.6.2.2
     Using radial grid of 1201 points,  6 beta functions with:
                l(1) =   0
                l(2) =   0
                l(3) =   1
                l(4) =   1
                l(5) =   2
                l(6) =   2
     Q(r) pseudized with 0 coefficients

     PseudoPot. # 2 for O  read from file:
     /home/jvc/QEspresso7.2/ZnO_database/pseudos/O.upf
     MD5 check sum: 91400c9766925bcf19f520983a725ff0
     Pseudo is Ultrasoft + core correction, Zval =  6.0
     Generated using &quot;atomic&quot; code by A. Dal Corso  v.6.3MaX
     Using radial grid of 1095 points,  4 beta functions with:
                l(1) =   0
                l(2) =   0
                l(3) =   1
                l(4) =   1
     Q(r) pseudized with 0 coefficients

     atomic species   valence    mass     pseudopotential
        Zn            12.00    65.38000     Zn( 1.00)
        O              6.00    15.99900     O ( 1.00)

      2 Sym. Ops. (no inversion) found

                                    s                        frac. trans.

      isym =  1     identity

 cryst.   s( 1) = (     1          0          0      )
                  (     0          1          0      )
                  (     0          0          1      )

 cart.    s( 1) = (  1.0000000  0.0000000  0.0000000 )
                  (  0.0000000  1.0000000  0.0000000 )
                  (  0.0000000  0.0000000  1.0000000 )

      isym =  2     inv. 180 deg rotation - cryst. axis [0,1,0]

 cryst.   s( 2) = (     1          3          0      )
                  (     0         -1          0      )
                  (     0          0          1      )

 cart.    s( 2) = (  0.5000000  0.8660254  0.0000000 )
                  (  0.8660254 -0.5000000  0.0000000 )
                  (  0.0000000  0.0000000  1.0000000 )

   Cartesian axes

     site n.     atom                  positions (alat units)
         1           Zn  tau(   1) = (   0.1666667   0.0962250   0.2694007  )
         2           Zn  tau(   2) = (   0.0000000   0.1924501   0.0003409  )
         3           O   tau(   3) = (   0.1666667   0.0962250   0.4733710  )
         4           O   tau(   4) = (   0.0000000   0.1924501   0.2043113  )
         5           Zn  tau(   5) = (   0.5000000   0.0962250   0.2694007  )
         6           Zn  tau(   6) = (   0.3333333   0.1924501   0.0003409  )
         7           O   tau(   7) = (   0.5000000   0.0962250   0.4733710  )
         8           O   tau(   8) = (   0.3333333   0.1924501   0.2043113  )
         9           Zn  tau(   9) = (   0.8333333   0.0962250   0.2694007  )
        10           Zn  tau(  10) = (   0.6666667   0.1924501   0.0003409  )
        11           O   tau(  11) = (   0.8333333   0.0962250   0.4733710  )
        12           O   tau(  12) = (   0.6666667   0.1924501   0.2043113  )

   Crystallographic axes

     site n.     atom                  positions (cryst. coord.)
         1           Zn  tau(   1) = (  0.2222222  0.3333333  0.5006336  )
         2           Zn  tau(   2) = (  0.1111111  0.6666667  0.0006336  )
         3           O   tau(   3) = (  0.2222222  0.3333333  0.8796764  )
         4           O   tau(   4) = (  0.1111111  0.6666667  0.3796764  )
         5           Zn  tau(   5) = (  0.5555556  0.3333333  0.5006336  )
         6           Zn  tau(   6) = (  0.4444444  0.6666667  0.0006336  )
         7           O   tau(   7) = (  0.5555556  0.3333333  0.8796764  )
         8           O   tau(   8) = (  0.4444444  0.6666667  0.3796764  )
         9           Zn  tau(   9) = (  0.8888889  0.3333333  0.5006336  )
        10           Zn  tau(  10) = (  0.7777778  0.6666667  0.0006336  )
        11           O   tau(  11) = (  0.8888889  0.3333333  0.8796764  )
        12           O   tau(  12) = (  0.7777778  0.6666667  0.3796764  )

     number of k points=    26
                       cart. coord. in units 2pi/alat
        k(    1) = (   0.0000000   0.0000000   0.0000000), wk =   0.0277778
        k(    2) = (   0.0000000   0.0000000   0.3097206), wk =   0.0555556
        k(    3) = (   0.0000000   0.0000000   0.6194412), wk =   0.0555556
        k(    4) = (   0.0000000   0.0000000  -0.9291617), wk =   0.0277778
        k(    5) = (   0.0000000   0.5773503   0.0000000), wk =   0.1111111
        k(    6) = (   0.0000000   0.5773503   0.3097206), wk =   0.1111111
        k(    7) = (   0.0000000   0.5773503   0.6194412), wk =   0.1111111
        k(    8) = (   0.0000000   0.5773503  -0.9291617), wk =   0.1111111
        k(    9) = (   0.0000000   1.1547005   0.0000000), wk =   0.0555556
        k(   10) = (   0.0000000   1.1547005   0.3097206), wk =   0.1111111
        k(   11) = (   0.0000000   1.1547005   0.6194412), wk =   0.1111111
        k(   12) = (   0.0000000   1.1547005  -0.9291617), wk =   0.0555556
        k(   13) = (   0.0000000  -1.7320508   0.0000000), wk =   0.0555556
        k(   14) = (   0.0000000  -1.7320508   0.3097206), wk =   0.1111111
        k(   15) = (   0.0000000  -1.7320508   0.6194412), wk =   0.1111111
        k(   16) = (   0.0000000  -1.7320508  -0.9291617), wk =   0.0555556
        k(   17) = (  -0.5000000  -0.2886751   0.0000000), wk =   0.0277778
        k(   18) = (  -0.5000000  -0.2886751   0.3097206), wk =   0.0555556
        k(   19) = (  -0.5000000  -0.2886751   0.6194412), wk =   0.0555556
        k(   20) = (  -0.5000000  -0.2886751  -0.9291617), wk =   0.0277778
        k(   21) = (  -0.5000000   0.8660254   0.0000000), wk =   0.0555556
        k(   22) = (  -0.5000000   0.8660254   0.3097206), wk =   0.1111111
        k(   23) = (  -0.5000000   0.8660254   0.6194412), wk =   0.1111111
        k(   24) = (  -0.5000000   0.8660254  -0.9291617), wk =   0.0555556
        k(   25) = (   0.5000000  -0.2886751  -0.3097206), wk =   0.1111111
        k(   26) = (   0.5000000  -0.2886751  -0.6194412), wk =   0.1111111

                       cryst. coord.
        k(    1) = (   0.0000000   0.0000000   0.0000000), wk =   0.0277778
        k(    2) = (   0.0000000   0.0000000   0.1666667), wk =   0.0555556
        k(    3) = (   0.0000000   0.0000000   0.3333333), wk =   0.0555556
        k(    4) = (   0.0000000   0.0000000  -0.5000000), wk =   0.0277778
        k(    5) = (   0.0000000   0.1666667   0.0000000), wk =   0.1111111
        k(    6) = (   0.0000000   0.1666667   0.1666667), wk =   0.1111111
        k(    7) = (   0.0000000   0.1666667   0.3333333), wk =   0.1111111
        k(    8) = (   0.0000000   0.1666667  -0.5000000), wk =   0.1111111
        k(    9) = (   0.0000000   0.3333333   0.0000000), wk =   0.0555556
        k(   10) = (   0.0000000   0.3333333   0.1666667), wk =   0.1111111
        k(   11) = (   0.0000000   0.3333333   0.3333333), wk =   0.1111111
        k(   12) = (   0.0000000   0.3333333  -0.5000000), wk =   0.0555556
        k(   13) = (   0.0000000  -0.5000000   0.0000000), wk =   0.0555556
        k(   14) = (   0.0000000  -0.5000000   0.1666667), wk =   0.1111111
        k(   15) = (   0.0000000  -0.5000000   0.3333333), wk =   0.1111111
        k(   16) = (   0.0000000  -0.5000000  -0.5000000), wk =   0.0555556
        k(   17) = (  -0.5000000   0.0000000   0.0000000), wk =   0.0277778
        k(   18) = (  -0.5000000   0.0000000   0.1666667), wk =   0.0555556
        k(   19) = (  -0.5000000   0.0000000   0.3333333), wk =   0.0555556
        k(   20) = (  -0.5000000   0.0000000  -0.5000000), wk =   0.0277778
        k(   21) = (  -0.5000000   0.3333333   0.0000000), wk =   0.0555556
        k(   22) = (  -0.5000000   0.3333333   0.1666667), wk =   0.1111111
        k(   23) = (  -0.5000000   0.3333333   0.3333333), wk =   0.1111111
        k(   24) = (  -0.5000000   0.3333333  -0.5000000), wk =   0.0555556
        k(   25) = (   0.5000000  -0.1666667  -0.1666667), wk =   0.1111111
        k(   26) = (   0.5000000  -0.1666667  -0.3333333), wk =   0.1111111

     Check: negative core charge=   -0.000002

     Initial potential from superposition of free atoms

     starting charge     107.9776, renormalised to     108.0000
     Starting wfcs are   78 randomized atomic wfcs

     Self-consistent Calculation

     iteration #  1     ecut=    50.00 Ry     beta= 0.30
     Davidson diagonalization with overlap

     ethr =  1.00E-02,  avg # of iterations =  2.0

     total energy              =   -1084.43799411 Ry
     estimated scf accuracy    <       2.07852747 Ry

[...]

     c_bands:  1 eigenvalues not converged
     ethr =  8.37E-08,  avg # of iterations = 13.5

[...]

     total energy              =   -1084.91066371 Ry
     estimated scf accuracy    <       0.00000001 Ry

     iteration # 43     ecut=    50.00 Ry     beta= 0.30
     Davidson diagonalization with overlap

     ethr =  1.26E-11,  avg # of iterations =  2.0

     End of self-consistent calculation

          k = 0.0000 0.0000 0.0000 (  5905 PWs)   bands (ev):

   -10.9985 -10.5470 -10.5470 -10.3182 -10.1574 -10.1574   1.0419   1.0420
     1.3159   1.3159   1.3565   1.3780   1.3780   1.4392   1.5014   1.5014
     1.5195   1.5196   1.7197   1.7197   1.9005   1.9005   2.0312   2.0312
     2.3484   2.3484   2.4282   2.4282   2.4987   2.4988   2.6248   2.6248
     2.6552   2.6552   2.8130   2.8130   2.8918   3.0837   3.0837   3.7941
     3.7941   4.6506   4.6506   5.0972   5.0973   6.0931   6.0931   6.1251
     6.1251   6.3016   6.3016   6.8049   6.8873   6.8873

     occupation numbers
     1.0000   1.0000   1.0000   1.0000   1.0000   1.0000   1.0000   1.0000
     1.0000   1.0000   1.0000   1.0000   1.0000   1.0000   1.0000   1.0000
     1.0000   1.0000   1.0000   1.0000   1.0000   1.0000   1.0000   1.0000
     1.0000   1.0000   1.0000   1.0000   1.0000   1.0000   1.0000   1.0000
     1.0000   1.0000   1.0000   1.0000   1.0000   1.0000   1.0000   1.0000
     1.0000   1.0000   1.0000   1.0000   1.0000   1.0000   1.0000   1.0000
     1.0000   1.0000   1.0000   1.0000   1.0000   1.0000

[...]

          k =-0.5000-0.2887 0.0000 (  5862 PWs)   bands (ev):

[...]

          k =-0.5000 0.8660-0.9292 (  5916 PWs)   bands (ev):

[...]

          k = 0.5000-0.2887-0.6194 (  5905 PWs)   bands (ev):

   -10.7128 -10.5179 -10.4120 -10.2962 -10.2905 -10.1858   1.0368   1.0820
     1.1038   1.1268   1.1443   1.1968   1.4331   1.4425   1.5169   1.5220
     1.5381   1.5437   1.5839   1.6853   1.7338   1.7417   1.8903   1.9133
     2.4609   2.4695   2.4884   2.4958   2.5183   2.5677   2.5934   2.6056
     2.6172   2.6725   2.6913   2.8116   3.2568   3.5916   3.8659   3.9342
     4.4657   4.5350   4.9825   5.0817   5.1229   5.3664   5.3813   5.5974
     5.8447   5.9570   6.0234   6.0904   6.2837   6.4800

     occupation numbers
     1.0000   1.0000   1.0000   1.0000   1.0000   1.0000   1.0000   1.0000
     1.0000   1.0000   1.0000   1.0000   1.0000   1.0000   1.0000   1.0000
     1.0000   1.0000   1.0000   1.0000   1.0000   1.0000   1.0000   1.0000
     1.0000   1.0000   1.0000   1.0000   1.0000   1.0000   1.0000   1.0000
     1.0000   1.0000   1.0000   1.0000   1.0000   1.0000   1.0000   1.0000
     1.0000   1.0000   1.0000   1.0000   1.0000   1.0000   1.0000   1.0000
     1.0000   1.0000   1.0000   1.0000   1.0000   1.0000

     highest occupied level (ev):     6.8873

!    total energy              =   -1084.91066370 Ry
     estimated scf accuracy    <          6.4E-09 Ry

     The total energy is the sum of the following terms:
     one-electron contribution =    -463.57541925 Ry
     hartree contribution      =     354.86718064 Ry
     xc contribution           =    -328.63822913 Ry
     ewald contribution        =    -647.56419596 Ry

     convergence has been achieved in  43 iterations

     Forces acting on atoms (cartesian axes, Ry/au):

     atom    1 type  1   force =     0.00003457    0.00001996    0.00007836
     atom    2 type  1   force =     0.00001653    0.00000954    0.00003598
     atom    3 type  2   force =    -0.00000249   -0.00000144   -0.00006281
     atom    4 type  2   force =    -0.00000043   -0.00000025   -0.00006449
     atom    5 type  1   force =    -0.00003028   -0.00001748    0.00007317
     atom    6 type  1   force =    -0.00002045   -0.00001181    0.00005047
     atom    7 type  2   force =    -0.00000111   -0.00000064   -0.00006265
     atom    8 type  2   force =     0.00000115    0.00000066   -0.00006435
     atom    9 type  1   force =     0.00000343    0.00000198    0.00009881
     atom   10 type  1   force =    -0.00000468   -0.00000270    0.00004276
     atom   11 type  2   force =     0.00000170    0.00000098   -0.00006163
     atom   12 type  2   force =     0.00000208    0.00000120   -0.00006363
     The non-local contrib.  to forces
     atom    1 type  1   force =     0.00002002    0.00001156   -0.00482646
     atom    2 type  1   force =     0.00001152    0.00000665   -0.00484516
     atom    3 type  2   force =    -0.00000601   -0.00000347    0.00575311
     atom    4 type  2   force =    -0.00001566   -0.00000904    0.00575271
     atom    5 type  1   force =    -0.00001895   -0.00001094   -0.00482743
     atom    6 type  1   force =    -0.00000881   -0.00000509   -0.00483916
     atom    7 type  2   force =     0.00001245    0.00000719    0.00575847
     atom    8 type  2   force =     0.00000648    0.00000374    0.00575289
     atom    9 type  1   force =    -0.00000003   -0.00000002   -0.00481286
     atom   10 type  1   force =    -0.00000359   -0.00000207   -0.00484740
     atom   11 type  2   force =    -0.00000625   -0.00000361    0.00575919
     atom   12 type  2   force =     0.00001096    0.00000633    0.00575568
     The ionic contribution  to forces
     atom    1 type  1   force =     0.00000001    0.00000000    0.06271747
     atom    2 type  1   force =     0.00000000    0.00000000    0.06271747
     atom    3 type  2   force =     0.00000001    0.00000000   -0.06271747
     atom    4 type  2   force =     0.00000000    0.00000000   -0.06271747
     atom    5 type  1   force =    -0.00000001    0.00000000    0.06271747
     atom    6 type  1   force =     0.00000001   -0.00000000    0.06271747
     atom    7 type  2   force =    -0.00000000    0.00000000   -0.06271747
     atom    8 type  2   force =     0.00000000   -0.00000000   -0.06271747
     atom    9 type  1   force =    -0.00000000   -0.00000000    0.06271747
     atom   10 type  1   force =    -0.00000001   -0.00000000    0.06271747
     atom   11 type  2   force =    -0.00000000   -0.00000000   -0.06271747
     atom   12 type  2   force =    -0.00000001   -0.00000000   -0.06271747
     The local contribution  to forces
     atom    1 type  1   force =    -0.00005622   -0.00003246   -0.05831599
     atom    2 type  1   force =    -0.00002532   -0.00001467   -0.05824532
     atom    3 type  2   force =    -0.00001696   -0.00000979    0.05697757
     atom    4 type  2   force =    -0.00000471   -0.00000273    0.05696294
     atom    5 type  1   force =     0.00005925    0.00003431   -0.05830831
     atom    6 type  1   force =     0.00002275    0.00001303   -0.05827425
     atom    7 type  2   force =     0.00000064    0.00000040    0.05697167
     atom    8 type  2   force =     0.00000777    0.00000446    0.05695932
     atom    9 type  1   force =    -0.00000713   -0.00000407   -0.05835214
     atom   10 type  1   force =     0.00000688    0.00000397   -0.05823774
     atom   11 type  2   force =     0.00000535    0.00000311    0.05697421
     atom   12 type  2   force =     0.00000644    0.00000372    0.05696264
     The core correction contribution to forces
     atom    1 type  1   force =     0.00000069    0.00000040    0.00046477
     atom    2 type  1   force =    -0.00000002   -0.00000002    0.00046299
     atom    3 type  2   force =     0.00000004    0.00000002   -0.00006499
     atom    4 type  2   force =     0.00000021    0.00000012   -0.00006500
     atom    5 type  1   force =    -0.00000125   -0.00000071    0.00046452
     atom    6 type  1   force =     0.00000008    0.00000004    0.00046405
     atom    7 type  2   force =    -0.00000017   -0.00000010   -0.00006507
     atom    8 type  2   force =    -0.00000007   -0.00000004   -0.00006502
     atom    9 type  1   force =     0.00000046    0.00000027    0.00046519
     atom   10 type  1   force =     0.00000002    0.00000001    0.00046243
     atom   11 type  2   force =     0.00000009    0.00000005   -0.00006508
     atom   12 type  2   force =    -0.00000012   -0.00000007   -0.00006504
     The Hubbard contrib.    to forces
     atom    1 type  1   force =     0.00000000    0.00000000    0.00000000
     atom    2 type  1   force =     0.00000000    0.00000000    0.00000000
     atom    3 type  2   force =     0.00000000    0.00000000    0.00000000
     atom    4 type  2   force =     0.00000000    0.00000000    0.00000000
     atom    5 type  1   force =     0.00000000    0.00000000    0.00000000
     atom    6 type  1   force =     0.00000000    0.00000000    0.00000000
     atom    7 type  2   force =     0.00000000    0.00000000    0.00000000
     atom    8 type  2   force =     0.00000000    0.00000000    0.00000000
     atom    9 type  1   force =     0.00000000    0.00000000    0.00000000
     atom   10 type  1   force =     0.00000000    0.00000000    0.00000000
     atom   11 type  2   force =     0.00000000    0.00000000    0.00000000
     atom   12 type  2   force =     0.00000000    0.00000000    0.00000000
     The SCF correction term to forces
     atom    1 type  1   force =     0.00006963    0.00004020    0.00003872
     atom    2 type  1   force =     0.00002995    0.00001729   -0.00005386
     atom    3 type  2   force =     0.00002000    0.00001155   -0.00001088
     atom    4 type  2   force =     0.00001930    0.00001114    0.00000248
     atom    5 type  1   force =    -0.00006979   -0.00004029    0.00002705
     atom    6 type  1   force =    -0.00003487   -0.00002013   -0.00001750
     atom    7 type  2   force =    -0.00001446   -0.00000835   -0.00001010
     atom    8 type  2   force =    -0.00001345   -0.00000776    0.00000608
     atom    9 type  1   force =     0.00000969    0.00000559    0.00008129
     atom   10 type  1   force =    -0.00000840   -0.00000485   -0.00005186
     atom   11 type  2   force =     0.00000207    0.00000120   -0.00001235
     atom   12 type  2   force =    -0.00001563   -0.00000902    0.00000070

     Total force =     0.000234     Total SCF correction =     0.000182
     SCF correction compared to forces is large: reduce conv_thr to get better values

     General routines

     Parallel routines

   This run was terminated on:  19:16:22  17Jul2025

   JOB DONE.
Note: The following floating-point exceptions are signalling: IEEE_INVALID_FLAG
Note: The following floating-point exceptions are signalling: IEEE_INVALID_FLAG