     Program PWSCF v.7.2 starts on 17Jul2025 at 15:56:34

     Reading input from /home/jvc/QEspresso7.2/ZnO_database/scripts/cell311.in/ZnO-3.34-1.61-311.in
Warning: card &CELL ignored
Warning: card / ignored
Warning: card &FCP ignored
Warning: card / ignored
Warning: card &RISM ignored
Warning: card / ignored

     Current dimensions of program PWSCF are:
     Max number of different atomic species (ntypx) = 10
     Max number of k-points (npk) =  40000
     Max angular momentum in pseudopotentials (lmaxx) =  4
     file Zn.upf: wavefunction(s)  3D renormalized
     Found identity + (  0.3333  0.0000  0.0000) symmetry
     This is a supercell, fractional translations are disabled
     Message from routine setup:
     using ibrav=0 with symmetry is DISCOURAGED, use correct ibrav instead

     K-points division:     npool     =       2
     R & G space division:  proc/nbgrp/npool/nimage =       8
     Subspace diagonalization in iterative solution of the eigenvalue problem:
     a serial algorithm will be used

     Using Slab Decomposition

     bravais-lattice index     =            0
     lattice parameter (alat)  =      18.5365  a.u.
     unit-cell volume          =     989.3930 (a.u.)^3
     number of atoms/cell      =           12
     number of atomic types    =            2
     number of electrons       =       108.00
     number of Kohn-Sham states=           54
     kinetic-energy cutoff     =      50.0000  Ry
     charge density cutoff     =     400.0000  Ry
     scf convergence threshold =      1.0E-08
     mixing beta               =       0.3000
     number of iterations used =            8  plain     mixing
     Exchange-correlation= PBE
                           (   1   4   3   4   0   0   0)

     celldm(1)=  18.536466  celldm(2)=   0.000000  celldm(3)=   0.000000
     celldm(4)=   0.000000  celldm(5)=   0.000000  celldm(6)=   0.000000

     crystal axes: (cart. coord. in units of alat)
               a(1) = (   1.000000   0.000000   0.000000 )
               a(2) = (  -0.166667   0.288675   0.000000 )
               a(3) = (   0.000000   0.000000   0.538119 )

     reciprocal axes: (cart. coord. in units 2 pi/alat)
               b(1) = (  1.000000  0.577350 -0.000000 )
               b(2) = (  0.000000  3.464102  0.000000 )
               b(3) = (  0.000000 -0.000000  1.858323 )

     PseudoPot. # 1 for Zn read from file:
     /home/jvc/QEspresso7.2/ZnO_database/pseudos/Zn.upf
     MD5 check sum: 7f56cabf9682ed8c977c2f7d0c5985c5
     Pseudo is Ultrasoft + core correction, Zval = 12.0
     Generated using &quot;atomic&quot; code by A. Dal Corso  v.6.2.2
     Using radial grid of 1201 points,  6 beta functions with:
                l(1) =   0
                l(2) =   0
                l(3) =   1
                l(4) =   1
                l(5) =   2
                l(6) =   2
     Q(r) pseudized with 0 coefficients

     PseudoPot. # 2 for O  read from file:
     /home/jvc/QEspresso7.2/ZnO_database/pseudos/O.upf
     MD5 check sum: 91400c9766925bcf19f520983a725ff0
     Pseudo is Ultrasoft + core correction, Zval =  6.0
     Generated using &quot;atomic&quot; code by A. Dal Corso  v.6.3MaX
     Using radial grid of 1095 points,  4 beta functions with:
                l(1) =   0
                l(2) =   0
                l(3) =   1
                l(4) =   1
     Q(r) pseudized with 0 coefficients

     atomic species   valence    mass     pseudopotential
        Zn            12.00    65.38000     Zn( 1.00)
        O              6.00    15.99900     O ( 1.00)

      2 Sym. Ops. (no inversion) found

                                    s                        frac. trans.

      isym =  1     identity

 cryst.   s( 1) = (     1          0          0      )
                  (     0          1          0      )
                  (     0          0          1      )

 cart.    s( 1) = (  1.0000000  0.0000000  0.0000000 )
                  (  0.0000000  1.0000000  0.0000000 )
                  (  0.0000000  0.0000000  1.0000000 )

      isym =  2     inv. 180 deg rotation - cryst. axis [0,1,0]

 cryst.   s( 2) = (     1          3          0      )
                  (     0         -1          0      )
                  (     0          0          1      )

 cart.    s( 2) = (  0.5000000  0.8660254  0.0000000 )
                  (  0.8660254 -0.5000000  0.0000000 )
                  (  0.0000000  0.0000000  1.0000000 )

   Cartesian axes

     site n.     atom                  positions (alat units)
         1           Zn  tau(   1) = (   0.1666667   0.0962250   0.2694007  )
         2           Zn  tau(   2) = (   0.0000000   0.1924501   0.0003409  )
         3           O   tau(   3) = (   0.1666667   0.0962250   0.4733710  )
         4           O   tau(   4) = (   0.0000000   0.1924501   0.2043113  )
         5           Zn  tau(   5) = (   0.5000000   0.0962250   0.2694007  )
         6           Zn  tau(   6) = (   0.3333333   0.1924501   0.0003409  )
         7           O   tau(   7) = (   0.5000000   0.0962250   0.4733710  )
         8           O   tau(   8) = (   0.3333333   0.1924501   0.2043113  )
         9           Zn  tau(   9) = (   0.8333333   0.0962250   0.2694007  )
        10           Zn  tau(  10) = (   0.6666667   0.1924501   0.0003409  )
        11           O   tau(  11) = (   0.8333333   0.0962250   0.4733710  )
        12           O   tau(  12) = (   0.6666667   0.1924501   0.2043113  )

   Crystallographic axes

     site n.     atom                  positions (cryst. coord.)
         1           Zn  tau(   1) = (  0.2222222  0.3333333  0.5006336  )
         2           Zn  tau(   2) = (  0.1111111  0.6666667  0.0006336  )
         3           O   tau(   3) = (  0.2222222  0.3333333  0.8796764  )
         4           O   tau(   4) = (  0.1111111  0.6666667  0.3796764  )
         5           Zn  tau(   5) = (  0.5555556  0.3333333  0.5006336  )
         6           Zn  tau(   6) = (  0.4444444  0.6666667  0.0006336  )
         7           O   tau(   7) = (  0.5555556  0.3333333  0.8796764  )
         8           O   tau(   8) = (  0.4444444  0.6666667  0.3796764  )
         9           Zn  tau(   9) = (  0.8888889  0.3333333  0.5006336  )
        10           Zn  tau(  10) = (  0.7777778  0.6666667  0.0006336  )
        11           O   tau(  11) = (  0.8888889  0.3333333  0.8796764  )
        12           O   tau(  12) = (  0.7777778  0.6666667  0.3796764  )

     number of k points=    26
                       cart. coord. in units 2pi/alat
        k(    1) = (   0.0000000   0.0000000   0.0000000), wk =   0.0277778
        k(    2) = (   0.0000000   0.0000000   0.3097206), wk =   0.0555556
        k(    3) = (   0.0000000   0.0000000   0.6194412), wk =   0.0555556
        k(    4) = (   0.0000000   0.0000000  -0.9291617), wk =   0.0277778
        k(    5) = (   0.0000000   0.5773503   0.0000000), wk =   0.1111111
        k(    6) = (   0.0000000   0.5773503   0.3097206), wk =   0.1111111
        k(    7) = (   0.0000000   0.5773503   0.6194412), wk =   0.1111111
        k(    8) = (   0.0000000   0.5773503  -0.9291617), wk =   0.1111111
        k(    9) = (   0.0000000   1.1547005   0.0000000), wk =   0.0555556
        k(   10) = (   0.0000000   1.1547005   0.3097206), wk =   0.1111111
        k(   11) = (   0.0000000   1.1547005   0.6194412), wk =   0.1111111
        k(   12) = (   0.0000000   1.1547005  -0.9291617), wk =   0.0555556
        k(   13) = (   0.0000000  -1.7320508   0.0000000), wk =   0.0555556
        k(   14) = (   0.0000000  -1.7320508   0.3097206), wk =   0.1111111
        k(   15) = (   0.0000000  -1.7320508   0.6194412), wk =   0.1111111
        k(   16) = (   0.0000000  -1.7320508  -0.9291617), wk =   0.0555556
        k(   17) = (  -0.5000000  -0.2886751   0.0000000), wk =   0.0277778
        k(   18) = (  -0.5000000  -0.2886751   0.3097206), wk =   0.0555556
        k(   19) = (  -0.5000000  -0.2886751   0.6194412), wk =   0.0555556
        k(   20) = (  -0.5000000  -0.2886751  -0.9291617), wk =   0.0277778
        k(   21) = (  -0.5000000   0.8660254   0.0000000), wk =   0.0555556
        k(   22) = (  -0.5000000   0.8660254   0.3097206), wk =   0.1111111
        k(   23) = (  -0.5000000   0.8660254   0.6194412), wk =   0.1111111
        k(   24) = (  -0.5000000   0.8660254  -0.9291617), wk =   0.0555556
        k(   25) = (   0.5000000  -0.2886751  -0.3097206), wk =   0.1111111
        k(   26) = (   0.5000000  -0.2886751  -0.6194412), wk =   0.1111111

                       cryst. coord.
        k(    1) = (   0.0000000   0.0000000   0.0000000), wk =   0.0277778
        k(    2) = (   0.0000000   0.0000000   0.1666667), wk =   0.0555556
        k(    3) = (   0.0000000   0.0000000   0.3333333), wk =   0.0555556
        k(    4) = (   0.0000000   0.0000000  -0.5000000), wk =   0.0277778
        k(    5) = (   0.0000000   0.1666667   0.0000000), wk =   0.1111111
        k(    6) = (   0.0000000   0.1666667   0.1666667), wk =   0.1111111
        k(    7) = (   0.0000000   0.1666667   0.3333333), wk =   0.1111111
        k(    8) = (   0.0000000   0.1666667  -0.5000000), wk =   0.1111111
        k(    9) = (   0.0000000   0.3333333   0.0000000), wk =   0.0555556
        k(   10) = (   0.0000000   0.3333333   0.1666667), wk =   0.1111111
        k(   11) = (   0.0000000   0.3333333   0.3333333), wk =   0.1111111
        k(   12) = (   0.0000000   0.3333333  -0.5000000), wk =   0.0555556
        k(   13) = (   0.0000000  -0.5000000   0.0000000), wk =   0.0555556
        k(   14) = (   0.0000000  -0.5000000   0.1666667), wk =   0.1111111
        k(   15) = (   0.0000000  -0.5000000   0.3333333), wk =   0.1111111
        k(   16) = (   0.0000000  -0.5000000  -0.5000000), wk =   0.0555556
        k(   17) = (  -0.5000000   0.0000000   0.0000000), wk =   0.0277778
        k(   18) = (  -0.5000000   0.0000000   0.1666667), wk =   0.0555556
        k(   19) = (  -0.5000000   0.0000000   0.3333333), wk =   0.0555556
        k(   20) = (  -0.5000000   0.0000000  -0.5000000), wk =   0.0277778
        k(   21) = (  -0.5000000   0.3333333   0.0000000), wk =   0.0555556
        k(   22) = (  -0.5000000   0.3333333   0.1666667), wk =   0.1111111
        k(   23) = (  -0.5000000   0.3333333   0.3333333), wk =   0.1111111
        k(   24) = (  -0.5000000   0.3333333  -0.5000000), wk =   0.0555556
        k(   25) = (   0.5000000  -0.1666667  -0.1666667), wk =   0.1111111
        k(   26) = (   0.5000000  -0.1666667  -0.3333333), wk =   0.1111111

     Check: negative core charge=   -0.000002

     Initial potential from superposition of free atoms

     starting charge     107.9776, renormalised to     108.0000
     Starting wfcs are   78 randomized atomic wfcs

     Self-consistent Calculation

     iteration #  1     ecut=    50.00 Ry     beta= 0.30
     Davidson diagonalization with overlap

     ethr =  1.00E-02,  avg # of iterations =  2.0

     total energy              =   -1084.43799411 Ry
     estimated scf accuracy    <       2.07852747 Ry

[...]

     c_bands:  1 eigenvalues not converged
     ethr =  8.37E-08,  avg # of iterations = 13.5

[...]

     total energy              =   -1084.91066364 Ry
     estimated scf accuracy    <       0.00000024 Ry

     iteration # 41     ecut=    50.00 Ry     beta= 0.30
     Davidson diagonalization with overlap

     ethr =  1.11E-10,  avg # of iterations =  6.2

     End of self-consistent calculation

          k = 0.0000 0.0000 0.0000 (  5905 PWs)   bands (ev):

   -10.9984 -10.5469 -10.5468 -10.3181 -10.1574 -10.1573   1.0420   1.0420
     1.3159   1.3159   1.3565   1.3780   1.3781   1.4393   1.5014   1.5014
     1.5196   1.5196   1.7197   1.7197   1.9005   1.9005   2.0312   2.0312
     2.3484   2.3484   2.4282   2.4282   2.4988   2.4988   2.6248   2.6248
     2.6552   2.6552   2.8131   2.8131   2.8918   3.0838   3.0838   3.7941
     3.7941   4.6507   4.6507   5.0973   5.0973   6.0931   6.0932   6.1252
     6.1252   6.3016   6.3017   6.8050   6.8874   6.8874

     occupation numbers
     1.0000   1.0000   1.0000   1.0000   1.0000   1.0000   1.0000   1.0000
     1.0000   1.0000   1.0000   1.0000   1.0000   1.0000   1.0000   1.0000
     1.0000   1.0000   1.0000   1.0000   1.0000   1.0000   1.0000   1.0000
     1.0000   1.0000   1.0000   1.0000   1.0000   1.0000   1.0000   1.0000
     1.0000   1.0000   1.0000   1.0000   1.0000   1.0000   1.0000   1.0000
     1.0000   1.0000   1.0000   1.0000   1.0000   1.0000   1.0000   1.0000
     1.0000   1.0000   1.0000   1.0000   1.0000   1.0000

[...]

          k =-0.5000-0.2887 0.0000 (  5862 PWs)   bands (ev):

[...]

          k =-0.5000 0.8660-0.9292 (  5916 PWs)   bands (ev):

[...]

          k = 0.5000-0.2887-0.6194 (  5905 PWs)   bands (ev):

   -10.7127 -10.5178 -10.4120 -10.2961 -10.2904 -10.1858   1.0368   1.0821
     1.1038   1.1268   1.1443   1.1968   1.4332   1.4425   1.5169   1.5221
     1.5381   1.5437   1.5839   1.6853   1.7339   1.7418   1.8904   1.9134
     2.4609   2.4695   2.4884   2.4958   2.5183   2.5677   2.5935   2.6056
     2.6172   2.6725   2.6913   2.8116   3.2568   3.5916   3.8660   3.9343
     4.4657   4.5350   4.9826   5.0818   5.1229   5.3664   5.3814   5.5975
     5.8448   5.9570   6.0235   6.0905   6.2838   6.4801

     occupation numbers
     1.0000   1.0000   1.0000   1.0000   1.0000   1.0000   1.0000   1.0000
     1.0000   1.0000   1.0000   1.0000   1.0000   1.0000   1.0000   1.0000
     1.0000   1.0000   1.0000   1.0000   1.0000   1.0000   1.0000   1.0000
     1.0000   1.0000   1.0000   1.0000   1.0000   1.0000   1.0000   1.0000
     1.0000   1.0000   1.0000   1.0000   1.0000   1.0000   1.0000   1.0000
     1.0000   1.0000   1.0000   1.0000   1.0000   1.0000   1.0000   1.0000
     1.0000   1.0000   1.0000   1.0000   1.0000   1.0000

     highest occupied level (ev):     6.8874

!    total energy              =   -1084.91066371 Ry
     estimated scf accuracy    <          3.1E-09 Ry

     The total energy is the sum of the following terms:
     one-electron contribution =    -463.57543337 Ry
     hartree contribution      =     354.86720963 Ry
     xc contribution           =    -328.63824400 Ry
     ewald contribution        =    -647.56419596 Ry

     convergence has been achieved in  41 iterations

     Forces acting on atoms (cartesian axes, Ry/au):

     atom    1 type  1   force =    -0.00001268   -0.00000732    0.00006015
     atom    2 type  1   force =    -0.00000824   -0.00000476    0.00005796
     atom    3 type  2   force =     0.00000270    0.00000156   -0.00005533
     atom    4 type  2   force =     0.00000581    0.00000336   -0.00005284
     atom    5 type  1   force =    -0.00000107   -0.00000062    0.00005629
     atom    6 type  1   force =    -0.00000477   -0.00000275    0.00005762
     atom    7 type  2   force =     0.00000042    0.00000024   -0.00005489
     atom    8 type  2   force =    -0.00000091   -0.00000052   -0.00005390
     atom    9 type  1   force =     0.00001262    0.00000728    0.00003914
     atom   10 type  1   force =     0.00000718    0.00000414    0.00005888
     atom   11 type  2   force =     0.00000070    0.00000040   -0.00006030
     atom   12 type  2   force =    -0.00000176   -0.00000102   -0.00005279
     The non-local contrib.  to forces
     atom    1 type  1   force =    -0.00001040   -0.00000601   -0.00483270
     atom    2 type  1   force =    -0.00000728   -0.00000421   -0.00483222
     atom    3 type  2   force =     0.00000896    0.00000517    0.00575299
     atom    4 type  2   force =     0.00000598    0.00000345    0.00575326
     atom    5 type  1   force =    -0.00000020   -0.00000012   -0.00483435
     atom    6 type  1   force =     0.00000085    0.00000049   -0.00483407
     atom    7 type  2   force =    -0.00000407   -0.00000235    0.00575227
     atom    8 type  2   force =    -0.00000145   -0.00000084    0.00575196
     atom    9 type  1   force =     0.00001039    0.00000600   -0.00484536
     atom   10 type  1   force =     0.00000764    0.00000441   -0.00482996
     atom   11 type  2   force =    -0.00000514   -0.00000297    0.00574485
     atom   12 type  2   force =    -0.00000719   -0.00000415    0.00575607
     The ionic contribution  to forces
     atom    1 type  1   force =     0.00000001    0.00000000    0.06271747
     atom    2 type  1   force =     0.00000000    0.00000000    0.06271747
     atom    3 type  2   force =     0.00000001    0.00000000   -0.06271747
     atom    4 type  2   force =     0.00000000    0.00000000   -0.06271747
     atom    5 type  1   force =    -0.00000001    0.00000000    0.06271747
     atom    6 type  1   force =     0.00000001   -0.00000000    0.06271747
     atom    7 type  2   force =    -0.00000000    0.00000000   -0.06271747
     atom    8 type  2   force =     0.00000000   -0.00000000   -0.06271747
     atom    9 type  1   force =    -0.00000000   -0.00000000    0.06271747
     atom   10 type  1   force =    -0.00000001   -0.00000000    0.06271747
     atom   11 type  2   force =    -0.00000000   -0.00000000   -0.06271747
     atom   12 type  2   force =    -0.00000001   -0.00000000   -0.06271747
     The local contribution  to forces
     atom    1 type  1   force =     0.00001914    0.00001105   -0.05828853
     atom    2 type  1   force =     0.00001412    0.00000810   -0.05828441
     atom    3 type  2   force =     0.00000064    0.00000037    0.05696505
     atom    4 type  2   force =     0.00002084    0.00001202    0.05696925
     atom    5 type  1   force =     0.00000425    0.00000256   -0.05828274
     atom    6 type  1   force =     0.00000311    0.00000169   -0.05828426
     atom    7 type  2   force =     0.00000839    0.00000487    0.05696440
     atom    8 type  2   force =    -0.00000059   -0.00000037    0.05696116
     atom    9 type  1   force =    -0.00002356   -0.00001355   -0.05826738
     atom   10 type  1   force =    -0.00001535   -0.00000886   -0.05828513
     atom   11 type  2   force =    -0.00000150   -0.00000085    0.05696595
     atom   12 type  2   force =    -0.00000196   -0.00000114    0.05697423
     The core correction contribution to forces
     atom    1 type  1   force =    -0.00000009   -0.00000005    0.00046410
     atom    2 type  1   force =     0.00000013    0.00000007    0.00046447
     atom    3 type  2   force =    -0.00000012   -0.00000007   -0.00006502
     atom    4 type  2   force =    -0.00000000   -0.00000000   -0.00006500
     atom    5 type  1   force =     0.00000004    0.00000004    0.00046411
     atom    6 type  1   force =    -0.00000020   -0.00000013    0.00046428
     atom    7 type  2   force =     0.00000007    0.00000004   -0.00006503
     atom    8 type  2   force =     0.00000001    0.00000001   -0.00006501
     atom    9 type  1   force =     0.00000005    0.00000004    0.00046451
     atom   10 type  1   force =     0.00000008    0.00000005    0.00046433
     atom   11 type  2   force =     0.00000006    0.00000004   -0.00006493
     atom   12 type  2   force =     0.00000008    0.00000005   -0.00006501
     The Hubbard contrib.    to forces
     atom    1 type  1   force =     0.00000000    0.00000000    0.00000000
     atom    2 type  1   force =     0.00000000    0.00000000    0.00000000
     atom    3 type  2   force =     0.00000000    0.00000000    0.00000000
     atom    4 type  2   force =     0.00000000    0.00000000    0.00000000
     atom    5 type  1   force =     0.00000000    0.00000000    0.00000000
     atom    6 type  1   force =     0.00000000    0.00000000    0.00000000
     atom    7 type  2   force =     0.00000000    0.00000000    0.00000000
     atom    8 type  2   force =     0.00000000    0.00000000    0.00000000
     atom    9 type  1   force =     0.00000000    0.00000000    0.00000000
     atom   10 type  1   force =     0.00000000    0.00000000    0.00000000
     atom   11 type  2   force =     0.00000000    0.00000000    0.00000000
     atom   12 type  2   force =     0.00000000    0.00000000    0.00000000
     The SCF correction term to forces
     atom    1 type  1   force =    -0.00002191   -0.00001265   -0.00000902
     atom    2 type  1   force =    -0.00001576   -0.00000910   -0.00001618
     atom    3 type  2   force =    -0.00000737   -0.00000425    0.00000030
     atom    4 type  2   force =    -0.00002157   -0.00001245   -0.00000170
     atom    5 type  1   force =    -0.00000579   -0.00000334   -0.00001703
     atom    6 type  1   force =    -0.00000906   -0.00000523   -0.00001462
     atom    7 type  2   force =    -0.00000455   -0.00000263    0.00000211
     atom    8 type  2   force =     0.00000056    0.00000032    0.00000663
     atom    9 type  1   force =     0.00002514    0.00001452   -0.00003893
     atom   10 type  1   force =     0.00001423    0.00000822   -0.00001667
     atom   11 type  2   force =     0.00000670    0.00000387    0.00000247
     atom   12 type  2   force =     0.00000673    0.00000389   -0.00000943

     Total force =     0.000193     Total SCF correction =     0.000077
     SCF correction compared to forces is large: reduce conv_thr to get better values

     General routines

     Parallel routines

   This run was terminated on:  16: 0:53  17Jul2025

   JOB DONE.
Note: The following floating-point exceptions are signalling: IEEE_INVALID_FLAG
Note: The following floating-point exceptions are signalling: IEEE_INVALID_FLAG