     Program PWSCF v.7.2 starts on  5Sep2025 at  6:47:14

     Reading input from /home/jvc/QEspresso7.2/ZnO_database/scripts/cell312.in/ZnO-3.20-1.65-312.in
Warning: card &CELL ignored
Warning: card / ignored
Warning: card &FCP ignored
Warning: card / ignored
Warning: card &RISM ignored
Warning: card / ignored

     Current dimensions of program PWSCF are:
     Max number of different atomic species (ntypx) = 10
     Max number of k-points (npk) =  40000
     Max angular momentum in pseudopotentials (lmaxx) =  4
     file Zn.upf: wavefunction(s)  3D renormalized
     Found identity + (  0.0000  0.0000  0.5000) symmetry
     This is a supercell, fractional translations are disabled
     Message from routine setup:
     using ibrav=0 with symmetry is DISCOURAGED, use correct ibrav instead

     K-points division:     npool     =       8
     R & G space division:  proc/nbgrp/npool/nimage =       8
     Subspace diagonalization in iterative solution of the eigenvalue problem:
     a serial algorithm will be used

     Using Slab Decomposition

     bravais-lattice index     =            0
     lattice parameter (alat)  =      18.1658  a.u.
     unit-cell volume          =    1899.6956 (a.u.)^3
     number of atoms/cell      =           24
     number of atomic types    =            2
     number of electrons       =       216.00
     number of Kohn-Sham states=          108
     kinetic-energy cutoff     =      50.0000  Ry
     charge density cutoff     =     400.0000  Ry
     scf convergence threshold =      1.0E-08
     mixing beta               =       0.3000
     number of iterations used =            8  plain     mixing
     Exchange-correlation= PBE
                           (   1   4   3   4   0   0   0)

     celldm(1)=  18.165831  celldm(2)=   0.000000  celldm(3)=   0.000000
     celldm(4)=   0.000000  celldm(5)=   0.000000  celldm(6)=   0.000000

     crystal axes: (cart. coord. in units of alat)
               a(1) = (   1.000000   0.000000   0.000000 )
               a(2) = (  -0.166667   0.288675   0.000000 )
               a(3) = (   0.000000   0.000000   1.097764 )

     reciprocal axes: (cart. coord. in units 2 pi/alat)
               b(1) = (  1.000000  0.577350 -0.000000 )
               b(2) = (  0.000000  3.464102  0.000000 )
               b(3) = (  0.000000 -0.000000  0.910943 )

     PseudoPot. # 1 for Zn read from file:
     /home/jvc/QEspresso7.2/ZnO_database/pseudos/Zn.upf
     MD5 check sum: 7f56cabf9682ed8c977c2f7d0c5985c5
     Pseudo is Ultrasoft + core correction, Zval = 12.0
     Generated using &quot;atomic&quot; code by A. Dal Corso  v.6.2.2
     Using radial grid of 1201 points,  6 beta functions with:
                l(1) =   0
                l(2) =   0
                l(3) =   1
                l(4) =   1
                l(5) =   2
                l(6) =   2
     Q(r) pseudized with 0 coefficients

     PseudoPot. # 2 for O  read from file:
     /home/jvc/QEspresso7.2/ZnO_database/pseudos/O.upf
     MD5 check sum: 91400c9766925bcf19f520983a725ff0
     Pseudo is Ultrasoft + core correction, Zval =  6.0
     Generated using &quot;atomic&quot; code by A. Dal Corso  v.6.3MaX
     Using radial grid of 1095 points,  4 beta functions with:
                l(1) =   0
                l(2) =   0
                l(3) =   1
                l(4) =   1
     Q(r) pseudized with 0 coefficients

     atomic species   valence    mass     pseudopotential
        Zn            12.00    65.38000     Zn( 1.00)
        O              6.00    15.99900     O ( 1.00)

      2 Sym. Ops. (no inversion) found

                                    s                        frac. trans.

      isym =  1     identity

 cryst.   s( 1) = (     1          0          0      )
                  (     0          1          0      )
                  (     0          0          1      )

 cart.    s( 1) = (  1.0000000  0.0000000  0.0000000 )
                  (  0.0000000  1.0000000  0.0000000 )
                  (  0.0000000  0.0000000  1.0000000 )

      isym =  2     inv. 180 deg rotation - cryst. axis [0,1,0]

 cryst.   s( 2) = (     1          3          0      )
                  (     0         -1          0      )
                  (     0          0          1      )

 cart.    s( 2) = (  0.5000000  0.8660254  0.0000000 )
                  (  0.8660254 -0.5000000  0.0000000 )
                  (  0.0000000  0.0000000  1.0000000 )

   Cartesian axes

     site n.     atom                  positions (alat units)
         1           Zn  tau(   1) = (   0.1666667   0.0962250   0.2747887  )
         2           Zn  tau(   2) = (  -0.0000000   0.1924501   0.0003478  )
         3           O   tau(   3) = (   0.1666667   0.0962250   0.4828384  )
         4           O   tau(   4) = (  -0.0000000   0.1924501   0.2083975  )
         5           Zn  tau(   5) = (   0.1666667   0.0962250   0.8236705  )
         6           Zn  tau(   6) = (  -0.0000000   0.1924501   0.5492296  )
         7           O   tau(   7) = (   0.1666667   0.0962250   1.0317203  )
         8           O   tau(   8) = (  -0.0000000   0.1924501   0.7572793  )
         9           Zn  tau(   9) = (   0.5000000   0.0962250   0.2747887  )
        10           Zn  tau(  10) = (   0.3333333   0.1924501   0.0003478  )
        11           O   tau(  11) = (   0.5000000   0.0962250   0.4828384  )
        12           O   tau(  12) = (   0.3333333   0.1924501   0.2083975  )
        13           Zn  tau(  13) = (   0.5000000   0.0962250   0.8236705  )
        14           Zn  tau(  14) = (   0.3333333   0.1924501   0.5492296  )
        15           O   tau(  15) = (   0.5000000   0.0962250   1.0317203  )
        16           O   tau(  16) = (   0.3333333   0.1924501   0.7572793  )
        17           Zn  tau(  17) = (   0.8333333   0.0962250   0.2747887  )
        18           Zn  tau(  18) = (   0.6666667   0.1924501   0.0003478  )
        19           O   tau(  19) = (   0.8333333   0.0962250   0.4828384  )
        20           O   tau(  20) = (   0.6666667   0.1924501   0.2083975  )
        21           Zn  tau(  21) = (   0.8333333   0.0962250   0.8236705  )
        22           Zn  tau(  22) = (   0.6666667   0.1924501   0.5492296  )
        23           O   tau(  23) = (   0.8333333   0.0962250   1.0317203  )
        24           O   tau(  24) = (   0.6666667   0.1924501   0.7572793  )

   Crystallographic axes

     site n.     atom                  positions (cryst. coord.)
         1           Zn  tau(   1) = (  0.2222222  0.3333333  0.2503168  )
         2           Zn  tau(   2) = (  0.1111111  0.6666667  0.0003168  )
         3           O   tau(   3) = (  0.2222222  0.3333333  0.4398382  )
         4           O   tau(   4) = (  0.1111111  0.6666667  0.1898382  )
         5           Zn  tau(   5) = (  0.2222222  0.3333333  0.7503168  )
         6           Zn  tau(   6) = (  0.1111111  0.6666667  0.5003168  )
         7           O   tau(   7) = (  0.2222222  0.3333333  0.9398382  )
         8           O   tau(   8) = (  0.1111111  0.6666667  0.6898382  )
         9           Zn  tau(   9) = (  0.5555556  0.3333333  0.2503168  )
        10           Zn  tau(  10) = (  0.4444444  0.6666667  0.0003168  )
        11           O   tau(  11) = (  0.5555556  0.3333333  0.4398382  )
        12           O   tau(  12) = (  0.4444444  0.6666667  0.1898382  )
        13           Zn  tau(  13) = (  0.5555556  0.3333333  0.7503168  )
        14           Zn  tau(  14) = (  0.4444444  0.6666667  0.5003168  )
        15           O   tau(  15) = (  0.5555556  0.3333333  0.9398382  )
        16           O   tau(  16) = (  0.4444444  0.6666667  0.6898382  )
        17           Zn  tau(  17) = (  0.8888889  0.3333333  0.2503168  )
        18           Zn  tau(  18) = (  0.7777778  0.6666667  0.0003168  )
        19           O   tau(  19) = (  0.8888889  0.3333333  0.4398382  )
        20           O   tau(  20) = (  0.7777778  0.6666667  0.1898382  )
        21           Zn  tau(  21) = (  0.8888889  0.3333333  0.7503168  )
        22           Zn  tau(  22) = (  0.7777778  0.6666667  0.5003168  )
        23           O   tau(  23) = (  0.8888889  0.3333333  0.9398382  )
        24           O   tau(  24) = (  0.7777778  0.6666667  0.6898382  )

     number of k points=    68
                       cart. coord. in units 2pi/alat
        k(    1) = (   0.0000000   0.0000000   0.0000000), wk =   0.0092593
        k(    2) = (   0.0000000   0.0000000   0.1518238), wk =   0.0185185
        k(    3) = (   0.0000000   0.0000000   0.3036476), wk =   0.0185185
        k(    4) = (   0.0000000   0.0000000  -0.4554714), wk =   0.0092593
        k(    5) = (   0.0000000   0.5773503   0.0000000), wk =   0.0370370
        k(    6) = (   0.0000000   0.5773503   0.1518238), wk =   0.0370370
        k(    7) = (   0.0000000   0.5773503   0.3036476), wk =   0.0370370
        k(    8) = (   0.0000000   0.5773503  -0.4554714), wk =   0.0370370
        k(    9) = (   0.0000000   1.1547005   0.0000000), wk =   0.0185185
        k(   10) = (   0.0000000   1.1547005   0.1518238), wk =   0.0370370
        k(   11) = (   0.0000000   1.1547005   0.3036476), wk =   0.0370370
        k(   12) = (   0.0000000   1.1547005  -0.4554714), wk =   0.0185185
        k(   13) = (   0.0000000  -1.7320508   0.0000000), wk =   0.0185185
        k(   14) = (   0.0000000  -1.7320508   0.1518238), wk =   0.0370370
        k(   15) = (   0.0000000  -1.7320508   0.3036476), wk =   0.0370370
        k(   16) = (   0.0000000  -1.7320508  -0.4554714), wk =   0.0185185
        k(   17) = (   0.1666667   0.0962250   0.0000000), wk =   0.0185185
        k(   18) = (   0.1666667   0.0962250   0.1518238), wk =   0.0185185
        k(   19) = (   0.1666667   0.0962250   0.3036476), wk =   0.0185185
        k(   20) = (   0.1666667   0.0962250  -0.4554714), wk =   0.0185185
        k(   21) = (   0.1666667   0.6735753   0.0000000), wk =   0.0370370
        k(   22) = (   0.1666667   0.6735753   0.1518238), wk =   0.0370370
        k(   23) = (   0.1666667   0.6735753   0.3036476), wk =   0.0370370
        k(   24) = (   0.1666667   0.6735753  -0.4554714), wk =   0.0370370
        k(   25) = (   0.1666667   1.2509256   0.0000000), wk =   0.0370370
        k(   26) = (   0.1666667   1.2509256   0.1518238), wk =   0.0370370
        k(   27) = (   0.1666667   1.2509256   0.3036476), wk =   0.0370370
        k(   28) = (   0.1666667   1.2509256  -0.4554714), wk =   0.0370370
        k(   29) = (   0.1666667  -1.6358258   0.0000000), wk =   0.0370370
        k(   30) = (   0.1666667  -1.6358258   0.1518238), wk =   0.0370370
        k(   31) = (   0.1666667  -1.6358258   0.3036476), wk =   0.0370370
        k(   32) = (   0.1666667  -1.6358258  -0.4554714), wk =   0.0370370
        k(   33) = (   0.1666667  -0.4811252   0.0000000), wk =   0.0370370
        k(   34) = (   0.1666667  -0.4811252   0.1518238), wk =   0.0370370
        k(   35) = (   0.1666667  -0.4811252   0.3036476), wk =   0.0370370
        k(   36) = (   0.1666667  -0.4811252  -0.4554714), wk =   0.0370370
        k(   37) = (   0.3333333   0.1924501   0.0000000), wk =   0.0185185
[...]
     1.0000   1.0000   1.0000   1.0000   1.0000   1.0000   1.0000   1.0000
     1.0000   1.0000   1.0000   1.0000

[...]

          k =-0.5000-0.2887 0.0000 ( 11342 PWs)   bands (ev):

[...]

          k =-0.3333 0.3849-0.3036 ( 11314 PWs)   bands (ev):

[...]

          k = 1.3333-0.3849-0.3036 ( 11334 PWs)   bands (ev):

   -10.2691 -10.1835 -10.0599 -10.0027  -9.9501  -9.9269  -9.8943  -9.8653
    -9.8539  -9.8163  -9.8026  -9.7921   1.3678   1.3684   1.4303   1.4371
     1.4781   1.4790   1.5774   1.6282   1.6599   1.6659   1.6673   1.8384
     1.9153   1.9419   1.9611   1.9738   1.9951   2.0137   2.0217   2.0292
     2.1276   2.1368   2.1683   2.1808   2.2023   2.2089   2.2283   2.2506
     2.2834   2.3215   2.3902   2.4187   2.4211   2.4305   2.4957   2.5292
     2.8903   2.9402   2.9436   2.9941   3.0152   3.0268   3.0336   3.0609
     3.0659   3.0825   3.0933   3.1256   3.1553   3.1881   3.2015   3.2169
     3.2222   3.2528   3.3038   3.3058   3.3060   3.3728   3.4001   3.4514
     3.6707   3.6981   3.7079   3.9023   3.9054   4.0027   4.1204   4.2641
     4.2778   4.3427   4.4008   4.6879   4.8755   4.9319   4.9672   5.2303
     5.2667   5.3182   5.3448   5.4656   5.4694   5.5841   5.7942   5.7961
     5.8533   5.9687   6.1475   6.1813   6.2526   6.3698   6.4211   6.5048
     6.5409   6.6094   6.7664   6.8084

     occupation numbers
     1.0000   1.0000   1.0000   1.0000   1.0000   1.0000   1.0000   1.0000
     1.0000   1.0000   1.0000   1.0000   1.0000   1.0000   1.0000   1.0000
     1.0000   1.0000   1.0000   1.0000   1.0000   1.0000   1.0000   1.0000
     1.0000   1.0000   1.0000   1.0000   1.0000   1.0000   1.0000   1.0000
     1.0000   1.0000   1.0000   1.0000   1.0000   1.0000   1.0000   1.0000
     1.0000   1.0000   1.0000   1.0000   1.0000   1.0000   1.0000   1.0000
     1.0000   1.0000   1.0000   1.0000   1.0000   1.0000   1.0000   1.0000
     1.0000   1.0000   1.0000   1.0000   1.0000   1.0000   1.0000   1.0000
     1.0000   1.0000   1.0000   1.0000   1.0000   1.0000   1.0000   1.0000
     1.0000   1.0000   1.0000   1.0000   1.0000   1.0000   1.0000   1.0000
     1.0000   1.0000   1.0000   1.0000   1.0000   1.0000   1.0000   1.0000
     1.0000   1.0000   1.0000   1.0000   1.0000   1.0000   1.0000   1.0000
     1.0000   1.0000   1.0000   1.0000   1.0000   1.0000   1.0000   1.0000
     1.0000   1.0000   1.0000   1.0000

     highest occupied level (ev):     7.5202

!    total energy              =   -2169.79521768 Ry
     estimated scf accuracy    <          2.5E-11 Ry

     The total energy is the sum of the following terms:
     one-electron contribution =    -898.75345854 Ry
     hartree contribution      =     699.64429077 Ry
     xc contribution           =    -657.78429462 Ry
     ewald contribution        =   -1312.90175529 Ry

     convergence has been achieved in  34 iterations

     Forces acting on atoms (cartesian axes, Ry/au):

     atom    1 type  1   force =     0.00000683    0.00000394    0.00736668
     atom    2 type  1   force =    -0.00000669   -0.00000386    0.00736532
     atom    3 type  2   force =    -0.00000249   -0.00000144   -0.00736616
     atom    4 type  2   force =     0.00000264    0.00000152   -0.00736623
     atom    5 type  1   force =     0.00000788    0.00000455    0.00736754
     atom    6 type  1   force =    -0.00000642   -0.00000371    0.00736601
     atom    7 type  2   force =    -0.00000274   -0.00000158   -0.00736674
     atom    8 type  2   force =     0.00000292    0.00000168   -0.00736605
     atom    9 type  1   force =     0.00000682    0.00000394    0.00736651
     atom   10 type  1   force =    -0.00000694   -0.00000401    0.00736497
     atom   11 type  2   force =    -0.00000283   -0.00000164   -0.00736609
     atom   12 type  2   force =     0.00000257    0.00000148   -0.00736622
     atom   13 type  1   force =     0.00000683    0.00000395    0.00736723
     atom   14 type  1   force =    -0.00000790   -0.00000456    0.00736686
     atom   15 type  2   force =    -0.00000266   -0.00000153   -0.00736681
     atom   16 type  2   force =     0.00000240    0.00000138   -0.00736651
     atom   17 type  1   force =     0.00000749    0.00000433    0.00736625
     atom   18 type  1   force =    -0.00000773   -0.00000446    0.00736495
     atom   19 type  2   force =    -0.00000261   -0.00000151   -0.00736635
     atom   20 type  2   force =     0.00000269    0.00000155   -0.00736650
     atom   21 type  1   force =     0.00000701    0.00000405    0.00736783
     atom   22 type  1   force =    -0.00000687   -0.00000397    0.00736630
     atom   23 type  2   force =    -0.00000257   -0.00000149   -0.00736665
     atom   24 type  2   force =     0.00000237    0.00000137   -0.00736613
     The non-local contrib.  to forces
     atom    1 type  1   force =    -0.00001667   -0.00000963    0.05222421
     atom    2 type  1   force =     0.00001680    0.00000970    0.05222461
     atom    3 type  2   force =    -0.00018900   -0.00010912    0.05259058
     atom    4 type  2   force =     0.00018901    0.00010913    0.05259062
     atom    5 type  1   force =    -0.00001651   -0.00000953    0.05222478
     atom    6 type  1   force =     0.00001655    0.00000955    0.05222501
     atom    7 type  2   force =    -0.00018902   -0.00010913    0.05259087
     atom    8 type  2   force =     0.00018903    0.00010914    0.05259060
     atom    9 type  1   force =    -0.00001663   -0.00000960    0.05222437
     atom   10 type  1   force =     0.00001655    0.00000955    0.05222469
     atom   11 type  2   force =    -0.00018910   -0.00010918    0.05259057
     atom   12 type  2   force =     0.00018904    0.00010914    0.05259079
     atom   13 type  1   force =    -0.00001643   -0.00000949    0.05222459
     atom   14 type  1   force =     0.00001652    0.00000954    0.05222462
     atom   15 type  2   force =    -0.00018891   -0.00010907    0.05259066
     atom   16 type  2   force =     0.00018893    0.00010908    0.05259056
     atom   17 type  1   force =    -0.00001645   -0.00000950    0.05222445
     atom   18 type  1   force =     0.00001642    0.00000948    0.05222458
     atom   19 type  2   force =    -0.00018897   -0.00010910    0.05259045
     atom   20 type  2   force =     0.00018876    0.00010898    0.05259045
     atom   21 type  1   force =    -0.00001674   -0.00000967    0.05222448
     atom   22 type  1   force =     0.00001656    0.00000956    0.05222495
     atom   23 type  2   force =    -0.00018895   -0.00010909    0.05259094
     atom   24 type  2   force =     0.00018884    0.00010902    0.05259077
     The ionic contribution  to forces
     atom    1 type  1   force =     0.00000001    0.00000001    0.48421523
     atom    2 type  1   force =     0.00000001    0.00000000    0.48421523
     atom    3 type  2   force =     0.00000000    0.00000000   -0.48421523
     atom    4 type  2   force =     0.00000000    0.00000000   -0.48421523
     atom    5 type  1   force =     0.00000001    0.00000001    0.48421523
     atom    6 type  1   force =     0.00000001    0.00000000    0.48421523
     atom    7 type  2   force =     0.00000000    0.00000000   -0.48421523
     atom    8 type  2   force =     0.00000000    0.00000000   -0.48421523
     atom    9 type  1   force =    -0.00000001    0.00000000    0.48421523
     atom   10 type  1   force =     0.00000001   -0.00000000    0.48421523
     atom   11 type  2   force =    -0.00000001    0.00000000   -0.48421523
     atom   12 type  2   force =     0.00000001   -0.00000000   -0.48421523
     atom   13 type  1   force =    -0.00000001    0.00000000    0.48421523
     atom   14 type  1   force =     0.00000001   -0.00000000    0.48421523
     atom   15 type  2   force =    -0.00000001    0.00000000   -0.48421523
     atom   16 type  2   force =     0.00000001   -0.00000000   -0.48421523
     atom   17 type  1   force =    -0.00000001   -0.00000000    0.48421523
     atom   18 type  1   force =    -0.00000001   -0.00000001    0.48421523
     atom   19 type  2   force =    -0.00000000   -0.00000000   -0.48421523
     atom   20 type  2   force =    -0.00000000   -0.00000000   -0.48421523
     atom   21 type  1   force =    -0.00000001   -0.00000000    0.48421523
     atom   22 type  1   force =    -0.00000001   -0.00000001    0.48421523
     atom   23 type  2   force =    -0.00000000   -0.00000000   -0.48421523
     atom   24 type  2   force =    -0.00000000   -0.00000000   -0.48421523
     The local contribution  to forces
     atom    1 type  1   force =     0.00003039    0.00001754   -0.52528366
     atom    2 type  1   force =    -0.00003058   -0.00001770   -0.52528303
     atom    3 type  2   force =     0.00018497    0.00010679    0.42467775
     atom    4 type  2   force =    -0.00018521   -0.00010695    0.42467825
     atom    5 type  1   force =     0.00002935    0.00001695   -0.52528462
     atom    6 type  1   force =    -0.00003055   -0.00001769   -0.52528341
     atom    7 type  2   force =     0.00018481    0.00010670    0.42467869
     atom    8 type  2   force =    -0.00018572   -0.00010724    0.42467786
     atom    9 type  1   force =     0.00003036    0.00001762   -0.52528356
     atom   10 type  1   force =    -0.00003020   -0.00001753   -0.52528297
     atom   11 type  2   force =     0.00018552    0.00010714    0.42467779
     atom   12 type  2   force =    -0.00018502   -0.00010684    0.42467809
     atom   13 type  1   force =     0.00003055    0.00001773   -0.52528426
     atom   14 type  1   force =    -0.00002957   -0.00001717   -0.52528384
     atom   15 type  2   force =     0.00018448    0.00010653    0.42467890
     atom   16 type  2   force =    -0.00018459   -0.00010660    0.42467790
     atom   17 type  1   force =     0.00002981    0.00001726   -0.52528359
     atom   18 type  1   force =    -0.00002970   -0.00001715   -0.52528282
     atom   19 type  2   force =     0.00018481    0.00010671    0.42467794
     atom   20 type  2   force =    -0.00018473   -0.00010665    0.42467841
     atom   21 type  1   force =     0.00003037    0.00001758   -0.52528461
     atom   22 type  1   force =    -0.00003019   -0.00001743   -0.52528363
     atom   23 type  2   force =     0.00018501    0.00010683    0.42467789
     atom   24 type  2   force =    -0.00018435   -0.00010644    0.42467815
     The core correction contribution to forces
     atom    1 type  1   force =    -0.00000610   -0.00000352   -0.00379206
     atom    2 type  1   force =     0.00000610    0.00000352   -0.00379208
     atom    3 type  2   force =     0.00000216    0.00000124   -0.00042070
     atom    4 type  2   force =    -0.00000216   -0.00000125   -0.00042070
     atom    5 type  1   force =    -0.00000609   -0.00000352   -0.00379208
     atom    6 type  1   force =     0.00000611    0.00000352   -0.00379212
     atom    7 type  2   force =     0.00000216    0.00000124   -0.00042070
     atom    8 type  2   force =    -0.00000216   -0.00000125   -0.00042070
     atom    9 type  1   force =    -0.00000611   -0.00000351   -0.00379207
     atom   10 type  1   force =     0.00000611    0.00000352   -0.00379209
     atom   11 type  2   force =     0.00000216    0.00000125   -0.00042070
     atom   12 type  2   force =    -0.00000216   -0.00000124   -0.00042071
     atom   13 type  1   force =    -0.00000613   -0.00000353   -0.00379208
     atom   14 type  1   force =     0.00000611    0.00000351   -0.00379209
     atom   15 type  2   force =     0.00000215    0.00000124   -0.00042070
     atom   16 type  2   force =    -0.00000215   -0.00000124   -0.00042070
     atom   17 type  1   force =    -0.00000611   -0.00000352   -0.00379208
     atom   18 type  1   force =     0.00000611    0.00000353   -0.00379208
     atom   19 type  2   force =     0.00000215    0.00000124   -0.00042070
     atom   20 type  2   force =    -0.00000215   -0.00000124   -0.00042070
     atom   21 type  1   force =    -0.00000610   -0.00000352   -0.00379207
     atom   22 type  1   force =     0.00000610    0.00000352   -0.00379211
     atom   23 type  2   force =     0.00000215    0.00000124   -0.00042071
     atom   24 type  2   force =    -0.00000215   -0.00000124   -0.00042070
     The Hubbard contrib.    to forces
     atom    1 type  1   force =     0.00000000    0.00000000    0.00000000
     atom    2 type  1   force =     0.00000000    0.00000000    0.00000000
     atom    3 type  2   force =     0.00000000    0.00000000    0.00000000
     atom    4 type  2   force =     0.00000000    0.00000000    0.00000000
     atom    5 type  1   force =     0.00000000    0.00000000    0.00000000
     atom    6 type  1   force =     0.00000000    0.00000000    0.00000000
     atom    7 type  2   force =     0.00000000    0.00000000    0.00000000
     atom    8 type  2   force =     0.00000000    0.00000000    0.00000000
     atom    9 type  1   force =     0.00000000    0.00000000    0.00000000
     atom   10 type  1   force =     0.00000000    0.00000000    0.00000000
     atom   11 type  2   force =     0.00000000    0.00000000    0.00000000
     atom   12 type  2   force =     0.00000000    0.00000000    0.00000000
     atom   13 type  1   force =     0.00000000    0.00000000    0.00000000
     atom   14 type  1   force =     0.00000000    0.00000000    0.00000000
     atom   15 type  2   force =     0.00000000    0.00000000    0.00000000
     atom   16 type  2   force =     0.00000000    0.00000000    0.00000000
     atom   17 type  1   force =     0.00000000    0.00000000    0.00000000
     atom   18 type  1   force =     0.00000000    0.00000000    0.00000000
     atom   19 type  2   force =     0.00000000    0.00000000    0.00000000
     atom   20 type  2   force =     0.00000000    0.00000000    0.00000000
     atom   21 type  1   force =     0.00000000    0.00000000    0.00000000
     atom   22 type  1   force =     0.00000000    0.00000000    0.00000000
     atom   23 type  2   force =     0.00000000    0.00000000    0.00000000
     atom   24 type  2   force =     0.00000000    0.00000000    0.00000000
     The SCF correction term to forces
     atom    1 type  1   force =    -0.00000080   -0.00000046    0.00000185
     atom    2 type  1   force =     0.00000098    0.00000056   -0.00000052
     atom    3 type  2   force =    -0.00000063   -0.00000036    0.00000034
     atom    4 type  2   force =     0.00000099    0.00000057   -0.00000028
     atom    5 type  1   force =     0.00000111    0.00000064    0.00000311
     atom    6 type  1   force =     0.00000147    0.00000085    0.00000019
     atom    7 type  2   force =    -0.00000070   -0.00000041   -0.00000146
     atom    8 type  2   force =     0.00000176    0.00000101    0.00000033
     atom    9 type  1   force =    -0.00000085   -0.00000049    0.00000144
     atom   10 type  1   force =     0.00000063    0.00000036   -0.00000100
     atom   11 type  2   force =    -0.00000143   -0.00000083    0.00000037
     atom   12 type  2   force =     0.00000070    0.00000040   -0.00000027
     atom   13 type  1   force =    -0.00000120   -0.00000069    0.00000264
     atom   14 type  1   force =    -0.00000093   -0.00000054    0.00000182
     atom   15 type  2   force =    -0.00000039   -0.00000023   -0.00000155
     atom   16 type  2   force =     0.00000020    0.00000012   -0.00000014
     atom   17 type  1   force =     0.00000021    0.00000012    0.00000112
     atom   18 type  1   force =    -0.00000056   -0.00000032   -0.00000106
     atom   19 type  2   force =    -0.00000061   -0.00000035    0.00000009
     atom   20 type  2   force =     0.00000080    0.00000046   -0.00000052
     atom   21 type  1   force =    -0.00000054   -0.00000031    0.00000370
     atom   22 type  1   force =     0.00000066    0.00000038    0.00000074
     atom   23 type  2   force =    -0.00000080   -0.00000046   -0.00000065
     atom   24 type  2   force =     0.00000003    0.00000002   -0.00000021

     Total force =     0.036088     Total SCF correction =     0.000009

     General routines

     Parallel routines

   This run was terminated on:   7: 7: 4   5Sep2025

   JOB DONE.
Note: The following floating-point exceptions are signalling: IEEE_INVALID_FLAG
Note: The following floating-point exceptions are signalling: IEEE_INVALID_FLAG
Note: The following floating-point exceptions are signalling: IEEE_INVALID_FLAG
Note: The following floating-point exceptions are signalling: IEEE_INVALID_FLAG
Note: The following floating-point exceptions are signalling: IEEE_INVALID_FLAG
Note: The following floating-point exceptions are signalling: IEEE_INVALID_FLAG
Note: The following floating-point exceptions are signalling: IEEE_INVALID_FLAG
Note: The following floating-point exceptions are signalling: IEEE_INVALID_FLAG