     Program PWSCF v.7.2 starts on  5Sep2025 at  8: 0:37

     Reading input from /home/jvc/QEspresso7.2/ZnO_database/scripts/cell312.in/ZnO-3.20-1.78-312.in
Warning: card &CELL ignored
Warning: card / ignored
Warning: card &FCP ignored
Warning: card / ignored
Warning: card &RISM ignored
Warning: card / ignored

     Current dimensions of program PWSCF are:
     Max number of different atomic species (ntypx) = 10
     Max number of k-points (npk) =  40000
     Max angular momentum in pseudopotentials (lmaxx) =  4
     file Zn.upf: wavefunction(s)  3D renormalized
     Found identity + (  0.0000  0.0000  0.5000) symmetry
     This is a supercell, fractional translations are disabled
     Message from routine setup:
     using ibrav=0 with symmetry is DISCOURAGED, use correct ibrav instead

     K-points division:     npool     =       8
     R & G space division:  proc/nbgrp/npool/nimage =       8
     Subspace diagonalization in iterative solution of the eigenvalue problem:
     a serial algorithm will be used

     Using Slab Decomposition

     bravais-lattice index     =            0
     lattice parameter (alat)  =      18.1658  a.u.
     unit-cell volume          =    2048.6914 (a.u.)^3
     number of atoms/cell      =           24
     number of atomic types    =            2
     number of electrons       =       216.00
     number of Kohn-Sham states=          108
     kinetic-energy cutoff     =      50.0000  Ry
     charge density cutoff     =     400.0000  Ry
     scf convergence threshold =      1.0E-08
     mixing beta               =       0.3000
     number of iterations used =            8  plain     mixing
     Exchange-correlation= PBE
                           (   1   4   3   4   0   0   0)

     celldm(1)=  18.165831  celldm(2)=   0.000000  celldm(3)=   0.000000
     celldm(4)=   0.000000  celldm(5)=   0.000000  celldm(6)=   0.000000

     crystal axes: (cart. coord. in units of alat)
               a(1) = (   1.000000   0.000000   0.000000 )
               a(2) = (  -0.166667   0.288675   0.000000 )
               a(3) = (   0.000000   0.000000   1.183863 )

     reciprocal axes: (cart. coord. in units 2 pi/alat)
               b(1) = (  1.000000  0.577350 -0.000000 )
               b(2) = (  0.000000  3.464102  0.000000 )
               b(3) = (  0.000000 -0.000000  0.844692 )

     PseudoPot. # 1 for Zn read from file:
     /home/jvc/QEspresso7.2/ZnO_database/pseudos/Zn.upf
     MD5 check sum: 7f56cabf9682ed8c977c2f7d0c5985c5
     Pseudo is Ultrasoft + core correction, Zval = 12.0
     Generated using &quot;atomic&quot; code by A. Dal Corso  v.6.2.2
     Using radial grid of 1201 points,  6 beta functions with:
                l(1) =   0
                l(2) =   0
                l(3) =   1
                l(4) =   1
                l(5) =   2
                l(6) =   2
     Q(r) pseudized with 0 coefficients

     PseudoPot. # 2 for O  read from file:
     /home/jvc/QEspresso7.2/ZnO_database/pseudos/O.upf
     MD5 check sum: 91400c9766925bcf19f520983a725ff0
     Pseudo is Ultrasoft + core correction, Zval =  6.0
     Generated using &quot;atomic&quot; code by A. Dal Corso  v.6.3MaX
     Using radial grid of 1095 points,  4 beta functions with:
                l(1) =   0
                l(2) =   0
                l(3) =   1
                l(4) =   1
     Q(r) pseudized with 0 coefficients

     atomic species   valence    mass     pseudopotential
        Zn            12.00    65.38000     Zn( 1.00)
        O              6.00    15.99900     O ( 1.00)

      2 Sym. Ops. (no inversion) found

                                    s                        frac. trans.

      isym =  1     identity

 cryst.   s( 1) = (     1          0          0      )
                  (     0          1          0      )
                  (     0          0          1      )

 cart.    s( 1) = (  1.0000000  0.0000000  0.0000000 )
                  (  0.0000000  1.0000000  0.0000000 )
                  (  0.0000000  0.0000000  1.0000000 )

      isym =  2     inv. 180 deg rotation - cryst. axis [0,1,0]

 cryst.   s( 2) = (     1          3          0      )
                  (     0         -1          0      )
                  (     0          0          1      )

 cart.    s( 2) = (  0.5000000  0.8660254  0.0000000 )
                  (  0.8660254 -0.5000000  0.0000000 )
                  (  0.0000000  0.0000000  1.0000000 )

   Cartesian axes

     site n.     atom                  positions (alat units)
         1           Zn  tau(   1) = (   0.1666667   0.0962250   0.2963407  )
         2           Zn  tau(   2) = (  -0.0000000   0.1924501   0.0003750  )
         3           O   tau(   3) = (   0.1666667   0.0962250   0.5207081  )
         4           O   tau(   4) = (  -0.0000000   0.1924501   0.2247424  )
         5           Zn  tau(   5) = (   0.1666667   0.0962250   0.8882721  )
         6           Zn  tau(   6) = (  -0.0000000   0.1924501   0.5923064  )
         7           O   tau(   7) = (   0.1666667   0.0962250   1.1126395  )
         8           O   tau(   8) = (  -0.0000000   0.1924501   0.8166738  )
         9           Zn  tau(   9) = (   0.5000000   0.0962250   0.2963407  )
        10           Zn  tau(  10) = (   0.3333333   0.1924501   0.0003750  )
        11           O   tau(  11) = (   0.5000000   0.0962250   0.5207081  )
        12           O   tau(  12) = (   0.3333333   0.1924501   0.2247424  )
        13           Zn  tau(  13) = (   0.5000000   0.0962250   0.8882721  )
        14           Zn  tau(  14) = (   0.3333333   0.1924501   0.5923064  )
        15           O   tau(  15) = (   0.5000000   0.0962250   1.1126395  )
        16           O   tau(  16) = (   0.3333333   0.1924501   0.8166738  )
        17           Zn  tau(  17) = (   0.8333333   0.0962250   0.2963407  )
        18           Zn  tau(  18) = (   0.6666667   0.1924501   0.0003750  )
        19           O   tau(  19) = (   0.8333333   0.0962250   0.5207081  )
        20           O   tau(  20) = (   0.6666667   0.1924501   0.2247424  )
        21           Zn  tau(  21) = (   0.8333333   0.0962250   0.8882721  )
        22           Zn  tau(  22) = (   0.6666667   0.1924501   0.5923064  )
        23           O   tau(  23) = (   0.8333333   0.0962250   1.1126395  )
        24           O   tau(  24) = (   0.6666667   0.1924501   0.8166738  )

   Crystallographic axes

     site n.     atom                  positions (cryst. coord.)
         1           Zn  tau(   1) = (  0.2222222  0.3333333  0.2503168  )
         2           Zn  tau(   2) = (  0.1111111  0.6666667  0.0003168  )
         3           O   tau(   3) = (  0.2222222  0.3333333  0.4398382  )
         4           O   tau(   4) = (  0.1111111  0.6666667  0.1898382  )
         5           Zn  tau(   5) = (  0.2222222  0.3333333  0.7503168  )
         6           Zn  tau(   6) = (  0.1111111  0.6666667  0.5003168  )
         7           O   tau(   7) = (  0.2222222  0.3333333  0.9398382  )
         8           O   tau(   8) = (  0.1111111  0.6666667  0.6898382  )
         9           Zn  tau(   9) = (  0.5555556  0.3333333  0.2503168  )
        10           Zn  tau(  10) = (  0.4444444  0.6666667  0.0003168  )
        11           O   tau(  11) = (  0.5555556  0.3333333  0.4398382  )
        12           O   tau(  12) = (  0.4444444  0.6666667  0.1898382  )
        13           Zn  tau(  13) = (  0.5555556  0.3333333  0.7503168  )
        14           Zn  tau(  14) = (  0.4444444  0.6666667  0.5003168  )
        15           O   tau(  15) = (  0.5555556  0.3333333  0.9398382  )
        16           O   tau(  16) = (  0.4444444  0.6666667  0.6898382  )
        17           Zn  tau(  17) = (  0.8888889  0.3333333  0.2503168  )
        18           Zn  tau(  18) = (  0.7777778  0.6666667  0.0003168  )
        19           O   tau(  19) = (  0.8888889  0.3333333  0.4398382  )
        20           O   tau(  20) = (  0.7777778  0.6666667  0.1898382  )
        21           Zn  tau(  21) = (  0.8888889  0.3333333  0.7503168  )
        22           Zn  tau(  22) = (  0.7777778  0.6666667  0.5003168  )
        23           O   tau(  23) = (  0.8888889  0.3333333  0.9398382  )
        24           O   tau(  24) = (  0.7777778  0.6666667  0.6898382  )

     number of k points=    68
                       cart. coord. in units 2pi/alat
        k(    1) = (   0.0000000   0.0000000   0.0000000), wk =   0.0092593
        k(    2) = (   0.0000000   0.0000000   0.1407821), wk =   0.0185185
        k(    3) = (   0.0000000   0.0000000   0.2815642), wk =   0.0185185
        k(    4) = (   0.0000000   0.0000000  -0.4223462), wk =   0.0092593
        k(    5) = (   0.0000000   0.5773503   0.0000000), wk =   0.0370370
        k(    6) = (   0.0000000   0.5773503   0.1407821), wk =   0.0370370
        k(    7) = (   0.0000000   0.5773503   0.2815642), wk =   0.0370370
        k(    8) = (   0.0000000   0.5773503  -0.4223462), wk =   0.0370370
        k(    9) = (   0.0000000   1.1547005   0.0000000), wk =   0.0185185
        k(   10) = (   0.0000000   1.1547005   0.1407821), wk =   0.0370370
        k(   11) = (   0.0000000   1.1547005   0.2815642), wk =   0.0370370
        k(   12) = (   0.0000000   1.1547005  -0.4223462), wk =   0.0185185
        k(   13) = (   0.0000000  -1.7320508   0.0000000), wk =   0.0185185
        k(   14) = (   0.0000000  -1.7320508   0.1407821), wk =   0.0370370
        k(   15) = (   0.0000000  -1.7320508   0.2815642), wk =   0.0370370
        k(   16) = (   0.0000000  -1.7320508  -0.4223462), wk =   0.0185185
        k(   17) = (   0.1666667   0.0962250   0.0000000), wk =   0.0185185
        k(   18) = (   0.1666667   0.0962250   0.1407821), wk =   0.0185185
        k(   19) = (   0.1666667   0.0962250   0.2815642), wk =   0.0185185
        k(   20) = (   0.1666667   0.0962250  -0.4223462), wk =   0.0185185
        k(   21) = (   0.1666667   0.6735753   0.0000000), wk =   0.0370370
        k(   22) = (   0.1666667   0.6735753   0.1407821), wk =   0.0370370
        k(   23) = (   0.1666667   0.6735753   0.2815642), wk =   0.0370370
        k(   24) = (   0.1666667   0.6735753  -0.4223462), wk =   0.0370370
        k(   25) = (   0.1666667   1.2509256   0.0000000), wk =   0.0370370
        k(   26) = (   0.1666667   1.2509256   0.1407821), wk =   0.0370370
        k(   27) = (   0.1666667   1.2509256   0.2815642), wk =   0.0370370
        k(   28) = (   0.1666667   1.2509256  -0.4223462), wk =   0.0370370
        k(   29) = (   0.1666667  -1.6358258   0.0000000), wk =   0.0370370
        k(   30) = (   0.1666667  -1.6358258   0.1407821), wk =   0.0370370
        k(   31) = (   0.1666667  -1.6358258   0.2815642), wk =   0.0370370
        k(   32) = (   0.1666667  -1.6358258  -0.4223462), wk =   0.0370370
        k(   33) = (   0.1666667  -0.4811252   0.0000000), wk =   0.0370370
        k(   34) = (   0.1666667  -0.4811252   0.1407821), wk =   0.0370370
        k(   35) = (   0.1666667  -0.4811252   0.2815642), wk =   0.0370370
        k(   36) = (   0.1666667  -0.4811252  -0.4223462), wk =   0.0370370
        k(   37) = (   0.3333333   0.1924501   0.0000000), wk =   0.0185185
[...]
     1.0000   1.0000   1.0000   1.0000   1.0000   1.0000   1.0000   1.0000
     1.0000   1.0000   1.0000   1.0000

[...]

          k =-0.5000-0.2887 0.0000 ( 12206 PWs)   bands (ev):

[...]

          k =-0.3333 0.3849-0.2816 ( 12208 PWs)   bands (ev):

[...]

          k = 1.3333-0.3849-0.2816 ( 12233 PWs)   bands (ev):

   -10.8625 -10.8036 -10.6748 -10.6416 -10.6364 -10.5819 -10.5605 -10.5394
   -10.5337 -10.4972 -10.4858 -10.4678   0.6749   0.6919   0.6990   0.7205
     0.7885   0.8041   0.8655   0.8814   0.9019   0.9136   0.9981   1.0878
     1.1128   1.1201   1.1594   1.1773   1.2014   1.2053   1.2155   1.2445
     1.3188   1.3390   1.3497   1.3525   1.3717   1.4298   1.4397   1.4487
     1.4568   1.4882   1.5038   1.5569   1.5640   1.5746   1.5995   1.6631
     1.8973   1.9367   1.9464   1.9721   2.0072   2.0109   2.0273   2.0461
     2.0517   2.0698   2.0845   2.1054   2.1076   2.1279   2.1557   2.1631
     2.1709   2.2217   2.2346   2.2472   2.2570   2.3238   2.3800   2.3803
     2.6515   2.7088   2.8030   2.9278   2.9386   2.9803   3.0973   3.2243
     3.2352   3.3744   3.6270   3.8900   3.9391   3.9555   4.0040   4.2994
     4.3377   4.3663   4.4655   4.4843   4.5507   4.7414   4.7862   4.8230
     5.0279   5.1378   5.1386   5.1671   5.1861   5.3192   5.3367   5.4354
     5.4746   5.6109   5.6740   5.7645

     occupation numbers
     1.0000   1.0000   1.0000   1.0000   1.0000   1.0000   1.0000   1.0000
     1.0000   1.0000   1.0000   1.0000   1.0000   1.0000   1.0000   1.0000
     1.0000   1.0000   1.0000   1.0000   1.0000   1.0000   1.0000   1.0000
     1.0000   1.0000   1.0000   1.0000   1.0000   1.0000   1.0000   1.0000
     1.0000   1.0000   1.0000   1.0000   1.0000   1.0000   1.0000   1.0000
     1.0000   1.0000   1.0000   1.0000   1.0000   1.0000   1.0000   1.0000
     1.0000   1.0000   1.0000   1.0000   1.0000   1.0000   1.0000   1.0000
     1.0000   1.0000   1.0000   1.0000   1.0000   1.0000   1.0000   1.0000
     1.0000   1.0000   1.0000   1.0000   1.0000   1.0000   1.0000   1.0000
     1.0000   1.0000   1.0000   1.0000   1.0000   1.0000   1.0000   1.0000
     1.0000   1.0000   1.0000   1.0000   1.0000   1.0000   1.0000   1.0000
     1.0000   1.0000   1.0000   1.0000   1.0000   1.0000   1.0000   1.0000
     1.0000   1.0000   1.0000   1.0000   1.0000   1.0000   1.0000   1.0000
     1.0000   1.0000   1.0000   1.0000

     highest occupied level (ev):     6.4895

!    total energy              =   -2169.74528425 Ry
     estimated scf accuracy    <          4.8E-09 Ry

     The total energy is the sum of the following terms:
     one-electron contribution =    -954.92024926 Ry
     hartree contribution      =     720.06514085 Ry
     xc contribution           =    -656.90126098 Ry
     ewald contribution        =   -1277.98891487 Ry

     convergence has been achieved in  35 iterations

     Forces acting on atoms (cartesian axes, Ry/au):

     atom    1 type  1   force =    -0.00000407   -0.00000235    0.01423824
     atom    2 type  1   force =     0.00000338    0.00000195    0.01430142
     atom    3 type  2   force =    -0.00000499   -0.00000288   -0.01427957
     atom    4 type  2   force =     0.00000512    0.00000296   -0.01427961
     atom    5 type  1   force =     0.00000289    0.00000167    0.01431315
     atom    6 type  1   force =    -0.00000440   -0.00000254    0.01426570
     atom    7 type  2   force =    -0.00000532   -0.00000307   -0.01428043
     atom    8 type  2   force =     0.00000559    0.00000323   -0.01428083
     atom    9 type  1   force =    -0.00000680   -0.00000392    0.01423962
     atom   10 type  1   force =    -0.00000139   -0.00000080    0.01428853
     atom   11 type  2   force =    -0.00000538   -0.00000311   -0.01428067
     atom   12 type  2   force =     0.00000574    0.00000332   -0.01427922
     atom   13 type  1   force =     0.00000386    0.00000223    0.01432724
     atom   14 type  1   force =    -0.00000382   -0.00000221    0.01427084
     atom   15 type  2   force =    -0.00000523   -0.00000302   -0.01427937
     atom   16 type  2   force =     0.00000532    0.00000307   -0.01428160
     atom   17 type  1   force =     0.00001462    0.00000844    0.01424492
     atom   18 type  1   force =    -0.00000639   -0.00000369    0.01428398
     atom   19 type  2   force =    -0.00000531   -0.00000306   -0.01427978
     atom   20 type  2   force =     0.00000536    0.00000309   -0.01427984
     atom   21 type  1   force =    -0.00000363   -0.00000210    0.01431488
     atom   22 type  1   force =     0.00000482    0.00000279    0.01427361
     atom   23 type  2   force =    -0.00000531   -0.00000307   -0.01428019
     atom   24 type  2   force =     0.00000532    0.00000307   -0.01428102
     The non-local contrib.  to forces
     atom    1 type  1   force =    -0.00000486   -0.00000281    0.25199570
     atom    2 type  1   force =     0.00000650    0.00000375    0.25203824
     atom    3 type  2   force =    -0.00020405   -0.00011781    0.24535627
     atom    4 type  2   force =     0.00020413    0.00011785    0.24535399
     atom    5 type  1   force =    -0.00000209   -0.00000121    0.25204311
     atom    6 type  1   force =     0.00000026    0.00000015    0.25200883
     atom    7 type  2   force =    -0.00020911   -0.00012073    0.24533264
     atom    8 type  2   force =     0.00020811    0.00012015    0.24533618
     atom    9 type  1   force =    -0.00000822   -0.00000475    0.25199619
     atom   10 type  1   force =     0.00000191    0.00000110    0.25203237
     atom   11 type  2   force =    -0.00020723   -0.00011964    0.24535189
     atom   12 type  2   force =     0.00021178    0.00012227    0.24535856
     atom   13 type  1   force =    -0.00000215   -0.00000124    0.25204999
     atom   14 type  1   force =     0.00000194    0.00000112    0.25201240
     atom   15 type  2   force =    -0.00020741   -0.00011975    0.24533740
     atom   16 type  2   force =     0.00020681    0.00011940    0.24533027
     atom   17 type  1   force =     0.00000318    0.00000184    0.25199981
     atom   18 type  1   force =     0.00000127    0.00000074    0.25202918
     atom   19 type  2   force =    -0.00021017   -0.00012134    0.24535292
     atom   20 type  2   force =     0.00020555    0.00011867    0.24535660
     atom   21 type  1   force =    -0.00000575   -0.00000332    0.25204440
     atom   22 type  1   force =     0.00000788    0.00000455    0.25201388
     atom   23 type  2   force =    -0.00020578   -0.00011881    0.24533683
     atom   24 type  2   force =     0.00020688    0.00011944    0.24533228
     The ionic contribution  to forces
     atom    1 type  1   force =     0.00000001    0.00000001    1.99206072
     atom    2 type  1   force =     0.00000001    0.00000000    1.99206071
     atom    3 type  2   force =     0.00000000    0.00000000   -1.99206072
     atom    4 type  2   force =     0.00000000    0.00000000   -1.99206071
     atom    5 type  1   force =     0.00000001    0.00000001    1.99206072
     atom    6 type  1   force =     0.00000001    0.00000000    1.99206071
     atom    7 type  2   force =     0.00000000    0.00000000   -1.99206072
     atom    8 type  2   force =     0.00000000    0.00000000   -1.99206071
     atom    9 type  1   force =    -0.00000001    0.00000000    1.99206071
     atom   10 type  1   force =     0.00000001   -0.00000000    1.99206071
     atom   11 type  2   force =    -0.00000001    0.00000000   -1.99206071
     atom   12 type  2   force =     0.00000001   -0.00000000   -1.99206071
     atom   13 type  1   force =    -0.00000001    0.00000000    1.99206071
     atom   14 type  1   force =     0.00000001   -0.00000000    1.99206071
     atom   15 type  2   force =    -0.00000001    0.00000000   -1.99206071
     atom   16 type  2   force =     0.00000001   -0.00000000   -1.99206071
     atom   17 type  1   force =    -0.00000001   -0.00000000    1.99206071
     atom   18 type  1   force =    -0.00000001   -0.00000001    1.99206072
     atom   19 type  2   force =    -0.00000000   -0.00000000   -1.99206071
     atom   20 type  2   force =    -0.00000000   -0.00000000   -1.99206072
     atom   21 type  1   force =    -0.00000001   -0.00000000    1.99206071
     atom   22 type  1   force =    -0.00000001   -0.00000001    1.99206072
     atom   23 type  2   force =    -0.00000000   -0.00000000   -1.99206071
     atom   24 type  2   force =    -0.00000000   -0.00000000   -1.99206072
     The local contribution  to forces
     atom    1 type  1   force =     0.00002113    0.00001220   -2.21227582
     atom    2 type  1   force =    -0.00002153   -0.00001248   -2.21237741
     atom    3 type  2   force =     0.00020432    0.00011796    1.73448334
     atom    4 type  2   force =    -0.00020292   -0.00011717    1.73449580
     atom    5 type  1   force =     0.00001274    0.00000735   -2.21239639
     atom    6 type  1   force =    -0.00000877   -0.00000511   -2.21231862
     atom    7 type  2   force =     0.00019555    0.00011290    1.73445422
     atom    8 type  2   force =    -0.00019873   -0.00011475    1.73445163
     atom    9 type  1   force =     0.00002839    0.00001649   -2.21227723
     atom   10 type  1   force =    -0.00001557   -0.00000908   -2.21235928
     atom   11 type  2   force =     0.00020103    0.00011609    1.73448217
     atom   12 type  2   force =    -0.00019080   -0.00011019    1.73450031
     atom   13 type  1   force =     0.00001108    0.00000650   -2.21241494
     atom   14 type  1   force =    -0.00000896   -0.00000527   -2.21232829
     atom   15 type  2   force =     0.00019904    0.00011494    1.73446227
     atom   16 type  2   force =    -0.00020001   -0.00011550    1.73444550
     atom   17 type  1   force =    -0.00000475   -0.00000270   -2.21228761
     atom   18 type  1   force =    -0.00000704   -0.00000407   -2.21235122
     atom   19 type  2   force =     0.00019170    0.00011069    1.73448085
     atom   20 type  2   force =    -0.00020278   -0.00011707    1.73449808
     atom   21 type  1   force =     0.00002126    0.00001232   -2.21239854
     atom   22 type  1   force =    -0.00002726   -0.00001574   -2.21233149
     atom   23 type  2   force =     0.00020221    0.00011676    1.73446111
     atom   24 type  2   force =    -0.00019891   -0.00011484    1.73444584
     The core correction contribution to forces
     atom    1 type  1   force =    -0.00000986   -0.00000569   -0.01745935
     atom    2 type  1   force =     0.00000972    0.00000560   -0.01745881
     atom    3 type  2   force =     0.00000232    0.00000134   -0.00203896
     atom    4 type  2   force =    -0.00000232   -0.00000134   -0.00203890
     atom    5 type  1   force =    -0.00000980   -0.00000566   -0.01745842
     atom    6 type  1   force =     0.00000978    0.00000564   -0.01745870
     atom    7 type  2   force =     0.00000237    0.00000137   -0.00203868
     atom    8 type  2   force =    -0.00000236   -0.00000136   -0.00203872
     atom    9 type  1   force =    -0.00000990   -0.00000571   -0.01745942
     atom   10 type  1   force =     0.00000998    0.00000575   -0.01745904
     atom   11 type  2   force =     0.00000235    0.00000136   -0.00203890
     atom   12 type  2   force =    -0.00000239   -0.00000138   -0.00203895
     atom   13 type  1   force =    -0.00000970   -0.00000559   -0.01745829
     atom   14 type  1   force =     0.00000956    0.00000551   -0.01745858
     atom   15 type  2   force =     0.00000235    0.00000136   -0.00203872
     atom   16 type  2   force =    -0.00000234   -0.00000135   -0.00203866
     atom   17 type  1   force =    -0.00000952   -0.00000549   -0.01745921
     atom   18 type  1   force =     0.00000960    0.00000554   -0.01745915
     atom   19 type  2   force =     0.00000237    0.00000137   -0.00203892
     atom   20 type  2   force =    -0.00000233   -0.00000135   -0.00203893
     atom   21 type  1   force =    -0.00000977   -0.00000564   -0.01745845
     atom   22 type  1   force =     0.00000994    0.00000574   -0.01745862
     atom   23 type  2   force =     0.00000233    0.00000135   -0.00203871
     atom   24 type  2   force =    -0.00000234   -0.00000135   -0.00203868
     The Hubbard contrib.    to forces
     atom    1 type  1   force =     0.00000000    0.00000000    0.00000000
     atom    2 type  1   force =     0.00000000    0.00000000    0.00000000
     atom    3 type  2   force =     0.00000000    0.00000000    0.00000000
     atom    4 type  2   force =     0.00000000    0.00000000    0.00000000
     atom    5 type  1   force =     0.00000000    0.00000000    0.00000000
     atom    6 type  1   force =     0.00000000    0.00000000    0.00000000
     atom    7 type  2   force =     0.00000000    0.00000000    0.00000000
     atom    8 type  2   force =     0.00000000    0.00000000    0.00000000
     atom    9 type  1   force =     0.00000000    0.00000000    0.00000000
     atom   10 type  1   force =     0.00000000    0.00000000    0.00000000
     atom   11 type  2   force =     0.00000000    0.00000000    0.00000000
     atom   12 type  2   force =     0.00000000    0.00000000    0.00000000
     atom   13 type  1   force =     0.00000000    0.00000000    0.00000000
     atom   14 type  1   force =     0.00000000    0.00000000    0.00000000
     atom   15 type  2   force =     0.00000000    0.00000000    0.00000000
     atom   16 type  2   force =     0.00000000    0.00000000    0.00000000
     atom   17 type  1   force =     0.00000000    0.00000000    0.00000000
     atom   18 type  1   force =     0.00000000    0.00000000    0.00000000
     atom   19 type  2   force =     0.00000000    0.00000000    0.00000000
     atom   20 type  2   force =     0.00000000    0.00000000    0.00000000
     atom   21 type  1   force =     0.00000000    0.00000000    0.00000000
     atom   22 type  1   force =     0.00000000    0.00000000    0.00000000
     atom   23 type  2   force =     0.00000000    0.00000000    0.00000000
     atom   24 type  2   force =     0.00000000    0.00000000    0.00000000
     The SCF correction term to forces
     atom    1 type  1   force =    -0.00001059   -0.00000611   -0.00008476
     atom    2 type  1   force =     0.00000862    0.00000498    0.00003692
     atom    3 type  2   force =    -0.00000767   -0.00000443   -0.00002126
     atom    4 type  2   force =     0.00000613    0.00000354   -0.00003155
     atom    5 type  1   force =     0.00000193    0.00000112    0.00006237
     atom    6 type  1   force =    -0.00000575   -0.00000332   -0.00002829
     atom    7 type  2   force =     0.00000578    0.00000334    0.00003035
     atom    8 type  2   force =    -0.00000153   -0.00000088    0.00002903
     atom    9 type  1   force =    -0.00001720   -0.00000993   -0.00008238
     atom   10 type  1   force =     0.00000223    0.00000129    0.00001200
     atom   11 type  2   force =    -0.00000164   -0.00000095   -0.00001688
     atom   12 type  2   force =    -0.00001293   -0.00000747   -0.00004019
     atom   13 type  1   force =     0.00000449    0.00000259    0.00008801
     atom   14 type  1   force =    -0.00000642   -0.00000371   -0.00001715
     atom   15 type  2   force =     0.00000068    0.00000039    0.00001863
     atom   16 type  2   force =     0.00000078    0.00000045    0.00004025
     atom   17 type  1   force =     0.00002560    0.00001478   -0.00007055
     atom   18 type  1   force =    -0.00001031   -0.00000595    0.00000268
     atom   19 type  2   force =     0.00001070    0.00000618   -0.00001568
     atom   20 type  2   force =     0.00000482    0.00000278   -0.00003663
     atom   21 type  1   force =    -0.00000949   -0.00000548    0.00006499
     atom   22 type  1   force =     0.00001418    0.00000818   -0.00001263
     atom   23 type  2   force =    -0.00000417   -0.00000241    0.00001954
     atom   24 type  2   force =    -0.00000040   -0.00000023    0.00003850

     Total force =     0.069958     Total SCF correction =     0.000226

     General routines

     Parallel routines

   This run was terminated on:   8:19: 4   5Sep2025

   JOB DONE.
Note: The following floating-point exceptions are signalling: IEEE_INVALID_FLAG
Note: The following floating-point exceptions are signalling: IEEE_INVALID_FLAG
Note: The following floating-point exceptions are signalling: IEEE_INVALID_FLAG
Note: The following floating-point exceptions are signalling: IEEE_INVALID_FLAG
Note: The following floating-point exceptions are signalling: IEEE_INVALID_FLAG
Note: The following floating-point exceptions are signalling: IEEE_INVALID_FLAG
Note: The following floating-point exceptions are signalling: IEEE_INVALID_FLAG
Note: The following floating-point exceptions are signalling: IEEE_INVALID_FLAG