     Program PWSCF v.7.2 starts on  7Sep2025 at 17: 8: 6

     Reading input from /home/jvc/QEspresso7.2/ZnO_database/scripts/cell312.in/ZnO-3.47-1.61-312.in
Warning: card &CELL ignored
Warning: card / ignored
Warning: card &FCP ignored
Warning: card / ignored
Warning: card &RISM ignored
Warning: card / ignored

     Current dimensions of program PWSCF are:
     Max number of different atomic species (ntypx) = 10
     Max number of k-points (npk) =  40000
     Max angular momentum in pseudopotentials (lmaxx) =  4
     file Zn.upf: wavefunction(s)  3D renormalized
     Found identity + (  0.0000  0.0000  0.5000) symmetry
     This is a supercell, fractional translations are disabled
     Message from routine setup:
     using ibrav=0 with symmetry is DISCOURAGED, use correct ibrav instead

     K-points division:     npool     =       8
     R & G space division:  proc/nbgrp/npool/nimage =       8
     Subspace diagonalization in iterative solution of the eigenvalue problem:
     a serial algorithm will be used

     Using Slab Decomposition

     bravais-lattice index     =            0
     lattice parameter (alat)  =      19.6488  a.u.
     unit-cell volume          =    2356.8027 (a.u.)^3
     number of atoms/cell      =           24
     number of atomic types    =            2
     number of electrons       =       216.00
     number of Kohn-Sham states=          108
     kinetic-energy cutoff     =      50.0000  Ry
     charge density cutoff     =     400.0000  Ry
     scf convergence threshold =      1.0E-08
     mixing beta               =       0.3000
     number of iterations used =            8  plain     mixing
     Exchange-correlation= PBE
                           (   1   4   3   4   0   0   0)

     celldm(1)=  19.648756  celldm(2)=   0.000000  celldm(3)=   0.000000
     celldm(4)=   0.000000  celldm(5)=   0.000000  celldm(6)=   0.000000

     crystal axes: (cart. coord. in units of alat)
               a(1) = (   1.000000   0.000000   0.000000 )
               a(2) = (  -0.166667   0.288675   0.000000 )
               a(3) = (   0.000000   0.000000   1.076239 )

     reciprocal axes: (cart. coord. in units 2 pi/alat)
               b(1) = (  1.000000  0.577350 -0.000000 )
               b(2) = (  0.000000  3.464102  0.000000 )
               b(3) = (  0.000000 -0.000000  0.929162 )

     PseudoPot. # 1 for Zn read from file:
     /home/jvc/QEspresso7.2/ZnO_database/pseudos/Zn.upf
     MD5 check sum: 7f56cabf9682ed8c977c2f7d0c5985c5
     Pseudo is Ultrasoft + core correction, Zval = 12.0
     Generated using &quot;atomic&quot; code by A. Dal Corso  v.6.2.2
     Using radial grid of 1201 points,  6 beta functions with:
                l(1) =   0
                l(2) =   0
                l(3) =   1
                l(4) =   1
                l(5) =   2
                l(6) =   2
     Q(r) pseudized with 0 coefficients

     PseudoPot. # 2 for O  read from file:
     /home/jvc/QEspresso7.2/ZnO_database/pseudos/O.upf
     MD5 check sum: 91400c9766925bcf19f520983a725ff0
     Pseudo is Ultrasoft + core correction, Zval =  6.0
     Generated using &quot;atomic&quot; code by A. Dal Corso  v.6.3MaX
     Using radial grid of 1095 points,  4 beta functions with:
                l(1) =   0
                l(2) =   0
                l(3) =   1
                l(4) =   1
     Q(r) pseudized with 0 coefficients

     atomic species   valence    mass     pseudopotential
        Zn            12.00    65.38000     Zn( 1.00)
        O              6.00    15.99900     O ( 1.00)

      2 Sym. Ops. (no inversion) found

                                    s                        frac. trans.

      isym =  1     identity

 cryst.   s( 1) = (     1          0          0      )
                  (     0          1          0      )
                  (     0          0          1      )

 cart.    s( 1) = (  1.0000000  0.0000000  0.0000000 )
                  (  0.0000000  1.0000000  0.0000000 )
                  (  0.0000000  0.0000000  1.0000000 )

      isym =  2     inv. 180 deg rotation - cryst. axis [0,1,0]

 cryst.   s( 2) = (     1          3          0      )
                  (     0         -1          0      )
                  (     0          0          1      )

 cart.    s( 2) = (  0.5000000  0.8660254  0.0000000 )
                  (  0.8660254 -0.5000000  0.0000000 )
                  (  0.0000000  0.0000000  1.0000000 )

   Cartesian axes

     site n.     atom                  positions (alat units)
         1           Zn  tau(   1) = (   0.1666667   0.0962250   0.2694007  )
         2           Zn  tau(   2) = (  -0.0000000   0.1924501   0.0003409  )
         3           O   tau(   3) = (   0.1666667   0.0962250   0.4733710  )
         4           O   tau(   4) = (  -0.0000000   0.1924501   0.2043113  )
         5           Zn  tau(   5) = (   0.1666667   0.0962250   0.8075201  )
         6           Zn  tau(   6) = (  -0.0000000   0.1924501   0.5384604  )
         7           O   tau(   7) = (   0.1666667   0.0962250   1.0114904  )
         8           O   tau(   8) = (  -0.0000000   0.1924501   0.7424307  )
         9           Zn  tau(   9) = (   0.5000000   0.0962250   0.2694007  )
        10           Zn  tau(  10) = (   0.3333333   0.1924501   0.0003409  )
        11           O   tau(  11) = (   0.5000000   0.0962250   0.4733710  )
        12           O   tau(  12) = (   0.3333333   0.1924501   0.2043113  )
        13           Zn  tau(  13) = (   0.5000000   0.0962250   0.8075201  )
        14           Zn  tau(  14) = (   0.3333333   0.1924501   0.5384604  )
        15           O   tau(  15) = (   0.5000000   0.0962250   1.0114904  )
        16           O   tau(  16) = (   0.3333333   0.1924501   0.7424307  )
        17           Zn  tau(  17) = (   0.8333333   0.0962250   0.2694007  )
        18           Zn  tau(  18) = (   0.6666667   0.1924501   0.0003409  )
        19           O   tau(  19) = (   0.8333333   0.0962250   0.4733710  )
        20           O   tau(  20) = (   0.6666667   0.1924501   0.2043113  )
        21           Zn  tau(  21) = (   0.8333333   0.0962250   0.8075201  )
        22           Zn  tau(  22) = (   0.6666667   0.1924501   0.5384604  )
        23           O   tau(  23) = (   0.8333333   0.0962250   1.0114904  )
        24           O   tau(  24) = (   0.6666667   0.1924501   0.7424307  )

   Crystallographic axes

     site n.     atom                  positions (cryst. coord.)
         1           Zn  tau(   1) = (  0.2222222  0.3333333  0.2503168  )
         2           Zn  tau(   2) = (  0.1111111  0.6666667  0.0003168  )
         3           O   tau(   3) = (  0.2222222  0.3333333  0.4398382  )
         4           O   tau(   4) = (  0.1111111  0.6666667  0.1898382  )
         5           Zn  tau(   5) = (  0.2222222  0.3333333  0.7503168  )
         6           Zn  tau(   6) = (  0.1111111  0.6666667  0.5003168  )
         7           O   tau(   7) = (  0.2222222  0.3333333  0.9398382  )
         8           O   tau(   8) = (  0.1111111  0.6666667  0.6898382  )
         9           Zn  tau(   9) = (  0.5555556  0.3333333  0.2503168  )
        10           Zn  tau(  10) = (  0.4444444  0.6666667  0.0003168  )
        11           O   tau(  11) = (  0.5555556  0.3333333  0.4398382  )
        12           O   tau(  12) = (  0.4444444  0.6666667  0.1898382  )
        13           Zn  tau(  13) = (  0.5555556  0.3333333  0.7503168  )
        14           Zn  tau(  14) = (  0.4444444  0.6666667  0.5003168  )
        15           O   tau(  15) = (  0.5555556  0.3333333  0.9398382  )
        16           O   tau(  16) = (  0.4444444  0.6666667  0.6898382  )
        17           Zn  tau(  17) = (  0.8888889  0.3333333  0.2503168  )
        18           Zn  tau(  18) = (  0.7777778  0.6666667  0.0003168  )
        19           O   tau(  19) = (  0.8888889  0.3333333  0.4398382  )
        20           O   tau(  20) = (  0.7777778  0.6666667  0.1898382  )
        21           Zn  tau(  21) = (  0.8888889  0.3333333  0.7503168  )
        22           Zn  tau(  22) = (  0.7777778  0.6666667  0.5003168  )
        23           O   tau(  23) = (  0.8888889  0.3333333  0.9398382  )
        24           O   tau(  24) = (  0.7777778  0.6666667  0.6898382  )

     number of k points=    68
                       cart. coord. in units 2pi/alat
        k(    1) = (   0.0000000   0.0000000   0.0000000), wk =   0.0092593
        k(    2) = (   0.0000000   0.0000000   0.1548603), wk =   0.0185185
        k(    3) = (   0.0000000   0.0000000   0.3097206), wk =   0.0185185
        k(    4) = (   0.0000000   0.0000000  -0.4645809), wk =   0.0092593
        k(    5) = (   0.0000000   0.5773503   0.0000000), wk =   0.0370370
        k(    6) = (   0.0000000   0.5773503   0.1548603), wk =   0.0370370
        k(    7) = (   0.0000000   0.5773503   0.3097206), wk =   0.0370370
        k(    8) = (   0.0000000   0.5773503  -0.4645809), wk =   0.0370370
        k(    9) = (   0.0000000   1.1547005   0.0000000), wk =   0.0185185
        k(   10) = (   0.0000000   1.1547005   0.1548603), wk =   0.0370370
        k(   11) = (   0.0000000   1.1547005   0.3097206), wk =   0.0370370
        k(   12) = (   0.0000000   1.1547005  -0.4645809), wk =   0.0185185
        k(   13) = (   0.0000000  -1.7320508   0.0000000), wk =   0.0185185
        k(   14) = (   0.0000000  -1.7320508   0.1548603), wk =   0.0370370
        k(   15) = (   0.0000000  -1.7320508   0.3097206), wk =   0.0370370
        k(   16) = (   0.0000000  -1.7320508  -0.4645809), wk =   0.0185185
        k(   17) = (   0.1666667   0.0962250   0.0000000), wk =   0.0185185
        k(   18) = (   0.1666667   0.0962250   0.1548603), wk =   0.0185185
        k(   19) = (   0.1666667   0.0962250   0.3097206), wk =   0.0185185
        k(   20) = (   0.1666667   0.0962250  -0.4645809), wk =   0.0185185
        k(   21) = (   0.1666667   0.6735753   0.0000000), wk =   0.0370370
        k(   22) = (   0.1666667   0.6735753   0.1548603), wk =   0.0370370
        k(   23) = (   0.1666667   0.6735753   0.3097206), wk =   0.0370370
        k(   24) = (   0.1666667   0.6735753  -0.4645809), wk =   0.0370370
        k(   25) = (   0.1666667   1.2509256   0.0000000), wk =   0.0370370
        k(   26) = (   0.1666667   1.2509256   0.1548603), wk =   0.0370370
        k(   27) = (   0.1666667   1.2509256   0.3097206), wk =   0.0370370
        k(   28) = (   0.1666667   1.2509256  -0.4645809), wk =   0.0370370
        k(   29) = (   0.1666667  -1.6358258   0.0000000), wk =   0.0370370
        k(   30) = (   0.1666667  -1.6358258   0.1548603), wk =   0.0370370
        k(   31) = (   0.1666667  -1.6358258   0.3097206), wk =   0.0370370
        k(   32) = (   0.1666667  -1.6358258  -0.4645809), wk =   0.0370370
        k(   33) = (   0.1666667  -0.4811252   0.0000000), wk =   0.0370370
        k(   34) = (   0.1666667  -0.4811252   0.1548603), wk =   0.0370370
        k(   35) = (   0.1666667  -0.4811252   0.3097206), wk =   0.0370370
        k(   36) = (   0.1666667  -0.4811252  -0.4645809), wk =   0.0370370
        k(   37) = (   0.3333333   0.1924501   0.0000000), wk =   0.0185185
[...]
     1.0000   1.0000   1.0000   1.0000   1.0000   1.0000   1.0000   1.0000
     1.0000   1.0000   1.0000   1.0000

[...]

          k =-0.5000-0.2887 0.0000 ( 14066 PWs)   bands (ev):

[...]

          k =-0.3333 0.3849-0.3097 ( 14095 PWs)   bands (ev):

[...]

          k = 1.3333-0.3849-0.3097 ( 14047 PWs)   bands (ev):

   -11.8514 -11.7963 -11.7254 -11.6889 -11.6469 -11.6443 -11.6237 -11.5934
   -11.5929 -11.5736 -11.5602 -11.5575  -0.4851  -0.4640  -0.4581  -0.4377
    -0.3905  -0.3754  -0.3641  -0.3610  -0.3295  -0.2770  -0.2688  -0.2628
    -0.2448  -0.2224  -0.2134  -0.1897  -0.1865  -0.1844  -0.1680  -0.1089
    -0.0990  -0.0939  -0.0483  -0.0428  -0.0232  -0.0217  -0.0210   0.0002
     0.0345   0.0536   0.0537   0.0566   0.0763   0.0809   0.1164   0.1396
     0.2359   0.2785   0.2788   0.2987   0.3083   0.3147   0.3274   0.3305
     0.3348   0.3451   0.3488   0.3657   0.3856   0.4057   0.4157   0.4223
     0.4419   0.4657   0.4927   0.4977   0.5106   0.5504   0.5644   0.5665
     1.2822   1.2903   1.3057   1.3778   1.4374   1.4889   1.6113   1.6823
     1.7447   1.7953   2.1806   2.2227   2.3366   2.4299   2.5522   2.7187
     2.9075   2.9280   2.9534   3.0661   3.1031   3.1970   3.2862   3.3497
     3.3792   3.4277   3.5977   3.6025   3.7329   3.7801   3.8490   3.8635
     3.8677   3.9761   4.0419   4.1118

     occupation numbers
     1.0000   1.0000   1.0000   1.0000   1.0000   1.0000   1.0000   1.0000
     1.0000   1.0000   1.0000   1.0000   1.0000   1.0000   1.0000   1.0000
     1.0000   1.0000   1.0000   1.0000   1.0000   1.0000   1.0000   1.0000
     1.0000   1.0000   1.0000   1.0000   1.0000   1.0000   1.0000   1.0000
     1.0000   1.0000   1.0000   1.0000   1.0000   1.0000   1.0000   1.0000
     1.0000   1.0000   1.0000   1.0000   1.0000   1.0000   1.0000   1.0000
     1.0000   1.0000   1.0000   1.0000   1.0000   1.0000   1.0000   1.0000
     1.0000   1.0000   1.0000   1.0000   1.0000   1.0000   1.0000   1.0000
     1.0000   1.0000   1.0000   1.0000   1.0000   1.0000   1.0000   1.0000
     1.0000   1.0000   1.0000   1.0000   1.0000   1.0000   1.0000   1.0000
     1.0000   1.0000   1.0000   1.0000   1.0000   1.0000   1.0000   1.0000
     1.0000   1.0000   1.0000   1.0000   1.0000   1.0000   1.0000   1.0000
     1.0000   1.0000   1.0000   1.0000   1.0000   1.0000   1.0000   1.0000
     1.0000   1.0000   1.0000   1.0000

     highest occupied level (ev):     4.5812

!    total energy              =   -2169.61309597 Ry
     estimated scf accuracy    <          5.8E-10 Ry

     The total energy is the sum of the following terms:
     one-electron contribution =   -1044.73028009 Ry
     hartree contribution      =     752.25890596 Ry
     xc contribution           =    -655.32883583 Ry
     ewald contribution        =   -1221.81288600 Ry

     convergence has been achieved in  28 iterations

     Forces acting on atoms (cartesian axes, Ry/au):

     atom    1 type  1   force =    -0.00000028   -0.00000016   -0.00011114
     atom    2 type  1   force =     0.00000415    0.00000239   -0.00010674
     atom    3 type  2   force =    -0.00000485   -0.00000280    0.00011114
     atom    4 type  2   force =     0.00000467    0.00000270    0.00011093
     atom    5 type  1   force =    -0.00000075   -0.00000043   -0.00010910
     atom    6 type  1   force =     0.00000214    0.00000124   -0.00011617
     atom    7 type  2   force =    -0.00000479   -0.00000277    0.00011064
     atom    8 type  2   force =     0.00000470    0.00000272    0.00011147
     atom    9 type  1   force =    -0.00000143   -0.00000083   -0.00011215
     atom   10 type  1   force =     0.00000211    0.00000122   -0.00010659
     atom   11 type  2   force =    -0.00000454   -0.00000262    0.00011123
     atom   12 type  2   force =     0.00000491    0.00000283    0.00011108
     atom   13 type  1   force =    -0.00000149   -0.00000086   -0.00010927
     atom   14 type  1   force =     0.00000224    0.00000129   -0.00011705
     atom   15 type  2   force =    -0.00000478   -0.00000276    0.00011069
     atom   16 type  2   force =     0.00000474    0.00000273    0.00011098
     atom   17 type  1   force =    -0.00000325   -0.00000187   -0.00011167
     atom   18 type  1   force =    -0.00000063   -0.00000037   -0.00010595
     atom   19 type  2   force =    -0.00000483   -0.00000279    0.00011120
     atom   20 type  2   force =     0.00000452    0.00000261    0.00011113
     atom   21 type  1   force =    -0.00000330   -0.00000191   -0.00011142
     atom   22 type  1   force =     0.00000099    0.00000057   -0.00011499
     atom   23 type  2   force =    -0.00000485   -0.00000280    0.00011058
     atom   24 type  2   force =     0.00000461    0.00000266    0.00011118
     The non-local contrib.  to forces
     atom    1 type  1   force =     0.00001056    0.00000610   -0.00452293
     atom    2 type  1   force =    -0.00000908   -0.00000524   -0.00451701
     atom    3 type  2   force =    -0.00020972   -0.00012108    0.00633104
     atom    4 type  2   force =     0.00020864    0.00012046    0.00633125
     atom    5 type  1   force =     0.00001102    0.00000636   -0.00451734
     atom    6 type  1   force =    -0.00000988   -0.00000570   -0.00452337
     atom    7 type  2   force =    -0.00021042   -0.00012149    0.00632963
     atom    8 type  2   force =     0.00020950    0.00012096    0.00633049
     atom    9 type  1   force =     0.00001025    0.00000592   -0.00452364
     atom   10 type  1   force =    -0.00000998   -0.00000576   -0.00451774
     atom   11 type  2   force =    -0.00020876   -0.00012053    0.00633127
     atom   12 type  2   force =     0.00020927    0.00012082    0.00633168
     atom   13 type  1   force =     0.00001026    0.00000593   -0.00451712
     atom   14 type  1   force =    -0.00000980   -0.00000566   -0.00452395
     atom   15 type  2   force =    -0.00020864   -0.00012046    0.00632969
     atom   16 type  2   force =     0.00020933    0.00012086    0.00632968
     atom   17 type  1   force =     0.00000947    0.00000547   -0.00452310
     atom   18 type  1   force =    -0.00001097   -0.00000634   -0.00451792
     atom   19 type  2   force =    -0.00020870   -0.00012050    0.00633109
     atom   20 type  2   force =     0.00021054    0.00012155    0.00633103
     atom   21 type  1   force =     0.00000906    0.00000523   -0.00451757
     atom   22 type  1   force =    -0.00001027   -0.00000593   -0.00452288
     atom   23 type  2   force =    -0.00020941   -0.00012090    0.00633012
     atom   24 type  2   force =     0.00020952    0.00012096    0.00633000
     The ionic contribution  to forces
     atom    1 type  1   force =     0.00000001    0.00000001    0.05581775
     atom    2 type  1   force =     0.00000001    0.00000000    0.05581775
     atom    3 type  2   force =     0.00000000    0.00000000   -0.05581775
     atom    4 type  2   force =     0.00000000    0.00000000   -0.05581775
     atom    5 type  1   force =     0.00000001    0.00000001    0.05581775
     atom    6 type  1   force =     0.00000001    0.00000000    0.05581775
     atom    7 type  2   force =     0.00000000    0.00000000   -0.05581775
     atom    8 type  2   force =     0.00000000    0.00000000   -0.05581775
     atom    9 type  1   force =    -0.00000001    0.00000000    0.05581774
     atom   10 type  1   force =     0.00000001   -0.00000000    0.05581774
     atom   11 type  2   force =    -0.00000001    0.00000000   -0.05581774
     atom   12 type  2   force =     0.00000001   -0.00000000   -0.05581774
     atom   13 type  1   force =    -0.00000001    0.00000000    0.05581774
     atom   14 type  1   force =     0.00000001   -0.00000000    0.05581774
     atom   15 type  2   force =    -0.00000001    0.00000000   -0.05581774
     atom   16 type  2   force =     0.00000001   -0.00000000   -0.05581774
     atom   17 type  1   force =    -0.00000001   -0.00000000    0.05581775
     atom   18 type  1   force =    -0.00000001   -0.00000001    0.05581775
     atom   19 type  2   force =    -0.00000000   -0.00000000   -0.05581775
     atom   20 type  2   force =    -0.00000000   -0.00000000   -0.05581775
     atom   21 type  1   force =    -0.00000001   -0.00000000    0.05581775
     atom   22 type  1   force =    -0.00000001   -0.00000001    0.05581775
     atom   23 type  2   force =    -0.00000000   -0.00000000   -0.05581775
     atom   24 type  2   force =    -0.00000000   -0.00000000   -0.05581775
     The local contribution  to forces
     atom    1 type  1   force =    -0.00000665   -0.00000384   -0.05171418
     atom    2 type  1   force =     0.00000119    0.00000063   -0.05171964
     atom    3 type  2   force =     0.00020227    0.00011678    0.04967006
     atom    4 type  2   force =    -0.00020227   -0.00011679    0.04966827
     atom    5 type  1   force =    -0.00000630   -0.00000364   -0.05171874
     atom    6 type  1   force =     0.00000391    0.00000220   -0.05171082
     atom    7 type  2   force =     0.00020192    0.00011658    0.04966804
     atom    8 type  2   force =    -0.00020281   -0.00011710    0.04966863
     atom    9 type  1   force =    -0.00000466   -0.00000258   -0.05171248
     atom   10 type  1   force =     0.00000423    0.00000234   -0.05171926
     atom   11 type  2   force =     0.00020162    0.00011644    0.04966989
     atom   12 type  2   force =    -0.00020269   -0.00011705    0.04966817
     atom   13 type  1   force =    -0.00000530   -0.00000295   -0.05171874
     atom   14 type  1   force =     0.00000388    0.00000213   -0.05170947
     atom   15 type  2   force =     0.00020174    0.00011650    0.04966794
     atom   16 type  2   force =    -0.00020273   -0.00011708    0.04966782
     atom   17 type  1   force =    -0.00000246   -0.00000137   -0.05171354
     atom   18 type  1   force =     0.00000786    0.00000454   -0.05171987
     atom   19 type  2   force =     0.00020181    0.00011653    0.04966930
     atom   20 type  2   force =    -0.00020261   -0.00011698    0.04966816
     atom   21 type  1   force =    -0.00000217   -0.00000120   -0.05171592
     atom   22 type  1   force =     0.00000557    0.00000321   -0.05171229
     atom   23 type  2   force =     0.00020342    0.00011746    0.04966765
     atom   24 type  2   force =    -0.00020167   -0.00011644    0.04966881
     The core correction contribution to forces
     atom    1 type  1   force =    -0.00000653   -0.00000373    0.00030897
     atom    2 type  1   force =     0.00000643    0.00000378    0.00030788
     atom    3 type  2   force =     0.00000238    0.00000137   -0.00006953
     atom    4 type  2   force =    -0.00000236   -0.00000135   -0.00007136
     atom    5 type  1   force =    -0.00000660   -0.00000377    0.00030554
     atom    6 type  1   force =     0.00000640    0.00000376    0.00030646
     atom    7 type  2   force =     0.00000239    0.00000138   -0.00007232
     atom    8 type  2   force =    -0.00000237   -0.00000136   -0.00007051
     atom    9 type  1   force =    -0.00000673   -0.00000388    0.00030893
     atom   10 type  1   force =     0.00000672    0.00000388    0.00030795
     atom   11 type  2   force =     0.00000234    0.00000135   -0.00006953
     atom   12 type  2   force =    -0.00000235   -0.00000136   -0.00007136
     atom   13 type  1   force =    -0.00000669   -0.00000386    0.00030550
     atom   14 type  1   force =     0.00000672    0.00000387    0.00030648
     atom   15 type  2   force =     0.00000234    0.00000135   -0.00007232
     atom   16 type  2   force =    -0.00000235   -0.00000136   -0.00007050
     atom   17 type  1   force =    -0.00000642   -0.00000377    0.00030892
     atom   18 type  1   force =     0.00000652    0.00000372    0.00030801
     atom   19 type  2   force =     0.00000236    0.00000135   -0.00006953
     atom   20 type  2   force =    -0.00000240   -0.00000138   -0.00007135
     atom   21 type  1   force =    -0.00000640   -0.00000376    0.00030540
     atom   22 type  1   force =     0.00000655    0.00000374    0.00030652
     atom   23 type  2   force =     0.00000237    0.00000136   -0.00007233
     atom   24 type  2   force =    -0.00000238   -0.00000137   -0.00007050
     The Hubbard contrib.    to forces
     atom    1 type  1   force =     0.00000000    0.00000000    0.00000000
     atom    2 type  1   force =     0.00000000    0.00000000    0.00000000
     atom    3 type  2   force =     0.00000000    0.00000000    0.00000000
     atom    4 type  2   force =     0.00000000    0.00000000    0.00000000
     atom    5 type  1   force =     0.00000000    0.00000000    0.00000000
     atom    6 type  1   force =     0.00000000    0.00000000    0.00000000
     atom    7 type  2   force =     0.00000000    0.00000000    0.00000000
     atom    8 type  2   force =     0.00000000    0.00000000    0.00000000
     atom    9 type  1   force =     0.00000000    0.00000000    0.00000000
     atom   10 type  1   force =     0.00000000    0.00000000    0.00000000
     atom   11 type  2   force =     0.00000000    0.00000000    0.00000000
     atom   12 type  2   force =     0.00000000    0.00000000    0.00000000
     atom   13 type  1   force =     0.00000000    0.00000000    0.00000000
     atom   14 type  1   force =     0.00000000    0.00000000    0.00000000
     atom   15 type  2   force =     0.00000000    0.00000000    0.00000000
     atom   16 type  2   force =     0.00000000    0.00000000    0.00000000
     atom   17 type  1   force =     0.00000000    0.00000000    0.00000000
     atom   18 type  1   force =     0.00000000    0.00000000    0.00000000
     atom   19 type  2   force =     0.00000000    0.00000000    0.00000000
     atom   20 type  2   force =     0.00000000    0.00000000    0.00000000
     atom   21 type  1   force =     0.00000000    0.00000000    0.00000000
     atom   22 type  1   force =     0.00000000    0.00000000    0.00000000
     atom   23 type  2   force =     0.00000000    0.00000000    0.00000000
     atom   24 type  2   force =     0.00000000    0.00000000    0.00000000
     The SCF correction term to forces
     atom    1 type  1   force =     0.00000234    0.00000135   -0.00000098
     atom    2 type  1   force =     0.00000562    0.00000324    0.00000406
     atom    3 type  2   force =     0.00000024    0.00000014   -0.00000291
     atom    4 type  2   force =     0.00000067    0.00000039    0.00000029
     atom    5 type  1   force =     0.00000112    0.00000065    0.00000347
     atom    6 type  1   force =     0.00000172    0.00000100   -0.00000641
     atom    7 type  2   force =     0.00000133    0.00000077    0.00000282
     atom    8 type  2   force =     0.00000040    0.00000023    0.00000038
     atom    9 type  1   force =    -0.00000031   -0.00000018   -0.00000293
     atom   10 type  1   force =     0.00000121    0.00000070    0.00000449
     atom   11 type  2   force =     0.00000027    0.00000015   -0.00000289
     atom   12 type  2   force =     0.00000071    0.00000041    0.00000011
     atom   13 type  1   force =     0.00000022    0.00000013    0.00000312
     atom   14 type  1   force =     0.00000151    0.00000087   -0.00000808
     atom   15 type  2   force =    -0.00000020   -0.00000012    0.00000290
     atom   16 type  2   force =     0.00000052    0.00000030    0.00000150
     atom   17 type  1   force =    -0.00000380   -0.00000219   -0.00000193
     atom   18 type  1   force =    -0.00000400   -0.00000231    0.00000585
     atom   19 type  2   force =    -0.00000026   -0.00000015   -0.00000213
     atom   20 type  2   force =    -0.00000099   -0.00000057    0.00000082
     atom   21 type  1   force =    -0.00000376   -0.00000217   -0.00000132
     atom   22 type  1   force =    -0.00000081   -0.00000047   -0.00000431
     atom   23 type  2   force =    -0.00000121   -0.00000070    0.00000266
     atom   24 type  2   force =    -0.00000084   -0.00000048    0.00000039

     Total force =     0.000544     Total SCF correction =     0.000020

     General routines

     Parallel routines

   This run was terminated on:  17:25:38   7Sep2025

   JOB DONE.
Note: The following floating-point exceptions are signalling: IEEE_INVALID_FLAG
Note: The following floating-point exceptions are signalling: IEEE_INVALID_FLAG
Note: The following floating-point exceptions are signalling: IEEE_INVALID_FLAG
Note: The following floating-point exceptions are signalling: IEEE_INVALID_FLAG
Note: The following floating-point exceptions are signalling: IEEE_INVALID_FLAG
Note: The following floating-point exceptions are signalling: IEEE_INVALID_FLAG
Note: The following floating-point exceptions are signalling: IEEE_INVALID_FLAG
Note: The following floating-point exceptions are signalling: IEEE_INVALID_FLAG