     Program PWSCF v.7.2 starts on  4Sep2025 at 14: 0:47

     Reading input from /home/jvc/QEspresso7.2/ZnO_database/scripts/cell312.in/ZnO-2.94-1.52-312.in
Warning: card &CELL ignored
Warning: card / ignored
Warning: card &FCP ignored
Warning: card / ignored
Warning: card &RISM ignored
Warning: card / ignored

     Current dimensions of program PWSCF are:
     Max number of different atomic species (ntypx) = 10
     Max number of k-points (npk) =  40000
     Max angular momentum in pseudopotentials (lmaxx) =  4
     file Zn.upf: wavefunction(s)  3D renormalized
     Found identity + (  0.0000  0.0000 -0.5000) symmetry
     This is a supercell, fractional translations are disabled
     Message from routine setup:
     using ibrav=0 with symmetry is DISCOURAGED, use correct ibrav instead

     K-points division:     npool     =       8
     R & G space division:  proc/nbgrp/npool/nimage =       8
     Subspace diagonalization in iterative solution of the eigenvalue problem:
     a serial algorithm will be used

     Using Slab Decomposition

     bravais-lattice index     =            0
     lattice parameter (alat)  =      16.6829  a.u.
     unit-cell volume          =    1356.0041 (a.u.)^3
     number of atoms/cell      =           24
     number of atomic types    =            2
     number of electrons       =       216.00
     number of Kohn-Sham states=          108
     kinetic-energy cutoff     =      50.0000  Ry
     charge density cutoff     =     400.0000  Ry
     scf convergence threshold =      1.0E-08
     mixing beta               =       0.3000
     number of iterations used =            8  plain     mixing
     Exchange-correlation= PBE
                           (   1   4   3   4   0   0   0)

     celldm(1)=  16.682906  celldm(2)=   0.000000  celldm(3)=   0.000000
     celldm(4)=   0.000000  celldm(5)=   0.000000  celldm(6)=   0.000000

     crystal axes: (cart. coord. in units of alat)
               a(1) = (   1.000000   0.000000   0.000000 )
               a(2) = (  -0.166667   0.288675   0.000000 )
               a(3) = (   0.000000   0.000000   1.011665 )

     reciprocal axes: (cart. coord. in units 2 pi/alat)
               b(1) = (  1.000000  0.577350 -0.000000 )
               b(2) = (  0.000000  3.464102  0.000000 )
               b(3) = (  0.000000 -0.000000  0.988470 )

     PseudoPot. # 1 for Zn read from file:
     /home/jvc/QEspresso7.2/ZnO_database/pseudos/Zn.upf
     MD5 check sum: 7f56cabf9682ed8c977c2f7d0c5985c5
     Pseudo is Ultrasoft + core correction, Zval = 12.0
     Generated using &quot;atomic&quot; code by A. Dal Corso  v.6.2.2
     Using radial grid of 1201 points,  6 beta functions with:
                l(1) =   0
                l(2) =   0
                l(3) =   1
                l(4) =   1
                l(5) =   2
                l(6) =   2
     Q(r) pseudized with 0 coefficients

     PseudoPot. # 2 for O  read from file:
     /home/jvc/QEspresso7.2/ZnO_database/pseudos/O.upf
     MD5 check sum: 91400c9766925bcf19f520983a725ff0
     Pseudo is Ultrasoft + core correction, Zval =  6.0
     Generated using &quot;atomic&quot; code by A. Dal Corso  v.6.3MaX
     Using radial grid of 1095 points,  4 beta functions with:
                l(1) =   0
                l(2) =   0
                l(3) =   1
                l(4) =   1
     Q(r) pseudized with 0 coefficients

     atomic species   valence    mass     pseudopotential
        Zn            12.00    65.38000     Zn( 1.00)
        O              6.00    15.99900     O ( 1.00)

      2 Sym. Ops. (no inversion) found

                                    s                        frac. trans.

      isym =  1     identity

 cryst.   s( 1) = (     1          0          0      )
                  (     0          1          0      )
                  (     0          0          1      )

 cart.    s( 1) = (  1.0000000  0.0000000  0.0000000 )
                  (  0.0000000  1.0000000  0.0000000 )
                  (  0.0000000  0.0000000  1.0000000 )

      isym =  2     inv. 180 deg rotation - cryst. axis [0,1,0]

 cryst.   s( 2) = (     1          3          0      )
                  (     0         -1          0      )
                  (     0          0          1      )

 cart.    s( 2) = (  0.5000000  0.8660254  0.0000000 )
                  (  0.8660254 -0.5000000  0.0000000 )
                  (  0.0000000  0.0000000  1.0000000 )

   Cartesian axes

     site n.     atom                  positions (alat units)
         1           Zn  tau(   1) = (   0.1666667   0.0962250   0.2532366  )
         2           Zn  tau(   2) = (  -0.0000000   0.1924501   0.0003205  )
         3           O   tau(   3) = (   0.1666667   0.0962250   0.4449687  )
         4           O   tau(   4) = (  -0.0000000   0.1924501   0.1920526  )
         5           Zn  tau(   5) = (   0.1666667   0.0962250   0.7590689  )
         6           Zn  tau(   6) = (  -0.0000000   0.1924501   0.5061528  )
         7           O   tau(   7) = (   0.1666667   0.0962250   0.9508010  )
         8           O   tau(   8) = (  -0.0000000   0.1924501   0.6978849  )
         9           Zn  tau(   9) = (   0.5000000   0.0962250   0.2532366  )
        10           Zn  tau(  10) = (   0.3333333   0.1924501   0.0003205  )
        11           O   tau(  11) = (   0.5000000   0.0962250   0.4449687  )
        12           O   tau(  12) = (   0.3333333   0.1924501   0.1920526  )
        13           Zn  tau(  13) = (   0.5000000   0.0962250   0.7590689  )
        14           Zn  tau(  14) = (   0.3333333   0.1924501   0.5061528  )
        15           O   tau(  15) = (   0.5000000   0.0962250   0.9508010  )
        16           O   tau(  16) = (   0.3333333   0.1924501   0.6978849  )
        17           Zn  tau(  17) = (   0.8333333   0.0962250   0.2532366  )
        18           Zn  tau(  18) = (   0.6666667   0.1924501   0.0003205  )
        19           O   tau(  19) = (   0.8333333   0.0962250   0.4449687  )
        20           O   tau(  20) = (   0.6666667   0.1924501   0.1920526  )
        21           Zn  tau(  21) = (   0.8333333   0.0962250   0.7590689  )
        22           Zn  tau(  22) = (   0.6666667   0.1924501   0.5061528  )
        23           O   tau(  23) = (   0.8333333   0.0962250   0.9508010  )
        24           O   tau(  24) = (   0.6666667   0.1924501   0.6978849  )

   Crystallographic axes

     site n.     atom                  positions (cryst. coord.)
         1           Zn  tau(   1) = (  0.2222222  0.3333333  0.2503168  )
         2           Zn  tau(   2) = (  0.1111111  0.6666667  0.0003168  )
         3           O   tau(   3) = (  0.2222222  0.3333333  0.4398382  )
         4           O   tau(   4) = (  0.1111111  0.6666667  0.1898382  )
         5           Zn  tau(   5) = (  0.2222222  0.3333333  0.7503168  )
         6           Zn  tau(   6) = (  0.1111111  0.6666667  0.5003168  )
         7           O   tau(   7) = (  0.2222222  0.3333333  0.9398382  )
         8           O   tau(   8) = (  0.1111111  0.6666667  0.6898382  )
         9           Zn  tau(   9) = (  0.5555556  0.3333333  0.2503168  )
        10           Zn  tau(  10) = (  0.4444444  0.6666667  0.0003168  )
        11           O   tau(  11) = (  0.5555556  0.3333333  0.4398382  )
        12           O   tau(  12) = (  0.4444444  0.6666667  0.1898382  )
        13           Zn  tau(  13) = (  0.5555556  0.3333333  0.7503168  )
        14           Zn  tau(  14) = (  0.4444444  0.6666667  0.5003168  )
        15           O   tau(  15) = (  0.5555556  0.3333333  0.9398382  )
        16           O   tau(  16) = (  0.4444444  0.6666667  0.6898382  )
        17           Zn  tau(  17) = (  0.8888889  0.3333333  0.2503168  )
        18           Zn  tau(  18) = (  0.7777778  0.6666667  0.0003168  )
        19           O   tau(  19) = (  0.8888889  0.3333333  0.4398382  )
        20           O   tau(  20) = (  0.7777778  0.6666667  0.1898382  )
        21           Zn  tau(  21) = (  0.8888889  0.3333333  0.7503168  )
        22           Zn  tau(  22) = (  0.7777778  0.6666667  0.5003168  )
        23           O   tau(  23) = (  0.8888889  0.3333333  0.9398382  )
        24           O   tau(  24) = (  0.7777778  0.6666667  0.6898382  )

     number of k points=    68
                       cart. coord. in units 2pi/alat
        k(    1) = (   0.0000000   0.0000000   0.0000000), wk =   0.0092593
        k(    2) = (   0.0000000   0.0000000   0.1647450), wk =   0.0185185
        k(    3) = (   0.0000000   0.0000000   0.3294900), wk =   0.0185185
        k(    4) = (   0.0000000   0.0000000  -0.4942350), wk =   0.0092593
        k(    5) = (   0.0000000   0.5773503   0.0000000), wk =   0.0370370
        k(    6) = (   0.0000000   0.5773503   0.1647450), wk =   0.0370370
        k(    7) = (   0.0000000   0.5773503   0.3294900), wk =   0.0370370
        k(    8) = (   0.0000000   0.5773503  -0.4942350), wk =   0.0370370
        k(    9) = (   0.0000000   1.1547005   0.0000000), wk =   0.0185185
        k(   10) = (   0.0000000   1.1547005   0.1647450), wk =   0.0370370
        k(   11) = (   0.0000000   1.1547005   0.3294900), wk =   0.0370370
        k(   12) = (   0.0000000   1.1547005  -0.4942350), wk =   0.0185185
        k(   13) = (   0.0000000  -1.7320508   0.0000000), wk =   0.0185185
        k(   14) = (   0.0000000  -1.7320508   0.1647450), wk =   0.0370370
        k(   15) = (   0.0000000  -1.7320508   0.3294900), wk =   0.0370370
        k(   16) = (   0.0000000  -1.7320508  -0.4942350), wk =   0.0185185
        k(   17) = (   0.1666667   0.0962250   0.0000000), wk =   0.0185185
        k(   18) = (   0.1666667   0.0962250   0.1647450), wk =   0.0185185
        k(   19) = (   0.1666667   0.0962250   0.3294900), wk =   0.0185185
        k(   20) = (   0.1666667   0.0962250  -0.4942350), wk =   0.0185185
        k(   21) = (   0.1666667   0.6735753   0.0000000), wk =   0.0370370
        k(   22) = (   0.1666667   0.6735753   0.1647450), wk =   0.0370370
        k(   23) = (   0.1666667   0.6735753   0.3294900), wk =   0.0370370
        k(   24) = (   0.1666667   0.6735753  -0.4942350), wk =   0.0370370
        k(   25) = (   0.1666667   1.2509256   0.0000000), wk =   0.0370370
        k(   26) = (   0.1666667   1.2509256   0.1647450), wk =   0.0370370
        k(   27) = (   0.1666667   1.2509256   0.3294900), wk =   0.0370370
        k(   28) = (   0.1666667   1.2509256  -0.4942350), wk =   0.0370370
        k(   29) = (   0.1666667  -1.6358258   0.0000000), wk =   0.0370370
        k(   30) = (   0.1666667  -1.6358258   0.1647450), wk =   0.0370370
        k(   31) = (   0.1666667  -1.6358258   0.3294900), wk =   0.0370370
        k(   32) = (   0.1666667  -1.6358258  -0.4942350), wk =   0.0370370
        k(   33) = (   0.1666667  -0.4811252   0.0000000), wk =   0.0370370
        k(   34) = (   0.1666667  -0.4811252   0.1647450), wk =   0.0370370
        k(   35) = (   0.1666667  -0.4811252   0.3294900), wk =   0.0370370
        k(   36) = (   0.1666667  -0.4811252  -0.4942350), wk =   0.0370370
        k(   37) = (   0.3333333   0.1924501   0.0000000), wk =   0.0185185
[...]
     1.0000   1.0000   1.0000   1.0000   1.0000   1.0000   1.0000   1.0000
     1.0000   1.0000   1.0000   1.0000

[...]

          k =-0.5000-0.2887 0.0000 (  8078 PWs)   bands (ev):

[...]

          k =-0.3333 0.3849-0.3295 (  8103 PWs)   bands (ev):

[...]

          k = 1.3333-0.3849-0.3295 (  8088 PWs)   bands (ev):

    -7.1722  -6.9727  -6.7892  -6.6478  -6.5347  -6.4461  -6.4445  -6.3088
    -6.2682  -6.2628  -6.2296  -6.2070   4.5173   4.6169   4.6205   4.6911
     4.7214   4.7796   4.8157   4.8186   4.9899   5.0336   5.0505   5.1591
     5.6405   5.6767   5.7872   5.7873   5.7955   5.8284   5.8477   5.8723
     5.8812   5.8901   5.9385   5.9670   6.0746   6.1557   6.2444   6.3094
     6.3940   6.4671   6.4731   6.5348   6.5965   6.6523   6.6615   6.7735
     7.7984   7.8888   7.8927   8.0237   8.0469   8.0801   8.1085   8.1790
     8.1959   8.2096   8.2267   8.3146   8.4392   8.4942   8.5126   8.5197
     8.5253   8.5272   8.5321   8.5477   8.6401   8.6413   8.6530   8.8800
     8.9790   8.9891   9.0613   9.2476   9.2741   9.4331   9.4886   9.7902
     9.8261   9.8478   9.8548  10.0483  10.0864  10.1434  10.5228  10.5672
    10.6747  10.6836  10.7313  10.8917  11.0325  11.1100  11.2598  11.3294
    11.4331  11.4731  11.7951  11.8933  12.1301  12.1502  12.2954  12.3660
    12.3991  12.6702  12.6744  12.8431

     occupation numbers
     1.0000   1.0000   1.0000   1.0000   1.0000   1.0000   1.0000   1.0000
     1.0000   1.0000   1.0000   1.0000   1.0000   1.0000   1.0000   1.0000
     1.0000   1.0000   1.0000   1.0000   1.0000   1.0000   1.0000   1.0000
     1.0000   1.0000   1.0000   1.0000   1.0000   1.0000   1.0000   1.0000
     1.0000   1.0000   1.0000   1.0000   1.0000   1.0000   1.0000   1.0000
     1.0000   1.0000   1.0000   1.0000   1.0000   1.0000   1.0000   1.0000
     1.0000   1.0000   1.0000   1.0000   1.0000   1.0000   1.0000   1.0000
     1.0000   1.0000   1.0000   1.0000   1.0000   1.0000   1.0000   1.0000
     1.0000   1.0000   1.0000   1.0000   1.0000   1.0000   1.0000   1.0000
     1.0000   1.0000   1.0000   1.0000   1.0000   1.0000   1.0000   1.0000
     1.0000   1.0000   1.0000   1.0000   1.0000   1.0000   1.0000   1.0000
     1.0000   1.0000   1.0000   1.0000   1.0000   1.0000   1.0000   1.0000
     1.0000   1.0000   1.0000   1.0000   1.0000   1.0000   1.0000   1.0000
     1.0000   1.0000   1.0000   1.0000

     highest occupied level (ev):    13.7009

!    total energy              =   -2167.90467729 Ry
     estimated scf accuracy    <          1.3E-10 Ry

     The total energy is the sum of the following terms:
     one-electron contribution =    -656.91681238 Ry
     hartree contribution      =     619.11902324 Ry
     xc contribution           =    -663.19279819 Ry
     ewald contribution        =   -1466.91408996 Ry

     convergence has been achieved in  22 iterations

     Forces acting on atoms (cartesian axes, Ry/au):

     atom    1 type  1   force =     0.00001796    0.00001037   -0.10227228
     atom    2 type  1   force =    -0.00001763   -0.00001018   -0.10227403
     atom    3 type  2   force =    -0.00000249   -0.00000144    0.10227428
     atom    4 type  2   force =     0.00000285    0.00000164    0.10227387
     atom    5 type  1   force =     0.00001678    0.00000969   -0.10227592
     atom    6 type  1   force =    -0.00001715   -0.00000990   -0.10227362
     atom    7 type  2   force =    -0.00000216   -0.00000125    0.10227410
     atom    8 type  2   force =     0.00000284    0.00000164    0.10227444
     atom    9 type  1   force =     0.00001669    0.00000964   -0.10227305
     atom   10 type  1   force =    -0.00001652   -0.00000954   -0.10227379
     atom   11 type  2   force =    -0.00000245   -0.00000141    0.10227469
     atom   12 type  2   force =     0.00000250    0.00000144    0.10227373
     atom   13 type  1   force =     0.00001768    0.00001021   -0.10227548
     atom   14 type  1   force =    -0.00001739   -0.00001004   -0.10227438
     atom   15 type  2   force =    -0.00000287   -0.00000166    0.10227372
     atom   16 type  2   force =     0.00000264    0.00000152    0.10227431
     atom   17 type  1   force =     0.00001683    0.00000972   -0.10227273
     atom   18 type  1   force =    -0.00001730   -0.00000999   -0.10227500
     atom   19 type  2   force =    -0.00000292   -0.00000169    0.10227443
     atom   20 type  2   force =     0.00000239    0.00000138    0.10227403
     atom   21 type  1   force =     0.00001708    0.00000986   -0.10227561
     atom   22 type  1   force =    -0.00001690   -0.00000975   -0.10227378
     atom   23 type  2   force =    -0.00000271   -0.00000157    0.10227383
     atom   24 type  2   force =     0.00000227    0.00000131    0.10227425
     The non-local contrib.  to forces
     atom    1 type  1   force =    -0.00002481   -0.00001432   -0.22285360
     atom    2 type  1   force =     0.00002433    0.00001405   -0.22285481
     atom    3 type  2   force =    -0.00013975   -0.00008068   -0.11664694
     atom    4 type  2   force =     0.00014010    0.00008089   -0.11664781
     atom    5 type  1   force =    -0.00002559   -0.00001477   -0.22285628
     atom    6 type  1   force =     0.00002472    0.00001427   -0.22285468
     atom    7 type  2   force =    -0.00013943   -0.00008050   -0.11664653
     atom    8 type  2   force =     0.00014033    0.00008102   -0.11664603
     atom    9 type  1   force =    -0.00002548   -0.00001471   -0.22285399
     atom   10 type  1   force =     0.00002563    0.00001480   -0.22285398
     atom   11 type  2   force =    -0.00013992   -0.00008078   -0.11664643
     atom   12 type  2   force =     0.00013968    0.00008064   -0.11664776
     atom   13 type  1   force =    -0.00002479   -0.00001431   -0.22285597
     atom   14 type  1   force =     0.00002487    0.00001436   -0.22285528
     atom   15 type  2   force =    -0.00014043   -0.00008107   -0.11664709
     atom   16 type  2   force =     0.00013991    0.00008078   -0.11664647
     atom   17 type  1   force =    -0.00002505   -0.00001446   -0.22285379
     atom   18 type  1   force =     0.00002510    0.00001449   -0.22285529
     atom   19 type  2   force =    -0.00014016   -0.00008092   -0.11664686
     atom   20 type  2   force =     0.00013968    0.00008065   -0.11664740
     atom   21 type  1   force =    -0.00002489   -0.00001437   -0.22285550
     atom   22 type  1   force =     0.00002544    0.00001469   -0.22285468
     atom   23 type  2   force =    -0.00013960   -0.00008060   -0.11664685
     atom   24 type  2   force =     0.00013912    0.00008032   -0.11664636
     The ionic contribution  to forces
     atom    1 type  1   force =     0.00000001    0.00000001   -1.55809773
     atom    2 type  1   force =     0.00000001    0.00000000   -1.55809773
     atom    3 type  2   force =     0.00000000    0.00000000    1.55809773
     atom    4 type  2   force =     0.00000001    0.00000000    1.55809773
     atom    5 type  1   force =     0.00000001    0.00000001   -1.55809773
     atom    6 type  1   force =     0.00000001    0.00000000   -1.55809773
     atom    7 type  2   force =     0.00000000    0.00000000    1.55809773
     atom    8 type  2   force =     0.00000001    0.00000000    1.55809773
     atom    9 type  1   force =    -0.00000002    0.00000000   -1.55809773
     atom   10 type  1   force =     0.00000002   -0.00000000   -1.55809773
     atom   11 type  2   force =    -0.00000001    0.00000001    1.55809773
     atom   12 type  2   force =     0.00000001   -0.00000001    1.55809773
     atom   13 type  1   force =    -0.00000002    0.00000000   -1.55809773
     atom   14 type  1   force =     0.00000002   -0.00000000   -1.55809773
     atom   15 type  2   force =    -0.00000001    0.00000001    1.55809773
     atom   16 type  2   force =     0.00000001   -0.00000001    1.55809773
     atom   17 type  1   force =    -0.00000001   -0.00000000   -1.55809773
     atom   18 type  1   force =    -0.00000001   -0.00000001   -1.55809773
     atom   19 type  2   force =    -0.00000001   -0.00000000    1.55809773
     atom   20 type  2   force =    -0.00000000   -0.00000000    1.55809773
     atom   21 type  1   force =    -0.00000001   -0.00000000   -1.55809773
     atom   22 type  1   force =    -0.00000001   -0.00000001   -1.55809773
     atom   23 type  2   force =    -0.00000001   -0.00000000    1.55809773
     atom   24 type  2   force =    -0.00000000   -0.00000000    1.55809773
     The local contribution  to forces
     atom    1 type  1   force =     0.00004232    0.00002443    1.65469152
     atom    2 type  1   force =    -0.00004147   -0.00002399    1.65469446
     atom    3 type  2   force =     0.00013445    0.00007763   -1.33965368
     atom    4 type  2   force =    -0.00013531   -0.00007813   -1.33965436
     atom    5 type  1   force =     0.00004442    0.00002564    1.65469865
     atom    6 type  1   force =    -0.00004286   -0.00002479    1.65469455
     atom    7 type  2   force =     0.00013491    0.00007789   -1.33965347
     atom    8 type  2   force =    -0.00013444   -0.00007763   -1.33965232
     atom    9 type  1   force =     0.00004424    0.00002563    1.65469265
     atom   10 type  1   force =    -0.00004468   -0.00002588    1.65469284
     atom   11 type  2   force =     0.00013500    0.00007797   -1.33965329
     atom   12 type  2   force =    -0.00013480   -0.00007785   -1.33965554
     atom   13 type  1   force =     0.00004250    0.00002462    1.65469723
     atom   14 type  1   force =    -0.00004278   -0.00002478    1.65469594
     atom   15 type  2   force =     0.00013449    0.00007767   -1.33965393
     atom   16 type  2   force =    -0.00013493   -0.00007792   -1.33965207
     atom   17 type  1   force =     0.00004347    0.00002514    1.65469221
     atom   18 type  1   force =    -0.00004359   -0.00002517    1.65469559
     atom   19 type  2   force =     0.00013480    0.00007784   -1.33965392
     atom   20 type  2   force =    -0.00013494   -0.00007791   -1.33965452
     atom   21 type  1   force =     0.00004308    0.00002491    1.65469659
     atom   22 type  1   force =    -0.00004409   -0.00002546    1.65469464
     atom   23 type  2   force =     0.00013506    0.00007799   -1.33965341
     atom   24 type  2   force =    -0.00013460   -0.00007771   -1.33965291
     The core correction contribution to forces
     atom    1 type  1   force =    -0.00000216   -0.00000125    0.02398657
     atom    2 type  1   force =     0.00000215    0.00000123    0.02398658
     atom    3 type  2   force =     0.00000157    0.00000091    0.00047837
     atom    4 type  2   force =    -0.00000158   -0.00000091    0.00047838
     atom    5 type  1   force =    -0.00000218   -0.00000126    0.02398652
     atom    6 type  1   force =     0.00000218    0.00000125    0.02398654
     atom    7 type  2   force =     0.00000157    0.00000091    0.00047837
     atom    8 type  2   force =    -0.00000158   -0.00000091    0.00047836
     atom    9 type  1   force =    -0.00000219   -0.00000125    0.02398655
     atom   10 type  1   force =     0.00000220    0.00000126    0.02398659
     atom   11 type  2   force =     0.00000158    0.00000091    0.00047837
     atom   12 type  2   force =    -0.00000157   -0.00000091    0.00047838
     atom   13 type  1   force =    -0.00000217   -0.00000124    0.02398656
     atom   14 type  1   force =     0.00000218    0.00000124    0.02398653
     atom   15 type  2   force =     0.00000158    0.00000091    0.00047837
     atom   16 type  2   force =    -0.00000158   -0.00000091    0.00047837
     atom   17 type  1   force =    -0.00000219   -0.00000126    0.02398656
     atom   18 type  1   force =     0.00000220    0.00000127    0.02398658
     atom   19 type  2   force =     0.00000158    0.00000091    0.00047837
     atom   20 type  2   force =    -0.00000157   -0.00000091    0.00047838
     atom   21 type  1   force =    -0.00000218   -0.00000125    0.02398657
     atom   22 type  1   force =     0.00000217    0.00000125    0.02398654
     atom   23 type  2   force =     0.00000157    0.00000091    0.00047837
     atom   24 type  2   force =    -0.00000156   -0.00000090    0.00047837
     The Hubbard contrib.    to forces
     atom    1 type  1   force =     0.00000000    0.00000000    0.00000000
     atom    2 type  1   force =     0.00000000    0.00000000    0.00000000
     atom    3 type  2   force =     0.00000000    0.00000000    0.00000000
     atom    4 type  2   force =     0.00000000    0.00000000    0.00000000
     atom    5 type  1   force =     0.00000000    0.00000000    0.00000000
     atom    6 type  1   force =     0.00000000    0.00000000    0.00000000
     atom    7 type  2   force =     0.00000000    0.00000000    0.00000000
     atom    8 type  2   force =     0.00000000    0.00000000    0.00000000
     atom    9 type  1   force =     0.00000000    0.00000000    0.00000000
     atom   10 type  1   force =     0.00000000    0.00000000    0.00000000
     atom   11 type  2   force =     0.00000000    0.00000000    0.00000000
     atom   12 type  2   force =     0.00000000    0.00000000    0.00000000
     atom   13 type  1   force =     0.00000000    0.00000000    0.00000000
     atom   14 type  1   force =     0.00000000    0.00000000    0.00000000
     atom   15 type  2   force =     0.00000000    0.00000000    0.00000000
     atom   16 type  2   force =     0.00000000    0.00000000    0.00000000
     atom   17 type  1   force =     0.00000000    0.00000000    0.00000000
     atom   18 type  1   force =     0.00000000    0.00000000    0.00000000
     atom   19 type  2   force =     0.00000000    0.00000000    0.00000000
     atom   20 type  2   force =     0.00000000    0.00000000    0.00000000
     atom   21 type  1   force =     0.00000000    0.00000000    0.00000000
     atom   22 type  1   force =     0.00000000    0.00000000    0.00000000
     atom   23 type  2   force =     0.00000000    0.00000000    0.00000000
     atom   24 type  2   force =     0.00000000    0.00000000    0.00000000
     The SCF correction term to forces
     atom    1 type  1   force =     0.00000259    0.00000149    0.00000301
     atom    2 type  1   force =    -0.00000263   -0.00000152   -0.00000048
     atom    3 type  2   force =     0.00000121    0.00000070    0.00000086
     atom    4 type  2   force =    -0.00000038   -0.00000022    0.00000198
     atom    5 type  1   force =     0.00000010    0.00000006   -0.00000503
     atom    6 type  1   force =    -0.00000121   -0.00000070   -0.00000024
     atom    7 type  2   force =     0.00000076    0.00000044    0.00000006
     atom    8 type  2   force =    -0.00000149   -0.00000086   -0.00000125
     atom    9 type  1   force =     0.00000006    0.00000004    0.00000151
     atom   10 type  1   force =     0.00000034    0.00000020    0.00000054
     atom   11 type  2   force =     0.00000087    0.00000050    0.00000036
     atom   12 type  2   force =    -0.00000082   -0.00000047    0.00000297
     atom   13 type  1   force =     0.00000208    0.00000120   -0.00000351
     atom   14 type  1   force =    -0.00000165   -0.00000096   -0.00000179
     atom   15 type  2   force =     0.00000146    0.00000084    0.00000069
     atom   16 type  2   force =    -0.00000078   -0.00000045   -0.00000120
     atom   17 type  1   force =     0.00000056    0.00000032    0.00000207
     atom   18 type  1   force =    -0.00000102   -0.00000059   -0.00000211
     atom   19 type  2   force =     0.00000084    0.00000048    0.00000116
     atom   20 type  2   force =    -0.00000079   -0.00000046    0.00000191
     atom   21 type  1   force =     0.00000104    0.00000060   -0.00000349
     atom   22 type  1   force =    -0.00000043   -0.00000025   -0.00000050
     atom   23 type  2   force =     0.00000023    0.00000014    0.00000005
     atom   24 type  2   force =    -0.00000070   -0.00000041   -0.00000053

     Total force =     0.501039     Total SCF correction =     0.000012

     General routines

     Parallel routines

   This run was terminated on:  14: 9:23   4Sep2025

   JOB DONE.
Note: The following floating-point exceptions are signalling: IEEE_INVALID_FLAG
Note: The following floating-point exceptions are signalling: IEEE_INVALID_FLAG
Note: The following floating-point exceptions are signalling: IEEE_INVALID_FLAG
Note: The following floating-point exceptions are signalling: IEEE_INVALID_FLAG
Note: The following floating-point exceptions are signalling: IEEE_INVALID_FLAG
Note: The following floating-point exceptions are signalling: IEEE_INVALID_FLAG
Note: The following floating-point exceptions are signalling: IEEE_INVALID_FLAG
Note: The following floating-point exceptions are signalling: IEEE_INVALID_FLAG