     Program PWSCF v.7.2 starts on  7Sep2025 at 21:16:36

     Reading input from /home/jvc/QEspresso7.2/ZnO_database/scripts/cell312.in/ZnO-3.53-1.58-312.in
Warning: card &CELL ignored
Warning: card / ignored
Warning: card &FCP ignored
Warning: card / ignored
Warning: card &RISM ignored
Warning: card / ignored

     Current dimensions of program PWSCF are:
     Max number of different atomic species (ntypx) = 10
     Max number of k-points (npk) =  40000
     Max angular momentum in pseudopotentials (lmaxx) =  4
     file Zn.upf: wavefunction(s)  3D renormalized
     Found identity + (  0.0000  0.0000  0.5000) symmetry
     This is a supercell, fractional translations are disabled
     Message from routine setup:
     using ibrav=0 with symmetry is DISCOURAGED, use correct ibrav instead

     K-points division:     npool     =       8
     R & G space division:  proc/nbgrp/npool/nimage =       8
     Subspace diagonalization in iterative solution of the eigenvalue problem:
     a serial algorithm will be used

     Using Slab Decomposition

     bravais-lattice index     =            0
     lattice parameter (alat)  =      20.0195  a.u.
     unit-cell volume          =    2442.8847 (a.u.)^3
     number of atoms/cell      =           24
     number of atomic types    =            2
     number of electrons       =       216.00
     number of Kohn-Sham states=          108
     kinetic-energy cutoff     =      50.0000  Ry
     charge density cutoff     =     400.0000  Ry
     scf convergence threshold =      1.0E-08
     mixing beta               =       0.3000
     number of iterations used =            8  plain     mixing
     Exchange-correlation= PBE
                           (   1   4   3   4   0   0   0)

     celldm(1)=  20.019487  celldm(2)=   0.000000  celldm(3)=   0.000000
     celldm(4)=   0.000000  celldm(5)=   0.000000  celldm(6)=   0.000000

     crystal axes: (cart. coord. in units of alat)
               a(1) = (   1.000000   0.000000   0.000000 )
               a(2) = (  -0.166667   0.288675   0.000000 )
               a(3) = (   0.000000   0.000000   1.054714 )

     reciprocal axes: (cart. coord. in units 2 pi/alat)
               b(1) = (  1.000000  0.577350 -0.000000 )
               b(2) = (  0.000000  3.464102  0.000000 )
               b(3) = (  0.000000 -0.000000  0.948124 )

     PseudoPot. # 1 for Zn read from file:
     /home/jvc/QEspresso7.2/ZnO_database/pseudos/Zn.upf
     MD5 check sum: 7f56cabf9682ed8c977c2f7d0c5985c5
     Pseudo is Ultrasoft + core correction, Zval = 12.0
     Generated using &quot;atomic&quot; code by A. Dal Corso  v.6.2.2
     Using radial grid of 1201 points,  6 beta functions with:
                l(1) =   0
                l(2) =   0
                l(3) =   1
                l(4) =   1
                l(5) =   2
                l(6) =   2
     Q(r) pseudized with 0 coefficients

     PseudoPot. # 2 for O  read from file:
     /home/jvc/QEspresso7.2/ZnO_database/pseudos/O.upf
     MD5 check sum: 91400c9766925bcf19f520983a725ff0
     Pseudo is Ultrasoft + core correction, Zval =  6.0
     Generated using &quot;atomic&quot; code by A. Dal Corso  v.6.3MaX
     Using radial grid of 1095 points,  4 beta functions with:
                l(1) =   0
                l(2) =   0
                l(3) =   1
                l(4) =   1
     Q(r) pseudized with 0 coefficients

     atomic species   valence    mass     pseudopotential
        Zn            12.00    65.38000     Zn( 1.00)
        O              6.00    15.99900     O ( 1.00)

      2 Sym. Ops. (no inversion) found

                                    s                        frac. trans.

      isym =  1     identity

 cryst.   s( 1) = (     1          0          0      )
                  (     0          1          0      )
                  (     0          0          1      )

 cart.    s( 1) = (  1.0000000 -0.0000000  0.0000000 )
                  (  0.0000000  1.0000000  0.0000000 )
                  (  0.0000000  0.0000000  1.0000000 )

      isym =  2     inv. 180 deg rotation - cryst. axis [0,1,0]

 cryst.   s( 2) = (     1          3          0      )
                  (     0         -1          0      )
                  (     0          0          1      )

 cart.    s( 2) = (  0.5000000  0.8660254  0.0000000 )
                  (  0.8660254 -0.5000000  0.0000000 )
                  (  0.0000000  0.0000000  1.0000000 )

   Cartesian axes

     site n.     atom                  positions (alat units)
         1           Zn  tau(   1) = (   0.1666667   0.0962250   0.2640127  )
         2           Zn  tau(   2) = (  -0.0000000   0.1924501   0.0003341  )
         3           O   tau(   3) = (   0.1666667   0.0962250   0.4639036  )
         4           O   tau(   4) = (  -0.0000000   0.1924501   0.2002250  )
         5           Zn  tau(   5) = (   0.1666667   0.0962250   0.7913697  )
         6           Zn  tau(   6) = (  -0.0000000   0.1924501   0.5276912  )
         7           O   tau(   7) = (   0.1666667   0.0962250   0.9912606  )
         8           O   tau(   8) = (  -0.0000000   0.1924501   0.7275821  )
         9           Zn  tau(   9) = (   0.5000000   0.0962250   0.2640127  )
        10           Zn  tau(  10) = (   0.3333333   0.1924501   0.0003341  )
        11           O   tau(  11) = (   0.5000000   0.0962250   0.4639036  )
        12           O   tau(  12) = (   0.3333333   0.1924501   0.2002250  )
        13           Zn  tau(  13) = (   0.5000000   0.0962250   0.7913697  )
        14           Zn  tau(  14) = (   0.3333333   0.1924501   0.5276912  )
        15           O   tau(  15) = (   0.5000000   0.0962250   0.9912606  )
        16           O   tau(  16) = (   0.3333333   0.1924501   0.7275821  )
        17           Zn  tau(  17) = (   0.8333333   0.0962250   0.2640127  )
        18           Zn  tau(  18) = (   0.6666667   0.1924501   0.0003341  )
        19           O   tau(  19) = (   0.8333333   0.0962250   0.4639036  )
        20           O   tau(  20) = (   0.6666667   0.1924501   0.2002250  )
        21           Zn  tau(  21) = (   0.8333333   0.0962250   0.7913697  )
        22           Zn  tau(  22) = (   0.6666667   0.1924501   0.5276912  )
        23           O   tau(  23) = (   0.8333333   0.0962250   0.9912606  )
        24           O   tau(  24) = (   0.6666667   0.1924501   0.7275821  )

   Crystallographic axes

     site n.     atom                  positions (cryst. coord.)
         1           Zn  tau(   1) = (  0.2222222  0.3333333  0.2503168  )
         2           Zn  tau(   2) = (  0.1111111  0.6666667  0.0003168  )
         3           O   tau(   3) = (  0.2222222  0.3333333  0.4398382  )
         4           O   tau(   4) = (  0.1111111  0.6666667  0.1898382  )
         5           Zn  tau(   5) = (  0.2222222  0.3333333  0.7503168  )
         6           Zn  tau(   6) = (  0.1111111  0.6666667  0.5003168  )
         7           O   tau(   7) = (  0.2222222  0.3333333  0.9398382  )
         8           O   tau(   8) = (  0.1111111  0.6666667  0.6898382  )
         9           Zn  tau(   9) = (  0.5555556  0.3333333  0.2503168  )
        10           Zn  tau(  10) = (  0.4444444  0.6666667  0.0003168  )
        11           O   tau(  11) = (  0.5555556  0.3333333  0.4398382  )
        12           O   tau(  12) = (  0.4444444  0.6666667  0.1898382  )
        13           Zn  tau(  13) = (  0.5555556  0.3333333  0.7503168  )
        14           Zn  tau(  14) = (  0.4444444  0.6666667  0.5003168  )
        15           O   tau(  15) = (  0.5555556  0.3333333  0.9398382  )
        16           O   tau(  16) = (  0.4444444  0.6666667  0.6898382  )
        17           Zn  tau(  17) = (  0.8888889  0.3333333  0.2503168  )
        18           Zn  tau(  18) = (  0.7777778  0.6666667  0.0003168  )
        19           O   tau(  19) = (  0.8888889  0.3333333  0.4398382  )
        20           O   tau(  20) = (  0.7777778  0.6666667  0.1898382  )
        21           Zn  tau(  21) = (  0.8888889  0.3333333  0.7503168  )
        22           Zn  tau(  22) = (  0.7777778  0.6666667  0.5003168  )
        23           O   tau(  23) = (  0.8888889  0.3333333  0.9398382  )
        24           O   tau(  24) = (  0.7777778  0.6666667  0.6898382  )

     number of k points=    68
                       cart. coord. in units 2pi/alat
        k(    1) = (   0.0000000   0.0000000   0.0000000), wk =   0.0092593
        k(    2) = (   0.0000000   0.0000000   0.1580207), wk =   0.0185185
        k(    3) = (   0.0000000   0.0000000   0.3160414), wk =   0.0185185
        k(    4) = (   0.0000000   0.0000000  -0.4740621), wk =   0.0092593
        k(    5) = (   0.0000000   0.5773503   0.0000000), wk =   0.0370370
        k(    6) = (   0.0000000   0.5773503   0.1580207), wk =   0.0370370
        k(    7) = (   0.0000000   0.5773503   0.3160414), wk =   0.0370370
        k(    8) = (   0.0000000   0.5773503  -0.4740621), wk =   0.0370370
        k(    9) = (   0.0000000   1.1547005   0.0000000), wk =   0.0185185
        k(   10) = (   0.0000000   1.1547005   0.1580207), wk =   0.0370370
        k(   11) = (   0.0000000   1.1547005   0.3160414), wk =   0.0370370
        k(   12) = (   0.0000000   1.1547005  -0.4740621), wk =   0.0185185
        k(   13) = (   0.0000000  -1.7320508   0.0000000), wk =   0.0185185
        k(   14) = (   0.0000000  -1.7320508   0.1580207), wk =   0.0370370
        k(   15) = (   0.0000000  -1.7320508   0.3160414), wk =   0.0370370
        k(   16) = (   0.0000000  -1.7320508  -0.4740621), wk =   0.0185185
        k(   17) = (   0.1666667   0.0962250   0.0000000), wk =   0.0185185
        k(   18) = (   0.1666667   0.0962250   0.1580207), wk =   0.0185185
        k(   19) = (   0.1666667   0.0962250   0.3160414), wk =   0.0185185
        k(   20) = (   0.1666667   0.0962250  -0.4740621), wk =   0.0185185
        k(   21) = (   0.1666667   0.6735753   0.0000000), wk =   0.0370370
        k(   22) = (   0.1666667   0.6735753   0.1580207), wk =   0.0370370
        k(   23) = (   0.1666667   0.6735753   0.3160414), wk =   0.0370370
        k(   24) = (   0.1666667   0.6735753  -0.4740621), wk =   0.0370370
        k(   25) = (   0.1666667   1.2509256   0.0000000), wk =   0.0370370
        k(   26) = (   0.1666667   1.2509256   0.1580207), wk =   0.0370370
        k(   27) = (   0.1666667   1.2509256   0.3160414), wk =   0.0370370
        k(   28) = (   0.1666667   1.2509256  -0.4740621), wk =   0.0370370
        k(   29) = (   0.1666667  -1.6358258   0.0000000), wk =   0.0370370
        k(   30) = (   0.1666667  -1.6358258   0.1580207), wk =   0.0370370
        k(   31) = (   0.1666667  -1.6358258   0.3160414), wk =   0.0370370
        k(   32) = (   0.1666667  -1.6358258  -0.4740621), wk =   0.0370370
        k(   33) = (   0.1666667  -0.4811252   0.0000000), wk =   0.0370370
        k(   34) = (   0.1666667  -0.4811252   0.1580207), wk =   0.0370370
        k(   35) = (   0.1666667  -0.4811252   0.3160414), wk =   0.0370370
        k(   36) = (   0.1666667  -0.4811252  -0.4740621), wk =   0.0370370
        k(   37) = (   0.3333333   0.1924501   0.0000000), wk =   0.0185185
[...]
     1.0000   1.0000   1.0000   1.0000

[...]

          k =-0.5000-0.2887 0.0000 ( 14596 PWs)   bands (ev):

[...]

          k =-0.3333 0.3849-0.3160 ( 14614 PWs)   bands (ev):

[...]

          k = 1.3333-0.3849-0.3160 ( 14564 PWs)   bands (ev):

   -12.0929 -12.0396 -11.9791 -11.9437 -11.9048 -11.8959 -11.8848 -11.8517
   -11.8442 -11.8364 -11.8211 -11.8199  -0.7964  -0.7801  -0.7700  -0.7553
    -0.7080  -0.7065  -0.6937  -0.6835  -0.6625  -0.6214  -0.6105  -0.6094
    -0.5954  -0.5798  -0.5509  -0.5450  -0.5403  -0.5396  -0.5178  -0.4731
    -0.4624  -0.4544  -0.4148  -0.4081  -0.3919  -0.3871  -0.3786  -0.3696
    -0.3321  -0.3245  -0.3192  -0.3119  -0.3004  -0.2966  -0.2583  -0.2393
    -0.1725  -0.1305  -0.1303  -0.1139  -0.1100  -0.1021  -0.0891  -0.0880
    -0.0842  -0.0763  -0.0735  -0.0578  -0.0353  -0.0157  -0.0090  -0.0029
     0.0196   0.0375   0.0634   0.0670   0.0825   0.1134   0.1230   0.1252
     0.9771   0.9856   0.9868   1.0380   1.1118   1.1635   1.2945   1.3379
     1.3775   1.4698   1.8365   1.8726   1.9693   2.1153   2.2367   2.3824
     2.5804   2.5919   2.6220   2.7548   2.7912   2.8708   2.9070   3.0311
     3.0507   3.0588   3.2465   3.2466   3.4020   3.4272   3.4912   3.5014
     3.5110   3.6308   3.6633   3.7429

     occupation numbers
     1.0000   1.0000   1.0000   1.0000   1.0000   1.0000   1.0000   1.0000
     1.0000   1.0000   1.0000   1.0000   1.0000   1.0000   1.0000   1.0000
     1.0000   1.0000   1.0000   1.0000   1.0000   1.0000   1.0000   1.0000
     1.0000   1.0000   1.0000   1.0000   1.0000   1.0000   1.0000   1.0000
     1.0000   1.0000   1.0000   1.0000   1.0000   1.0000   1.0000   1.0000
     1.0000   1.0000   1.0000   1.0000   1.0000   1.0000   1.0000   1.0000
     1.0000   1.0000   1.0000   1.0000   1.0000   1.0000   1.0000   1.0000
     1.0000   1.0000   1.0000   1.0000   1.0000   1.0000   1.0000   1.0000
     1.0000   1.0000   1.0000   1.0000   1.0000   1.0000   1.0000   1.0000
     1.0000   1.0000   1.0000   1.0000   1.0000   1.0000   1.0000   1.0000
     1.0000   1.0000   1.0000   1.0000   1.0000   1.0000   1.0000   1.0000
     1.0000   1.0000   1.0000   1.0000   1.0000   1.0000   1.0000   1.0000
     1.0000   1.0000   1.0000   1.0000   1.0000   1.0000   1.0000   1.0000
     1.0000   1.0000   1.0000   1.0000

     highest occupied level (ev):     4.1568

!    total energy              =   -2169.51861319 Ry
     estimated scf accuracy    <          5.8E-09 Ry

     The total energy is the sum of the following terms:
     one-electron contribution =   -1068.78332875 Ry
     hartree contribution      =     761.23532236 Ry
     xc contribution           =    -654.97838299 Ry
     ewald contribution        =   -1206.99222381 Ry

     convergence has been achieved in  39 iterations

     Forces acting on atoms (cartesian axes, Ry/au):

     atom    1 type  1   force =    -0.00000617   -0.00000356   -0.00012388
     atom    2 type  1   force =    -0.00000843   -0.00000487   -0.00012038
     atom    3 type  2   force =    -0.00000440   -0.00000254    0.00013501
     atom    4 type  2   force =     0.00000670    0.00000387    0.00012995
     atom    5 type  1   force =    -0.00000774   -0.00000447   -0.00014237
     atom    6 type  1   force =    -0.00000019   -0.00000011   -0.00014420
     atom    7 type  2   force =    -0.00000273   -0.00000158    0.00012886
     atom    8 type  2   force =     0.00000622    0.00000359    0.00013456
     atom    9 type  1   force =    -0.00000163   -0.00000094   -0.00012486
     atom   10 type  1   force =     0.00000439    0.00000254   -0.00011955
     atom   11 type  2   force =    -0.00000508   -0.00000293    0.00013473
     atom   12 type  2   force =     0.00000528    0.00000305    0.00012979
     atom   13 type  1   force =     0.00000229    0.00000132   -0.00013898
     atom   14 type  1   force =     0.00000040    0.00000023   -0.00014238
     atom   15 type  2   force =    -0.00000732   -0.00000423    0.00012916
     atom   16 type  2   force =     0.00000521    0.00000301    0.00013471
     atom   17 type  1   force =     0.00000093    0.00000053   -0.00012753
     atom   18 type  1   force =     0.00001058    0.00000611   -0.00012438
     atom   19 type  2   force =    -0.00000597   -0.00000345    0.00013429
     atom   20 type  2   force =     0.00000375    0.00000216    0.00013058
     atom   21 type  1   force =    -0.00000166   -0.00000096   -0.00013382
     atom   22 type  1   force =     0.00000685    0.00000396   -0.00014077
     atom   23 type  2   force =    -0.00000550   -0.00000317    0.00012859
     atom   24 type  2   force =     0.00000420    0.00000242    0.00013290
     The non-local contrib.  to forces
     atom    1 type  1   force =     0.00001426    0.00000823   -0.05626728
     atom    2 type  1   force =    -0.00002702   -0.00001560   -0.05626402
     atom    3 type  2   force =    -0.00020675   -0.00011937   -0.04517439
     atom    4 type  2   force =     0.00021080    0.00012170   -0.04518483
     atom    5 type  1   force =     0.00001362    0.00000787   -0.05628066
     atom    6 type  1   force =    -0.00002106   -0.00001216   -0.05628629
     atom    7 type  2   force =    -0.00020373   -0.00011762   -0.04518403
     atom    8 type  2   force =     0.00021178    0.00012227   -0.04517100
     atom    9 type  1   force =     0.00001905    0.00001100   -0.05627041
     atom   10 type  1   force =    -0.00001449   -0.00000837   -0.05626286
     atom   11 type  2   force =    -0.00020897   -0.00012065   -0.04517452
     atom   12 type  2   force =     0.00020957    0.00012099   -0.04518530
     atom   13 type  1   force =     0.00002251    0.00001299   -0.05627780
     atom   14 type  1   force =    -0.00001994   -0.00001151   -0.05628443
     atom   15 type  2   force =    -0.00021533   -0.00012432   -0.04518392
     atom   16 type  2   force =     0.00020919    0.00012078   -0.04517181
     atom   17 type  1   force =     0.00002173    0.00001255   -0.05627437
     atom   18 type  1   force =    -0.00001274   -0.00000735   -0.05626557
     atom   19 type  2   force =    -0.00021073   -0.00012167   -0.04517466
     atom   20 type  2   force =     0.00020555    0.00011868   -0.04518063
     atom   21 type  1   force =     0.00001973    0.00001139   -0.05627548
     atom   22 type  1   force =    -0.00001454   -0.00000840   -0.05628345
     atom   23 type  2   force =    -0.00020722   -0.00011964   -0.04518243
     atom   24 type  2   force =     0.00020577    0.00011880   -0.04517659
     The ionic contribution  to forces
     atom    1 type  1   force =     0.00000001    0.00000001   -0.30712516
     atom    2 type  1   force =     0.00000001    0.00000000   -0.30712516
     atom    3 type  2   force =     0.00000000    0.00000000    0.30712516
     atom    4 type  2   force =     0.00000000    0.00000000    0.30712516
     atom    5 type  1   force =     0.00000001    0.00000001   -0.30712516
     atom    6 type  1   force =     0.00000001    0.00000000   -0.30712516
     atom    7 type  2   force =     0.00000000    0.00000000    0.30712516
     atom    8 type  2   force =     0.00000000    0.00000000    0.30712516
     atom    9 type  1   force =    -0.00000001    0.00000000   -0.30712516
     atom   10 type  1   force =     0.00000001   -0.00000000   -0.30712516
     atom   11 type  2   force =    -0.00000001    0.00000000    0.30712516
     atom   12 type  2   force =     0.00000001   -0.00000000    0.30712516
     atom   13 type  1   force =    -0.00000001    0.00000000   -0.30712516
     atom   14 type  1   force =     0.00000001   -0.00000000   -0.30712516
     atom   15 type  2   force =    -0.00000001    0.00000000    0.30712516
     atom   16 type  2   force =     0.00000001   -0.00000000    0.30712516
     atom   17 type  1   force =    -0.00000001   -0.00000000   -0.30712516
     atom   18 type  1   force =    -0.00000001   -0.00000001   -0.30712516
     atom   19 type  2   force =    -0.00000000   -0.00000000    0.30712516
     atom   20 type  2   force =    -0.00000000   -0.00000000    0.30712516
     atom   21 type  1   force =    -0.00000001   -0.00000000   -0.30712516
     atom   22 type  1   force =    -0.00000001   -0.00000001   -0.30712516
     atom   23 type  2   force =    -0.00000000   -0.00000000    0.30712516
     atom   24 type  2   force =    -0.00000000   -0.00000000    0.30712516
     The local contribution  to forces
     atom    1 type  1   force =    -0.00000435   -0.00000251    0.35979809
     atom    2 type  1   force =     0.00003787    0.00002181    0.35979239
     atom    3 type  2   force =     0.00020360    0.00011755   -0.26219026
     atom    4 type  2   force =    -0.00019779   -0.00011421   -0.26219888
     atom    5 type  1   force =    -0.00000380   -0.00000219    0.35983480
     atom    6 type  1   force =     0.00001953    0.00001122    0.35984060
     atom    7 type  2   force =     0.00020478    0.00011823   -0.26219751
     atom    8 type  2   force =    -0.00019964   -0.00011528   -0.26219217
     atom    9 type  1   force =    -0.00001641   -0.00000937    0.35980493
     atom   10 type  1   force =     0.00000728    0.00000410    0.35979108
     atom   11 type  2   force =     0.00020125    0.00011622   -0.26219130
     atom   12 type  2   force =    -0.00020155   -0.00011640   -0.26219938
     atom   13 type  1   force =    -0.00002440   -0.00001398    0.35982771
     atom   14 type  1   force =     0.00001977    0.00001131    0.35983711
     atom   15 type  2   force =     0.00020074    0.00011593   -0.26219714
     atom   16 type  2   force =    -0.00020196   -0.00011663   -0.26219011
     atom   17 type  1   force =    -0.00002287   -0.00001315    0.35981017
     atom   18 type  1   force =    -0.00000261   -0.00000151    0.35980105
     atom   19 type  2   force =     0.00019963    0.00011527   -0.26219200
     atom   20 type  2   force =    -0.00020428   -0.00011794   -0.26219997
     atom   21 type  1   force =    -0.00001611   -0.00000924    0.35981651
     atom   22 type  1   force =     0.00000460    0.00000266    0.35983343
     atom   23 type  2   force =     0.00019857    0.00011466   -0.26220086
     atom   24 type  2   force =    -0.00020349   -0.00011748   -0.26219067
     The core correction contribution to forces
     atom    1 type  1   force =    -0.00000643   -0.00000379    0.00345179
     atom    2 type  1   force =     0.00000582    0.00000337    0.00345102
     atom    3 type  2   force =     0.00000233    0.00000134    0.00038315
     atom    4 type  2   force =    -0.00000239   -0.00000138    0.00038185
     atom    5 type  1   force =    -0.00000638   -0.00000376    0.00344761
     atom    6 type  1   force =     0.00000638    0.00000369    0.00344873
     atom    7 type  2   force =     0.00000229    0.00000132    0.00038074
     atom    8 type  2   force =    -0.00000240   -0.00000138    0.00038199
     atom    9 type  1   force =    -0.00000605   -0.00000365    0.00345165
     atom   10 type  1   force =     0.00000618    0.00000373    0.00345092
     atom   11 type  2   force =     0.00000236    0.00000137    0.00038314
     atom   12 type  2   force =    -0.00000237   -0.00000137    0.00038184
     atom   13 type  1   force =    -0.00000597   -0.00000361    0.00344764
     atom   14 type  1   force =     0.00000593    0.00000358    0.00344867
     atom   15 type  2   force =     0.00000245    0.00000142    0.00038072
     atom   16 type  2   force =    -0.00000237   -0.00000137    0.00038200
     atom   17 type  1   force =    -0.00000626   -0.00000362    0.00345185
     atom   18 type  1   force =     0.00000672    0.00000396    0.00345058
     atom   19 type  2   force =     0.00000239    0.00000138    0.00038315
     atom   20 type  2   force =    -0.00000231   -0.00000133    0.00038179
     atom   21 type  1   force =    -0.00000640   -0.00000370    0.00344820
     atom   22 type  1   force =     0.00000644    0.00000379    0.00344888
     atom   23 type  2   force =     0.00000233    0.00000135    0.00038070
     atom   24 type  2   force =    -0.00000232   -0.00000134    0.00038208
     The Hubbard contrib.    to forces
     atom    1 type  1   force =     0.00000000    0.00000000    0.00000000
     atom    2 type  1   force =     0.00000000    0.00000000    0.00000000
     atom    3 type  2   force =     0.00000000    0.00000000    0.00000000
     atom    4 type  2   force =     0.00000000    0.00000000    0.00000000
     atom    5 type  1   force =     0.00000000    0.00000000    0.00000000
     atom    6 type  1   force =     0.00000000    0.00000000    0.00000000
     atom    7 type  2   force =     0.00000000    0.00000000    0.00000000
     atom    8 type  2   force =     0.00000000    0.00000000    0.00000000
     atom    9 type  1   force =     0.00000000    0.00000000    0.00000000
     atom   10 type  1   force =     0.00000000    0.00000000    0.00000000
     atom   11 type  2   force =     0.00000000    0.00000000    0.00000000
     atom   12 type  2   force =     0.00000000    0.00000000    0.00000000
     atom   13 type  1   force =     0.00000000    0.00000000    0.00000000
     atom   14 type  1   force =     0.00000000    0.00000000    0.00000000
     atom   15 type  2   force =     0.00000000    0.00000000    0.00000000
     atom   16 type  2   force =     0.00000000    0.00000000    0.00000000
     atom   17 type  1   force =     0.00000000    0.00000000    0.00000000
     atom   18 type  1   force =     0.00000000    0.00000000    0.00000000
     atom   19 type  2   force =     0.00000000    0.00000000    0.00000000
     atom   20 type  2   force =     0.00000000    0.00000000    0.00000000
     atom   21 type  1   force =     0.00000000    0.00000000    0.00000000
     atom   22 type  1   force =     0.00000000    0.00000000    0.00000000
     atom   23 type  2   force =     0.00000000    0.00000000    0.00000000
     atom   24 type  2   force =     0.00000000    0.00000000    0.00000000
     The SCF correction term to forces
     atom    1 type  1   force =    -0.00000964   -0.00000557    0.00001998
     atom    2 type  1   force =    -0.00002510   -0.00001449    0.00002671
     atom    3 type  2   force =    -0.00000360   -0.00000208   -0.00000735
     atom    4 type  2   force =    -0.00000393   -0.00000227    0.00000796
     atom    5 type  1   force =    -0.00001117   -0.00000645   -0.00001765
     atom    6 type  1   force =    -0.00000505   -0.00000291   -0.00002077
     atom    7 type  2   force =    -0.00000608   -0.00000351    0.00000582
     atom    8 type  2   force =    -0.00000354   -0.00000204   -0.00000812
     atom    9 type  1   force =     0.00000180    0.00000104    0.00001544
     atom   10 type  1   force =     0.00000538    0.00000311    0.00002779
     atom   11 type  2   force =     0.00000025    0.00000014   -0.00000645
     atom   12 type  2   force =    -0.00000037   -0.00000021    0.00000878
     atom   13 type  1   force =     0.00001017    0.00000587   -0.00001006
     atom   14 type  1   force =    -0.00000541   -0.00000312   -0.00001725
     atom   15 type  2   force =     0.00000479    0.00000276    0.00000565
     atom   16 type  2   force =     0.00000034    0.00000020   -0.00000923
     atom   17 type  1   force =     0.00000829    0.00000479    0.00001130
     atom   18 type  1   force =     0.00001916    0.00001106    0.00001603
     atom   19 type  2   force =     0.00000273    0.00000158   -0.00000605
     atom   20 type  2   force =     0.00000478    0.00000276    0.00000553
     atom   21 type  1   force =     0.00000109    0.00000063    0.00000342
     atom   22 type  1   force =     0.00001032    0.00000596   -0.00001315
     atom   23 type  2   force =     0.00000081    0.00000047    0.00000733
     atom   24 type  2   force =     0.00000422    0.00000244   -0.00000577

     Total force =     0.000648     Total SCF correction =     0.000082
     SCF correction compared to forces is large: reduce conv_thr to get better values

     General routines

     Parallel routines

   This run was terminated on:  21:39: 2   7Sep2025

   JOB DONE.
Note: The following floating-point exceptions are signalling: IEEE_INVALID_FLAG
Note: The following floating-point exceptions are signalling: IEEE_INVALID_FLAG
Note: The following floating-point exceptions are signalling: IEEE_INVALID_FLAG
Note: The following floating-point exceptions are signalling: IEEE_INVALID_FLAG
Note: The following floating-point exceptions are signalling: IEEE_INVALID_FLAG
Note: The following floating-point exceptions are signalling: IEEE_INVALID_FLAG
Note: The following floating-point exceptions are signalling: IEEE_INVALID_FLAG
Note: The following floating-point exceptions are signalling: IEEE_INVALID_FLAG