     Program PWSCF v.7.2 starts on  8Sep2025 at  3: 0:40

     Reading input from /home/jvc/QEspresso7.2/ZnO_database/scripts/cell312.in/ZnO-3.60-1.71-312.in
Warning: card &CELL ignored
Warning: card / ignored
Warning: card &FCP ignored
Warning: card / ignored
Warning: card &RISM ignored
Warning: card / ignored

     Current dimensions of program PWSCF are:
     Max number of different atomic species (ntypx) = 10
     Max number of k-points (npk) =  40000
     Max angular momentum in pseudopotentials (lmaxx) =  4
     file Zn.upf: wavefunction(s)  3D renormalized
     Found identity + (  0.0000  0.0000  0.5000) symmetry
     This is a supercell, fractional translations are disabled
     Message from routine setup:
     using ibrav=0 with symmetry is DISCOURAGED, use correct ibrav instead

     K-points division:     npool     =       8
     R & G space division:  proc/nbgrp/npool/nimage =       8
     Subspace diagonalization in iterative solution of the eigenvalue problem:
     a serial algorithm will be used

     Using Slab Decomposition

     bravais-lattice index     =            0
     lattice parameter (alat)  =      20.3902  a.u.
     unit-cell volume          =    2791.8337 (a.u.)^3
     number of atoms/cell      =           24
     number of atomic types    =            2
     number of electrons       =       216.00
     number of Kohn-Sham states=          108
     kinetic-energy cutoff     =      50.0000  Ry
     charge density cutoff     =     400.0000  Ry
     scf convergence threshold =      1.0E-08
     mixing beta               =       0.3000
     number of iterations used =            8  plain     mixing
     Exchange-correlation= PBE
                           (   1   4   3   4   0   0   0)

     celldm(1)=  20.390218  celldm(2)=   0.000000  celldm(3)=   0.000000
     celldm(4)=   0.000000  celldm(5)=   0.000000  celldm(6)=   0.000000

     crystal axes: (cart. coord. in units of alat)
               a(1) = (   1.000000   0.000000   0.000000 )
               a(2) = (  -0.166667   0.288675   0.000000 )
               a(3) = (   0.000000   0.000000   1.140813 )

     reciprocal axes: (cart. coord. in units 2 pi/alat)
               b(1) = (  1.000000  0.577350 -0.000000 )
               b(2) = (  0.000000  3.464102  0.000000 )
               b(3) = (  0.000000 -0.000000  0.876568 )

     PseudoPot. # 1 for Zn read from file:
     /home/jvc/QEspresso7.2/ZnO_database/pseudos/Zn.upf
     MD5 check sum: 7f56cabf9682ed8c977c2f7d0c5985c5
     Pseudo is Ultrasoft + core correction, Zval = 12.0
     Generated using &quot;atomic&quot; code by A. Dal Corso  v.6.2.2
     Using radial grid of 1201 points,  6 beta functions with:
                l(1) =   0
                l(2) =   0
                l(3) =   1
                l(4) =   1
                l(5) =   2
                l(6) =   2
     Q(r) pseudized with 0 coefficients

     PseudoPot. # 2 for O  read from file:
     /home/jvc/QEspresso7.2/ZnO_database/pseudos/O.upf
     MD5 check sum: 91400c9766925bcf19f520983a725ff0
     Pseudo is Ultrasoft + core correction, Zval =  6.0
     Generated using &quot;atomic&quot; code by A. Dal Corso  v.6.3MaX
     Using radial grid of 1095 points,  4 beta functions with:
                l(1) =   0
                l(2) =   0
                l(3) =   1
                l(4) =   1
     Q(r) pseudized with 0 coefficients

     atomic species   valence    mass     pseudopotential
        Zn            12.00    65.38000     Zn( 1.00)
        O              6.00    15.99900     O ( 1.00)

      2 Sym. Ops. (no inversion) found

                                    s                        frac. trans.

      isym =  1     identity

 cryst.   s( 1) = (     1          0          0      )
                  (     0          1          0      )
                  (     0          0          1      )

 cart.    s( 1) = (  1.0000000  0.0000000  0.0000000 )
                  (  0.0000000  1.0000000  0.0000000 )
                  (  0.0000000  0.0000000  1.0000000 )

      isym =  2     inv. 180 deg rotation - cryst. axis [0,1,0]

 cryst.   s( 2) = (     1          3          0      )
                  (     0         -1          0      )
                  (     0          0          1      )

 cart.    s( 2) = (  0.5000000  0.8660254  0.0000000 )
                  (  0.8660254 -0.5000000  0.0000000 )
                  (  0.0000000  0.0000000  1.0000000 )

   Cartesian axes

     site n.     atom                  positions (alat units)
         1           Zn  tau(   1) = (   0.1666667   0.0962250   0.2855647  )
         2           Zn  tau(   2) = (  -0.0000000   0.1924501   0.0003614  )
         3           O   tau(   3) = (   0.1666667   0.0962250   0.5017732  )
         4           O   tau(   4) = (  -0.0000000   0.1924501   0.2165699  )
         5           Zn  tau(   5) = (   0.1666667   0.0962250   0.8559713  )
         6           Zn  tau(   6) = (  -0.0000000   0.1924501   0.5707680  )
         7           O   tau(   7) = (   0.1666667   0.0962250   1.0721799  )
         8           O   tau(   8) = (  -0.0000000   0.1924501   0.7869766  )
         9           Zn  tau(   9) = (   0.5000000   0.0962250   0.2855647  )
        10           Zn  tau(  10) = (   0.3333333   0.1924501   0.0003614  )
        11           O   tau(  11) = (   0.5000000   0.0962250   0.5017732  )
        12           O   tau(  12) = (   0.3333333   0.1924501   0.2165699  )
        13           Zn  tau(  13) = (   0.5000000   0.0962250   0.8559713  )
        14           Zn  tau(  14) = (   0.3333333   0.1924501   0.5707680  )
        15           O   tau(  15) = (   0.5000000   0.0962250   1.0721799  )
        16           O   tau(  16) = (   0.3333333   0.1924501   0.7869766  )
        17           Zn  tau(  17) = (   0.8333333   0.0962250   0.2855647  )
        18           Zn  tau(  18) = (   0.6666667   0.1924501   0.0003614  )
        19           O   tau(  19) = (   0.8333333   0.0962250   0.5017732  )
        20           O   tau(  20) = (   0.6666667   0.1924501   0.2165699  )
        21           Zn  tau(  21) = (   0.8333333   0.0962250   0.8559713  )
        22           Zn  tau(  22) = (   0.6666667   0.1924501   0.5707680  )
        23           O   tau(  23) = (   0.8333333   0.0962250   1.0721799  )
        24           O   tau(  24) = (   0.6666667   0.1924501   0.7869766  )

   Crystallographic axes

     site n.     atom                  positions (cryst. coord.)
         1           Zn  tau(   1) = (  0.2222222  0.3333333  0.2503168  )
         2           Zn  tau(   2) = (  0.1111111  0.6666667  0.0003168  )
         3           O   tau(   3) = (  0.2222222  0.3333333  0.4398382  )
         4           O   tau(   4) = (  0.1111111  0.6666667  0.1898382  )
         5           Zn  tau(   5) = (  0.2222222  0.3333333  0.7503168  )
         6           Zn  tau(   6) = (  0.1111111  0.6666667  0.5003168  )
         7           O   tau(   7) = (  0.2222222  0.3333333  0.9398382  )
         8           O   tau(   8) = (  0.1111111  0.6666667  0.6898382  )
         9           Zn  tau(   9) = (  0.5555556  0.3333333  0.2503168  )
        10           Zn  tau(  10) = (  0.4444444  0.6666667  0.0003168  )
        11           O   tau(  11) = (  0.5555556  0.3333333  0.4398382  )
        12           O   tau(  12) = (  0.4444444  0.6666667  0.1898382  )
        13           Zn  tau(  13) = (  0.5555556  0.3333333  0.7503168  )
        14           Zn  tau(  14) = (  0.4444444  0.6666667  0.5003168  )
        15           O   tau(  15) = (  0.5555556  0.3333333  0.9398382  )
        16           O   tau(  16) = (  0.4444444  0.6666667  0.6898382  )
        17           Zn  tau(  17) = (  0.8888889  0.3333333  0.2503168  )
        18           Zn  tau(  18) = (  0.7777778  0.6666667  0.0003168  )
        19           O   tau(  19) = (  0.8888889  0.3333333  0.4398382  )
        20           O   tau(  20) = (  0.7777778  0.6666667  0.1898382  )
        21           Zn  tau(  21) = (  0.8888889  0.3333333  0.7503168  )
        22           Zn  tau(  22) = (  0.7777778  0.6666667  0.5003168  )
        23           O   tau(  23) = (  0.8888889  0.3333333  0.9398382  )
        24           O   tau(  24) = (  0.7777778  0.6666667  0.6898382  )

     number of k points=    68
                       cart. coord. in units 2pi/alat
        k(    1) = (   0.0000000   0.0000000   0.0000000), wk =   0.0092593
        k(    2) = (   0.0000000   0.0000000   0.1460946), wk =   0.0185185
        k(    3) = (   0.0000000   0.0000000   0.2921892), wk =   0.0185185
        k(    4) = (   0.0000000   0.0000000  -0.4382838), wk =   0.0092593
        k(    5) = (   0.0000000   0.5773503   0.0000000), wk =   0.0370370
        k(    6) = (   0.0000000   0.5773503   0.1460946), wk =   0.0370370
        k(    7) = (   0.0000000   0.5773503   0.2921892), wk =   0.0370370
        k(    8) = (   0.0000000   0.5773503  -0.4382838), wk =   0.0370370
        k(    9) = (   0.0000000   1.1547005   0.0000000), wk =   0.0185185
        k(   10) = (   0.0000000   1.1547005   0.1460946), wk =   0.0370370
        k(   11) = (   0.0000000   1.1547005   0.2921892), wk =   0.0370370
        k(   12) = (   0.0000000   1.1547005  -0.4382838), wk =   0.0185185
        k(   13) = (   0.0000000  -1.7320508   0.0000000), wk =   0.0185185
        k(   14) = (   0.0000000  -1.7320508   0.1460946), wk =   0.0370370
        k(   15) = (   0.0000000  -1.7320508   0.2921892), wk =   0.0370370
        k(   16) = (   0.0000000  -1.7320508  -0.4382838), wk =   0.0185185
        k(   17) = (   0.1666667   0.0962250   0.0000000), wk =   0.0185185
        k(   18) = (   0.1666667   0.0962250   0.1460946), wk =   0.0185185
        k(   19) = (   0.1666667   0.0962250   0.2921892), wk =   0.0185185
        k(   20) = (   0.1666667   0.0962250  -0.4382838), wk =   0.0185185
        k(   21) = (   0.1666667   0.6735753   0.0000000), wk =   0.0370370
        k(   22) = (   0.1666667   0.6735753   0.1460946), wk =   0.0370370
        k(   23) = (   0.1666667   0.6735753   0.2921892), wk =   0.0370370
        k(   24) = (   0.1666667   0.6735753  -0.4382838), wk =   0.0370370
        k(   25) = (   0.1666667   1.2509256   0.0000000), wk =   0.0370370
        k(   26) = (   0.1666667   1.2509256   0.1460946), wk =   0.0370370
        k(   27) = (   0.1666667   1.2509256   0.2921892), wk =   0.0370370
        k(   28) = (   0.1666667   1.2509256  -0.4382838), wk =   0.0370370
        k(   29) = (   0.1666667  -1.6358258   0.0000000), wk =   0.0370370
        k(   30) = (   0.1666667  -1.6358258   0.1460946), wk =   0.0370370
        k(   31) = (   0.1666667  -1.6358258   0.2921892), wk =   0.0370370
        k(   32) = (   0.1666667  -1.6358258  -0.4382838), wk =   0.0370370
        k(   33) = (   0.1666667  -0.4811252   0.0000000), wk =   0.0370370
        k(   34) = (   0.1666667  -0.4811252   0.1460946), wk =   0.0370370
        k(   35) = (   0.1666667  -0.4811252   0.2921892), wk =   0.0370370
        k(   36) = (   0.1666667  -0.4811252  -0.4382838), wk =   0.0370370
        k(   37) = (   0.3333333   0.1924501   0.0000000), wk =   0.0185185
[...]
     1.0000   1.0000   1.0000   1.0000   1.0000   1.0000   1.0000   1.0000
     1.0000   1.0000   1.0000   1.0000

[...]

          k =-0.5000-0.2887 0.0000 ( 16696 PWs)   bands (ev):

[...]

          k =-0.3333 0.3849-0.2922 ( 16680 PWs)   bands (ev):

[...]

          k = 1.3333-0.3849-0.2922 ( 16667 PWs)   bands (ev):

   -12.9246 -12.8942 -12.8389 -12.8192 -12.8116 -12.7856 -12.7814 -12.7749
   -12.7664 -12.7476 -12.7472 -12.7377  -1.9635  -1.9588  -1.9557  -1.9498
    -1.9491  -1.9221  -1.9184  -1.9154  -1.8911  -1.8904  -1.8825  -1.8788
    -1.8450  -1.8397  -1.8381  -1.8295  -1.8294  -1.8259  -1.8042  -1.7902
    -1.7723  -1.7588  -1.7535  -1.7471  -1.7453  -1.7304  -1.7032  -1.6998
    -1.6943  -1.6898  -1.6706  -1.6656  -1.6643  -1.6553  -1.6548  -1.6438
    -1.6201  -1.5865  -1.5845  -1.5841  -1.5694  -1.5629  -1.5607  -1.5584
    -1.5522  -1.5445  -1.5406  -1.5330  -1.5318  -1.5224  -1.5027  -1.5019
    -1.4930  -1.4557  -1.4529  -1.4471  -1.4392  -1.4223  -1.4059  -1.3971
    -0.0290  -0.0020   0.0002   0.0019   0.0864   0.1329   0.1920   0.1924
     0.2740   0.3034   0.6180   0.7448   1.0098   1.1654   1.2056   1.2968
     1.5236   1.5263   1.5784   1.6085   1.6281   1.7724   1.7980   1.8259
     1.8973   1.9827   2.0335   2.0512   2.1227   2.1609   2.2030   2.2400
     2.2416   2.2997   2.3712   2.4235

     occupation numbers
     1.0000   1.0000   1.0000   1.0000   1.0000   1.0000   1.0000   1.0000
     1.0000   1.0000   1.0000   1.0000   1.0000   1.0000   1.0000   1.0000
     1.0000   1.0000   1.0000   1.0000   1.0000   1.0000   1.0000   1.0000
     1.0000   1.0000   1.0000   1.0000   1.0000   1.0000   1.0000   1.0000
     1.0000   1.0000   1.0000   1.0000   1.0000   1.0000   1.0000   1.0000
     1.0000   1.0000   1.0000   1.0000   1.0000   1.0000   1.0000   1.0000
     1.0000   1.0000   1.0000   1.0000   1.0000   1.0000   1.0000   1.0000
     1.0000   1.0000   1.0000   1.0000   1.0000   1.0000   1.0000   1.0000
     1.0000   1.0000   1.0000   1.0000   1.0000   1.0000   1.0000   1.0000
     1.0000   1.0000   1.0000   1.0000   1.0000   1.0000   1.0000   1.0000
     1.0000   1.0000   1.0000   1.0000   1.0000   1.0000   1.0000   1.0000
     1.0000   1.0000   1.0000   1.0000   1.0000   1.0000   1.0000   1.0000
     1.0000   1.0000   1.0000   1.0000   1.0000   1.0000   1.0000   1.0000
     1.0000   1.0000   1.0000   1.0000

     highest occupied level (ev):     2.8241

!    total energy              =   -2169.06637620 Ry
     estimated scf accuracy    <          2.9E-09 Ry

     The total energy is the sum of the following terms:
     one-electron contribution =   -1154.57707391 Ry
     hartree contribution      =     793.46032911 Ry
     xc contribution           =    -653.78483270 Ry
     ewald contribution        =   -1154.16479870 Ry

     convergence has been achieved in  36 iterations

     Forces acting on atoms (cartesian axes, Ry/au):

     atom    1 type  1   force =    -0.00000315   -0.00000182   -0.00969262
     atom    2 type  1   force =     0.00001498    0.00000865   -0.00966888
     atom    3 type  2   force =    -0.00001411   -0.00000815    0.00967907
     atom    4 type  2   force =     0.00001362    0.00000786    0.00967923
     atom    5 type  1   force =    -0.00001046   -0.00000604   -0.00966542
     atom    6 type  1   force =     0.00002454    0.00001417   -0.00969147
     atom    7 type  2   force =    -0.00001408   -0.00000813    0.00967961
     atom    8 type  2   force =     0.00001409    0.00000813    0.00967974
     atom    9 type  1   force =    -0.00003008   -0.00001737   -0.00969825
     atom   10 type  1   force =     0.00002107    0.00001216   -0.00967059
     atom   11 type  2   force =    -0.00001377   -0.00000795    0.00967852
     atom   12 type  2   force =     0.00001404    0.00000810    0.00967998
     atom   13 type  1   force =    -0.00001505   -0.00000869   -0.00965416
     atom   14 type  1   force =     0.00000732    0.00000423   -0.00969552
     atom   15 type  2   force =    -0.00001388   -0.00000801    0.00968075
     atom   16 type  2   force =     0.00001358    0.00000784    0.00967981
     atom   17 type  1   force =    -0.00001010   -0.00000583   -0.00969453
     atom   18 type  1   force =     0.00000682    0.00000393   -0.00968351
     atom   19 type  2   force =    -0.00001410   -0.00000814    0.00967797
     atom   20 type  2   force =     0.00001444    0.00000834    0.00967897
     atom   21 type  1   force =    -0.00001759   -0.00001015   -0.00965508
     atom   22 type  1   force =     0.00001170    0.00000676   -0.00968348
     atom   23 type  2   force =    -0.00001381   -0.00000798    0.00968021
     atom   24 type  2   force =     0.00001398    0.00000807    0.00967965
     The non-local contrib.  to forces
     atom    1 type  1   force =     0.00005649    0.00003262    0.12901239
     atom    2 type  1   force =    -0.00004768   -0.00002753    0.12902604
     atom    3 type  2   force =    -0.00023115   -0.00013346    0.15983917
     atom    4 type  2   force =     0.00022441    0.00012956    0.15983736
     atom    5 type  1   force =     0.00005273    0.00003044    0.12902742
     atom    6 type  1   force =    -0.00004556   -0.00002630    0.12901179
     atom    7 type  2   force =    -0.00023166   -0.00013375    0.15982934
     atom    8 type  2   force =     0.00022839    0.00013186    0.15983375
     atom    9 type  1   force =     0.00004257    0.00002458    0.12900982
     atom   10 type  1   force =    -0.00004816   -0.00002781    0.12902439
     atom   11 type  2   force =    -0.00022522   -0.00013003    0.15983833
     atom   12 type  2   force =     0.00023050    0.00013308    0.15984035
     atom   13 type  1   force =     0.00005079    0.00002932    0.12903308
     atom   14 type  1   force =    -0.00005457   -0.00003151    0.12900918
     atom   15 type  2   force =    -0.00022844   -0.00013189    0.15983134
     atom   16 type  2   force =     0.00022841    0.00013187    0.15983243
     atom   17 type  1   force =     0.00005134    0.00002964    0.12901231
     atom   18 type  1   force =    -0.00005461   -0.00003153    0.12901862
     atom   19 type  2   force =    -0.00023149   -0.00013365    0.15983492
     atom   20 type  2   force =     0.00023254    0.00013426    0.15984051
     atom   21 type  1   force =     0.00004719    0.00002725    0.12903331
     atom   22 type  1   force =    -0.00005045   -0.00002913    0.12901613
     atom   23 type  2   force =    -0.00022692   -0.00013101    0.15983187
     atom   24 type  2   force =     0.00023060    0.00013314    0.15983031
     The ionic contribution  to forces
     atom    1 type  1   force =     0.00000001    0.00000000    1.00748788
     atom    2 type  1   force =     0.00000001    0.00000000    1.00748788
     atom    3 type  2   force =     0.00000000    0.00000000   -1.00748788
     atom    4 type  2   force =     0.00000000    0.00000000   -1.00748788
     atom    5 type  1   force =     0.00000001    0.00000000    1.00748788
     atom    6 type  1   force =     0.00000001    0.00000000    1.00748788
     atom    7 type  2   force =     0.00000000    0.00000000   -1.00748788
     atom    8 type  2   force =     0.00000000    0.00000000   -1.00748788
     atom    9 type  1   force =    -0.00000001    0.00000000    1.00748788
     atom   10 type  1   force =     0.00000001   -0.00000000    1.00748788
     atom   11 type  2   force =    -0.00000001    0.00000000   -1.00748788
     atom   12 type  2   force =     0.00000001   -0.00000000   -1.00748788
     atom   13 type  1   force =    -0.00000001    0.00000000    1.00748788
     atom   14 type  1   force =     0.00000001   -0.00000000    1.00748788
     atom   15 type  2   force =    -0.00000001    0.00000000   -1.00748788
     atom   16 type  2   force =     0.00000001   -0.00000000   -1.00748788
     atom   17 type  1   force =    -0.00000001   -0.00000000    1.00748788
     atom   18 type  1   force =    -0.00000001   -0.00000000    1.00748788
     atom   19 type  2   force =    -0.00000000   -0.00000000   -1.00748788
     atom   20 type  2   force =    -0.00000000   -0.00000000   -1.00748788
     atom   21 type  1   force =    -0.00000001   -0.00000000    1.00748788
     atom   22 type  1   force =    -0.00000001   -0.00000000    1.00748788
     atom   23 type  2   force =    -0.00000000   -0.00000000   -1.00748788
     atom   24 type  2   force =    -0.00000000   -0.00000000   -1.00748788
     The local contribution  to forces
     atom    1 type  1   force =    -0.00007382   -0.00004262   -1.13917898
     atom    2 type  1   force =     0.00005524    0.00003184   -1.13921122
     atom    3 type  2   force =     0.00020721    0.00011963    0.85885992
     atom    4 type  2   force =    -0.00021709   -0.00012535    0.85886018
     atom    5 type  1   force =    -0.00006256   -0.00003612   -1.13921750
     atom    6 type  1   force =     0.00004085    0.00002353   -1.13917897
     atom    7 type  2   force =     0.00020961    0.00012102    0.85884605
     atom    8 type  2   force =    -0.00021546   -0.00012441    0.85884277
     atom    9 type  1   force =    -0.00003251   -0.00001866   -1.13917063
     atom   10 type  1   force =     0.00004601    0.00002645   -1.13920839
     atom   11 type  2   force =     0.00021824    0.00012603    0.85885987
     atom   12 type  2   force =    -0.00020738   -0.00011976    0.85885872
     atom   13 type  1   force =    -0.00005724   -0.00003294   -1.13923571
     atom   14 type  1   force =     0.00006831    0.00003933   -1.13917325
     atom   15 type  2   force =     0.00020979    0.00012115    0.85884578
     atom   16 type  2   force =    -0.00020993   -0.00012123    0.85884092
     atom   17 type  1   force =    -0.00006341   -0.00003655   -1.13917714
     atom   18 type  1   force =     0.00006854    0.00003957   -1.13918830
     atom   19 type  2   force =     0.00021101    0.00012184    0.85885969
     atom   20 type  2   force =    -0.00021062   -0.00012160    0.85886358
     atom   21 type  1   force =    -0.00005055   -0.00002913   -1.13923364
     atom   22 type  1   force =     0.00006083    0.00003512   -1.13919142
     atom   23 type  2   force =     0.00021584    0.00012463    0.85884882
     atom   24 type  2   force =    -0.00021020   -0.00012136    0.85883941
     The core correction contribution to forces
     atom    1 type  1   force =    -0.00000914   -0.00000527   -0.00699439
     atom    2 type  1   force =     0.00000910    0.00000525   -0.00699387
     atom    3 type  2   force =     0.00000260    0.00000150   -0.00151708
     atom    4 type  2   force =    -0.00000252   -0.00000146   -0.00151787
     atom    5 type  1   force =    -0.00000929   -0.00000537   -0.00699418
     atom    6 type  1   force =     0.00000967    0.00000558   -0.00699392
     atom    7 type  2   force =     0.00000261    0.00000151   -0.00151697
     atom    8 type  2   force =    -0.00000258   -0.00000149   -0.00151785
     atom    9 type  1   force =    -0.00000973   -0.00000560   -0.00699453
     atom   10 type  1   force =     0.00000967    0.00000557   -0.00699380
     atom   11 type  2   force =     0.00000254    0.00000146   -0.00151707
     atom   12 type  2   force =    -0.00000259   -0.00000150   -0.00151791
     atom   13 type  1   force =    -0.00000934   -0.00000538   -0.00699385
     atom   14 type  1   force =     0.00000919    0.00000529   -0.00699387
     atom   15 type  2   force =     0.00000257    0.00000148   -0.00151700
     atom   16 type  2   force =    -0.00000257   -0.00000148   -0.00151784
     atom   17 type  1   force =    -0.00000908   -0.00000524   -0.00699451
     atom   18 type  1   force =     0.00000918    0.00000530   -0.00699424
     atom   19 type  2   force =     0.00000261    0.00000151   -0.00151703
     atom   20 type  2   force =    -0.00000262   -0.00000151   -0.00151791
     atom   21 type  1   force =    -0.00000933   -0.00000538   -0.00699402
     atom   22 type  1   force =     0.00000909    0.00000525   -0.00699374
     atom   23 type  2   force =     0.00000256    0.00000148   -0.00151700
     atom   24 type  2   force =    -0.00000260   -0.00000150   -0.00151781
     The Hubbard contrib.    to forces
     atom    1 type  1   force =     0.00000000    0.00000000    0.00000000
     atom    2 type  1   force =     0.00000000    0.00000000    0.00000000
     atom    3 type  2   force =     0.00000000    0.00000000    0.00000000
     atom    4 type  2   force =     0.00000000    0.00000000    0.00000000
     atom    5 type  1   force =     0.00000000    0.00000000    0.00000000
     atom    6 type  1   force =     0.00000000    0.00000000    0.00000000
     atom    7 type  2   force =     0.00000000    0.00000000    0.00000000
     atom    8 type  2   force =     0.00000000    0.00000000    0.00000000
     atom    9 type  1   force =     0.00000000    0.00000000    0.00000000
     atom   10 type  1   force =     0.00000000    0.00000000    0.00000000
     atom   11 type  2   force =     0.00000000    0.00000000    0.00000000
     atom   12 type  2   force =     0.00000000    0.00000000    0.00000000
     atom   13 type  1   force =     0.00000000    0.00000000    0.00000000
     atom   14 type  1   force =     0.00000000    0.00000000    0.00000000
     atom   15 type  2   force =     0.00000000    0.00000000    0.00000000
     atom   16 type  2   force =     0.00000000    0.00000000    0.00000000
     atom   17 type  1   force =     0.00000000    0.00000000    0.00000000
     atom   18 type  1   force =     0.00000000    0.00000000    0.00000000
     atom   19 type  2   force =     0.00000000    0.00000000    0.00000000
     atom   20 type  2   force =     0.00000000    0.00000000    0.00000000
     atom   21 type  1   force =     0.00000000    0.00000000    0.00000000
     atom   22 type  1   force =     0.00000000    0.00000000    0.00000000
     atom   23 type  2   force =     0.00000000    0.00000000    0.00000000
     atom   24 type  2   force =     0.00000000    0.00000000    0.00000000
     The SCF correction term to forces
     atom    1 type  1   force =     0.00002330    0.00001345   -0.00001751
     atom    2 type  1   force =    -0.00000167   -0.00000096    0.00002430
     atom    3 type  2   force =     0.00000722    0.00000417   -0.00001305
     atom    4 type  2   force =     0.00000881    0.00000509   -0.00001054
     atom    5 type  1   force =     0.00000864    0.00000499    0.00003296
     atom    6 type  1   force =     0.00001960    0.00001131   -0.00001623
     atom    7 type  2   force =     0.00000534    0.00000308    0.00001109
     atom    8 type  2   force =     0.00000373    0.00000215    0.00001097
     atom    9 type  1   force =    -0.00003047   -0.00001759   -0.00002878
     atom   10 type  1   force =     0.00001359    0.00000784    0.00002135
     atom   11 type  2   force =    -0.00000935   -0.00000540   -0.00001271
     atom   12 type  2   force =    -0.00000650   -0.00000376   -0.00001128
     atom   13 type  1   force =     0.00000068    0.00000039    0.00005645
     atom   14 type  1   force =    -0.00001558   -0.00000900   -0.00002345
     atom   15 type  2   force =     0.00000218    0.00000126    0.00001053
     atom   16 type  2   force =    -0.00000233   -0.00000134    0.00001419
     atom   17 type  1   force =     0.00001101    0.00000636   -0.00002106
     atom   18 type  1   force =    -0.00001631   -0.00000941   -0.00000545
     atom   19 type  2   force =     0.00000375    0.00000216   -0.00000971
     atom   20 type  2   force =    -0.00000487   -0.00000281   -0.00001731
     atom   21 type  1   force =    -0.00000493   -0.00000285    0.00005340
     atom   22 type  1   force =    -0.00000779   -0.00000450   -0.00000032
     atom   23 type  2   force =    -0.00000530   -0.00000306    0.00000642
     atom   24 type  2   force =    -0.00000384   -0.00000222    0.00001763

     Total force =     0.047420     Total SCF correction =     0.000129

     General routines

     Parallel routines

   This run was terminated on:   3:27:18   8Sep2025

   JOB DONE.
Note: The following floating-point exceptions are signalling: IEEE_INVALID_FLAG
Note: The following floating-point exceptions are signalling: IEEE_INVALID_FLAG
Note: The following floating-point exceptions are signalling: IEEE_INVALID_FLAG
Note: The following floating-point exceptions are signalling: IEEE_INVALID_FLAG
Note: The following floating-point exceptions are signalling: IEEE_INVALID_FLAG
Note: The following floating-point exceptions are signalling: IEEE_INVALID_FLAG
Note: The following floating-point exceptions are signalling: IEEE_INVALID_FLAG
Note: The following floating-point exceptions are signalling: IEEE_INVALID_FLAG