     Program PWSCF v.7.2 starts on  7Sep2025 at 14:28:31

     Reading input from /home/jvc/QEspresso7.2/ZnO_database/scripts/cell312.in/ZnO-3.40-1.74-312.in
Warning: card &CELL ignored
Warning: card / ignored
Warning: card &FCP ignored
Warning: card / ignored
Warning: card &RISM ignored
Warning: card / ignored

     Current dimensions of program PWSCF are:
     Max number of different atomic species (ntypx) = 10
     Max number of k-points (npk) =  40000
     Max angular momentum in pseudopotentials (lmaxx) =  4
     file Zn.upf: wavefunction(s)  3D renormalized
     Found identity + (  0.0000  0.0000  0.5000) symmetry
     This is a supercell, fractional translations are disabled
     Message from routine setup:
     using ibrav=0 with symmetry is DISCOURAGED, use correct ibrav instead

     K-points division:     npool     =       8
     R & G space division:  proc/nbgrp/npool/nimage =       8
     Subspace diagonalization in iterative solution of the eigenvalue problem:
     a serial algorithm will be used

     Using Slab Decomposition

     bravais-lattice index     =            0
     lattice parameter (alat)  =      19.2780  a.u.
     unit-cell volume          =    2403.9720 (a.u.)^3
     number of atoms/cell      =           24
     number of atomic types    =            2
     number of electrons       =       216.00
     number of Kohn-Sham states=          108
     kinetic-energy cutoff     =      50.0000  Ry
     charge density cutoff     =     400.0000  Ry
     scf convergence threshold =      1.0E-08
     mixing beta               =       0.3000
     number of iterations used =            8  plain     mixing
     Exchange-correlation= PBE
                           (   1   4   3   4   0   0   0)

     celldm(1)=  19.278024  celldm(2)=   0.000000  celldm(3)=   0.000000
     celldm(4)=   0.000000  celldm(5)=   0.000000  celldm(6)=   0.000000

     crystal axes: (cart. coord. in units of alat)
               a(1) = (   1.000000   0.000000   0.000000 )
               a(2) = (  -0.166667   0.288675   0.000000 )
               a(3) = (   0.000000   0.000000   1.162338 )

     reciprocal axes: (cart. coord. in units 2 pi/alat)
               b(1) = (  1.000000  0.577350 -0.000000 )
               b(2) = (  0.000000  3.464102  0.000000 )
               b(3) = (  0.000000 -0.000000  0.860335 )

     PseudoPot. # 1 for Zn read from file:
     /home/jvc/QEspresso7.2/ZnO_database/pseudos/Zn.upf
     MD5 check sum: 7f56cabf9682ed8c977c2f7d0c5985c5
     Pseudo is Ultrasoft + core correction, Zval = 12.0
     Generated using &quot;atomic&quot; code by A. Dal Corso  v.6.2.2
     Using radial grid of 1201 points,  6 beta functions with:
                l(1) =   0
                l(2) =   0
                l(3) =   1
                l(4) =   1
                l(5) =   2
                l(6) =   2
     Q(r) pseudized with 0 coefficients

     PseudoPot. # 2 for O  read from file:
     /home/jvc/QEspresso7.2/ZnO_database/pseudos/O.upf
     MD5 check sum: 91400c9766925bcf19f520983a725ff0
     Pseudo is Ultrasoft + core correction, Zval =  6.0
     Generated using &quot;atomic&quot; code by A. Dal Corso  v.6.3MaX
     Using radial grid of 1095 points,  4 beta functions with:
                l(1) =   0
                l(2) =   0
                l(3) =   1
                l(4) =   1
     Q(r) pseudized with 0 coefficients

     atomic species   valence    mass     pseudopotential
        Zn            12.00    65.38000     Zn( 1.00)
        O              6.00    15.99900     O ( 1.00)

      2 Sym. Ops. (no inversion) found

                                    s                        frac. trans.

      isym =  1     identity

 cryst.   s( 1) = (     1          0          0      )
                  (     0          1          0      )
                  (     0          0          1      )

 cart.    s( 1) = (  1.0000000  0.0000000  0.0000000 )
                  (  0.0000000  1.0000000  0.0000000 )
                  (  0.0000000  0.0000000  1.0000000 )

      isym =  2     inv. 180 deg rotation - cryst. axis [0,1,0]

 cryst.   s( 2) = (     1          3          0      )
                  (     0         -1          0      )
                  (     0          0          1      )

 cart.    s( 2) = (  0.5000000  0.8660254  0.0000000 )
                  (  0.8660254 -0.5000000  0.0000000 )
                  (  0.0000000  0.0000000  1.0000000 )

   Cartesian axes

     site n.     atom                  positions (alat units)
         1           Zn  tau(   1) = (   0.1666667   0.0962250   0.2909527  )
         2           Zn  tau(   2) = (  -0.0000000   0.1924501   0.0003682  )
         3           O   tau(   3) = (   0.1666667   0.0962250   0.5112407  )
         4           O   tau(   4) = (  -0.0000000   0.1924501   0.2206562  )
         5           Zn  tau(   5) = (   0.1666667   0.0962250   0.8721217  )
         6           Zn  tau(   6) = (  -0.0000000   0.1924501   0.5815372  )
         7           O   tau(   7) = (   0.1666667   0.0962250   1.0924097  )
         8           O   tau(   8) = (  -0.0000000   0.1924501   0.8018252  )
         9           Zn  tau(   9) = (   0.5000000   0.0962250   0.2909527  )
        10           Zn  tau(  10) = (   0.3333333   0.1924501   0.0003682  )
        11           O   tau(  11) = (   0.5000000   0.0962250   0.5112407  )
        12           O   tau(  12) = (   0.3333333   0.1924501   0.2206562  )
        13           Zn  tau(  13) = (   0.5000000   0.0962250   0.8721217  )
        14           Zn  tau(  14) = (   0.3333333   0.1924501   0.5815372  )
        15           O   tau(  15) = (   0.5000000   0.0962250   1.0924097  )
        16           O   tau(  16) = (   0.3333333   0.1924501   0.8018252  )
        17           Zn  tau(  17) = (   0.8333333   0.0962250   0.2909527  )
        18           Zn  tau(  18) = (   0.6666667   0.1924501   0.0003682  )
        19           O   tau(  19) = (   0.8333333   0.0962250   0.5112407  )
        20           O   tau(  20) = (   0.6666667   0.1924501   0.2206562  )
        21           Zn  tau(  21) = (   0.8333333   0.0962250   0.8721217  )
        22           Zn  tau(  22) = (   0.6666667   0.1924501   0.5815372  )
        23           O   tau(  23) = (   0.8333333   0.0962250   1.0924097  )
        24           O   tau(  24) = (   0.6666667   0.1924501   0.8018252  )

   Crystallographic axes

     site n.     atom                  positions (cryst. coord.)
         1           Zn  tau(   1) = (  0.2222222  0.3333333  0.2503168  )
         2           Zn  tau(   2) = (  0.1111111  0.6666667  0.0003168  )
         3           O   tau(   3) = (  0.2222222  0.3333333  0.4398382  )
         4           O   tau(   4) = (  0.1111111  0.6666667  0.1898382  )
         5           Zn  tau(   5) = (  0.2222222  0.3333333  0.7503168  )
         6           Zn  tau(   6) = (  0.1111111  0.6666667  0.5003168  )
         7           O   tau(   7) = (  0.2222222  0.3333333  0.9398382  )
         8           O   tau(   8) = (  0.1111111  0.6666667  0.6898382  )
         9           Zn  tau(   9) = (  0.5555556  0.3333333  0.2503168  )
        10           Zn  tau(  10) = (  0.4444444  0.6666667  0.0003168  )
        11           O   tau(  11) = (  0.5555556  0.3333333  0.4398382  )
        12           O   tau(  12) = (  0.4444444  0.6666667  0.1898382  )
        13           Zn  tau(  13) = (  0.5555556  0.3333333  0.7503168  )
        14           Zn  tau(  14) = (  0.4444444  0.6666667  0.5003168  )
        15           O   tau(  15) = (  0.5555556  0.3333333  0.9398382  )
        16           O   tau(  16) = (  0.4444444  0.6666667  0.6898382  )
        17           Zn  tau(  17) = (  0.8888889  0.3333333  0.2503168  )
        18           Zn  tau(  18) = (  0.7777778  0.6666667  0.0003168  )
        19           O   tau(  19) = (  0.8888889  0.3333333  0.4398382  )
        20           O   tau(  20) = (  0.7777778  0.6666667  0.1898382  )
        21           Zn  tau(  21) = (  0.8888889  0.3333333  0.7503168  )
        22           Zn  tau(  22) = (  0.7777778  0.6666667  0.5003168  )
        23           O   tau(  23) = (  0.8888889  0.3333333  0.9398382  )
        24           O   tau(  24) = (  0.7777778  0.6666667  0.6898382  )

     number of k points=    68
                       cart. coord. in units 2pi/alat
        k(    1) = (   0.0000000   0.0000000   0.0000000), wk =   0.0092593
        k(    2) = (   0.0000000   0.0000000   0.1433892), wk =   0.0185185
        k(    3) = (   0.0000000   0.0000000   0.2867783), wk =   0.0185185
        k(    4) = (   0.0000000   0.0000000  -0.4301675), wk =   0.0092593
        k(    5) = (   0.0000000   0.5773503   0.0000000), wk =   0.0370370
        k(    6) = (   0.0000000   0.5773503   0.1433892), wk =   0.0370370
        k(    7) = (   0.0000000   0.5773503   0.2867783), wk =   0.0370370
        k(    8) = (   0.0000000   0.5773503  -0.4301675), wk =   0.0370370
        k(    9) = (   0.0000000   1.1547005   0.0000000), wk =   0.0185185
        k(   10) = (   0.0000000   1.1547005   0.1433892), wk =   0.0370370
        k(   11) = (   0.0000000   1.1547005   0.2867783), wk =   0.0370370
        k(   12) = (   0.0000000   1.1547005  -0.4301675), wk =   0.0185185
        k(   13) = (   0.0000000  -1.7320508   0.0000000), wk =   0.0185185
        k(   14) = (   0.0000000  -1.7320508   0.1433892), wk =   0.0370370
        k(   15) = (   0.0000000  -1.7320508   0.2867783), wk =   0.0370370
        k(   16) = (   0.0000000  -1.7320508  -0.4301675), wk =   0.0185185
        k(   17) = (   0.1666667   0.0962250   0.0000000), wk =   0.0185185
        k(   18) = (   0.1666667   0.0962250   0.1433892), wk =   0.0185185
        k(   19) = (   0.1666667   0.0962250   0.2867783), wk =   0.0185185
        k(   20) = (   0.1666667   0.0962250  -0.4301675), wk =   0.0185185
        k(   21) = (   0.1666667   0.6735753   0.0000000), wk =   0.0370370
        k(   22) = (   0.1666667   0.6735753   0.1433892), wk =   0.0370370
        k(   23) = (   0.1666667   0.6735753   0.2867783), wk =   0.0370370
        k(   24) = (   0.1666667   0.6735753  -0.4301675), wk =   0.0370370
        k(   25) = (   0.1666667   1.2509256   0.0000000), wk =   0.0370370
        k(   26) = (   0.1666667   1.2509256   0.1433892), wk =   0.0370370
        k(   27) = (   0.1666667   1.2509256   0.2867783), wk =   0.0370370
        k(   28) = (   0.1666667   1.2509256  -0.4301675), wk =   0.0370370
        k(   29) = (   0.1666667  -1.6358258   0.0000000), wk =   0.0370370
        k(   30) = (   0.1666667  -1.6358258   0.1433892), wk =   0.0370370
        k(   31) = (   0.1666667  -1.6358258   0.2867783), wk =   0.0370370
        k(   32) = (   0.1666667  -1.6358258  -0.4301675), wk =   0.0370370
        k(   33) = (   0.1666667  -0.4811252   0.0000000), wk =   0.0370370
        k(   34) = (   0.1666667  -0.4811252   0.1433892), wk =   0.0370370
        k(   35) = (   0.1666667  -0.4811252   0.2867783), wk =   0.0370370
        k(   36) = (   0.1666667  -0.4811252  -0.4301675), wk =   0.0370370
        k(   37) = (   0.3333333   0.1924501   0.0000000), wk =   0.0185185
[...]
     1.0000   1.0000   1.0000   1.0000   1.0000   1.0000   1.0000   1.0000
     1.0000   1.0000   1.0000   1.0000

[...]

          k =-0.5000-0.2887 0.0000 ( 14350 PWs)   bands (ev):

[...]

          k =-0.3333 0.3849-0.2868 ( 14345 PWs)   bands (ev):

[...]

          k = 1.3333-0.3849-0.2868 ( 14344 PWs)   bands (ev):

   -11.9876 -11.9453 -11.8602 -11.8326 -11.8294 -11.7869 -11.7818 -11.7668
   -11.7590 -11.7327 -11.7282 -11.7151  -0.6745  -0.6701  -0.6439  -0.6398
    -0.5944  -0.5913  -0.5593  -0.5558  -0.5526  -0.4908  -0.4821  -0.4650
    -0.4420  -0.4352  -0.4107  -0.4013  -0.3936  -0.3896  -0.3630  -0.3262
    -0.3037  -0.3004  -0.2836  -0.2742  -0.2600  -0.2343  -0.2057  -0.1919
    -0.1818  -0.1812  -0.1650  -0.1493  -0.1472  -0.1314  -0.1174  -0.0788
    -0.0033   0.0334   0.0383   0.0487   0.0782   0.0782   0.0788   0.0945
     0.0976   0.1116   0.1190   0.1316   0.1332   0.1473   0.1727   0.1763
     0.1782   0.2311   0.2344   0.2457   0.2547   0.2913   0.3195   0.3323
     1.0857   1.0938   1.1515   1.2046   1.2684   1.2864   1.3746   1.4553
     1.5402   1.5711   2.0287   2.1175   2.1363   2.3182   2.3731   2.5426
     2.7144   2.7414   2.8103   2.8413   2.8812   3.0465   3.0898   3.0938
     3.2439   3.3437   3.3802   3.3932   3.4387   3.5308   3.5517   3.6248
     3.6291   3.7187   3.8139   3.8503

     occupation numbers
     1.0000   1.0000   1.0000   1.0000   1.0000   1.0000   1.0000   1.0000
     1.0000   1.0000   1.0000   1.0000   1.0000   1.0000   1.0000   1.0000
     1.0000   1.0000   1.0000   1.0000   1.0000   1.0000   1.0000   1.0000
     1.0000   1.0000   1.0000   1.0000   1.0000   1.0000   1.0000   1.0000
     1.0000   1.0000   1.0000   1.0000   1.0000   1.0000   1.0000   1.0000
     1.0000   1.0000   1.0000   1.0000   1.0000   1.0000   1.0000   1.0000
     1.0000   1.0000   1.0000   1.0000   1.0000   1.0000   1.0000   1.0000
     1.0000   1.0000   1.0000   1.0000   1.0000   1.0000   1.0000   1.0000
     1.0000   1.0000   1.0000   1.0000   1.0000   1.0000   1.0000   1.0000
     1.0000   1.0000   1.0000   1.0000   1.0000   1.0000   1.0000   1.0000
     1.0000   1.0000   1.0000   1.0000   1.0000   1.0000   1.0000   1.0000
     1.0000   1.0000   1.0000   1.0000   1.0000   1.0000   1.0000   1.0000
     1.0000   1.0000   1.0000   1.0000   1.0000   1.0000   1.0000   1.0000
     1.0000   1.0000   1.0000   1.0000

     highest occupied level (ev):     4.4111

!    total energy              =   -2169.53725371 Ry
     estimated scf accuracy    <          2.1E-09 Ry

     The total energy is the sum of the following terms:
     one-electron contribution =   -1059.98959839 Ry
     hartree contribution      =     758.12258763 Ry
     xc contribution           =    -655.15780978 Ry
     ewald contribution        =   -1212.51243317 Ry

     convergence has been achieved in  28 iterations

     Forces acting on atoms (cartesian axes, Ry/au):

     atom    1 type  1   force =    -0.00000286   -0.00000165   -0.00385060
     atom    2 type  1   force =     0.00000581    0.00000336   -0.00387523
     atom    3 type  2   force =    -0.00000842   -0.00000486    0.00386213
     atom    4 type  2   force =     0.00000802    0.00000463    0.00386021
     atom    5 type  1   force =     0.00000889    0.00000513   -0.00386516
     atom    6 type  1   force =     0.00000685    0.00000395   -0.00385188
     atom    7 type  2   force =    -0.00000878   -0.00000507    0.00385723
     atom    8 type  2   force =     0.00000952    0.00000550    0.00385999
     atom    9 type  1   force =     0.00000230    0.00000133   -0.00385566
     atom   10 type  1   force =     0.00001065    0.00000615   -0.00387682
     atom   11 type  2   force =    -0.00000830   -0.00000479    0.00386241
     atom   12 type  2   force =     0.00000958    0.00000553    0.00386047
     atom   13 type  1   force =    -0.00001616   -0.00000933   -0.00387230
     atom   14 type  1   force =     0.00000828    0.00000478   -0.00384051
     atom   15 type  2   force =    -0.00000871   -0.00000503    0.00385841
     atom   16 type  2   force =     0.00000919    0.00000531    0.00385880
     atom   17 type  1   force =    -0.00002018   -0.00001165   -0.00385400
     atom   18 type  1   force =     0.00000861    0.00000497   -0.00386270
     atom   19 type  2   force =    -0.00000969   -0.00000560    0.00386195
     atom   20 type  2   force =     0.00000784    0.00000453    0.00386138
     atom   21 type  1   force =    -0.00001698   -0.00000981   -0.00386317
     atom   22 type  1   force =     0.00000519    0.00000300   -0.00385332
     atom   23 type  2   force =    -0.00000857   -0.00000495    0.00385855
     atom   24 type  2   force =     0.00000792    0.00000457    0.00385981
     The non-local contrib.  to forces
     atom    1 type  1   force =     0.00001663    0.00000960    0.18663857
     atom    2 type  1   force =    -0.00001586   -0.00000916    0.18663489
     atom    3 type  2   force =    -0.00021834   -0.00012606    0.20593888
     atom    4 type  2   force =     0.00021860    0.00012621    0.20593760
     atom    5 type  1   force =     0.00001743    0.00001006    0.18663787
     atom    6 type  1   force =    -0.00001516   -0.00000875    0.18664168
     atom    7 type  2   force =    -0.00021986   -0.00012693    0.20593625
     atom    8 type  2   force =     0.00022015    0.00012710    0.20593948
     atom    9 type  1   force =     0.00001759    0.00001016    0.18663766
     atom   10 type  1   force =    -0.00001536   -0.00000887    0.18663151
     atom   11 type  2   force =    -0.00021947   -0.00012671    0.20593841
     atom   12 type  2   force =     0.00022099    0.00012759    0.20593772
     atom   13 type  1   force =     0.00001847    0.00001067    0.18663815
     atom   14 type  1   force =    -0.00001787   -0.00001032    0.18663715
     atom   15 type  2   force =    -0.00021838   -0.00012608    0.20593774
     atom   16 type  2   force =     0.00021974    0.00012687    0.20593778
     atom   17 type  1   force =     0.00001647    0.00000951    0.18663888
     atom   18 type  1   force =    -0.00001786   -0.00001031    0.18663426
     atom   19 type  2   force =    -0.00022037   -0.00012723    0.20593968
     atom   20 type  2   force =     0.00021797    0.00012585    0.20593725
     atom   21 type  1   force =     0.00001406    0.00000812    0.18663612
     atom   22 type  1   force =    -0.00001876   -0.00001083    0.18664072
     atom   23 type  2   force =    -0.00021804   -0.00012588    0.20593709
     atom   24 type  2   force =     0.00021905    0.00012647    0.20593857
     The ionic contribution  to forces
     atom    1 type  1   force =     0.00000001    0.00000001    1.45440787
     atom    2 type  1   force =     0.00000001    0.00000000    1.45440787
     atom    3 type  2   force =     0.00000000    0.00000000   -1.45440787
     atom    4 type  2   force =     0.00000000    0.00000000   -1.45440787
     atom    5 type  1   force =     0.00000001    0.00000001    1.45440787
     atom    6 type  1   force =     0.00000001    0.00000000    1.45440787
     atom    7 type  2   force =     0.00000000    0.00000000   -1.45440787
     atom    8 type  2   force =     0.00000000    0.00000000   -1.45440787
     atom    9 type  1   force =    -0.00000001    0.00000000    1.45440787
     atom   10 type  1   force =     0.00000001   -0.00000000    1.45440787
     atom   11 type  2   force =    -0.00000001    0.00000000   -1.45440787
     atom   12 type  2   force =     0.00000001   -0.00000000   -1.45440787
     atom   13 type  1   force =    -0.00000001    0.00000000    1.45440787
     atom   14 type  1   force =     0.00000001   -0.00000000    1.45440787
     atom   15 type  2   force =    -0.00000001    0.00000000   -1.45440787
     atom   16 type  2   force =     0.00000001   -0.00000000   -1.45440787
     atom   17 type  1   force =    -0.00000001   -0.00000000    1.45440787
     atom   18 type  1   force =    -0.00000001   -0.00000001    1.45440787
     atom   19 type  2   force =    -0.00000000   -0.00000000   -1.45440787
     atom   20 type  2   force =    -0.00000000   -0.00000000   -1.45440787
     atom   21 type  1   force =    -0.00000001   -0.00000000    1.45440787
     atom   22 type  1   force =    -0.00000001   -0.00000001    1.45440787
     atom   23 type  2   force =    -0.00000000   -0.00000000   -1.45440787
     atom   24 type  2   force =    -0.00000000   -0.00000000   -1.45440787
     The local contribution  to forces
     atom    1 type  1   force =    -0.00001611   -0.00000930   -1.63355802
     atom    2 type  1   force =     0.00001297    0.00000744   -1.63353798
     atom    3 type  2   force =     0.00020155    0.00011636    1.25416741
     atom    4 type  2   force =    -0.00020405   -0.00011782    1.25417635
     atom    5 type  1   force =    -0.00002614   -0.00001509   -1.63354639
     atom    6 type  1   force =     0.00001113    0.00000637   -1.63355945
     atom    7 type  2   force =     0.00020512    0.00011842    1.25419715
     atom    8 type  2   force =    -0.00021500   -0.00012414    1.25417974
     atom    9 type  1   force =    -0.00002156   -0.00001234   -1.63355320
     atom   10 type  1   force =     0.00001043    0.00000592   -1.63353402
     atom   11 type  2   force =     0.00020483    0.00011829    1.25416976
     atom   12 type  2   force =    -0.00021800   -0.00012589    1.25417715
     atom   13 type  1   force =    -0.00000811   -0.00000458   -1.63354105
     atom   14 type  1   force =     0.00001326    0.00000755   -1.63356387
     atom   15 type  2   force =     0.00020965    0.00012107    1.25419338
     atom   16 type  2   force =    -0.00020564   -0.00011876    1.25417847
     atom   17 type  1   force =    -0.00000285   -0.00000159   -1.63355597
     atom   18 type  1   force =     0.00001261    0.00000728   -1.63354546
     atom   19 type  2   force =     0.00021516    0.00012424    1.25417501
     atom   20 type  2   force =    -0.00020299   -0.00011720    1.25417806
     atom   21 type  1   force =    -0.00000409   -0.00000231   -1.63354716
     atom   22 type  1   force =     0.00001677    0.00000968   -1.63355816
     atom   23 type  2   force =     0.00020777    0.00011997    1.25419122
     atom   24 type  2   force =    -0.00020191   -0.00011657    1.25418502
     The core correction contribution to forces
     atom    1 type  1   force =    -0.00000928   -0.00000530   -0.01134530
     atom    2 type  1   force =     0.00000939    0.00000537   -0.01134572
     atom    3 type  2   force =     0.00000242    0.00000140   -0.00185175
     atom    4 type  2   force =    -0.00000243   -0.00000140   -0.00185172
     atom    5 type  1   force =    -0.00000914   -0.00000522   -0.01134561
     atom    6 type  1   force =     0.00000940    0.00000537   -0.01134560
     atom    7 type  2   force =     0.00000246    0.00000142   -0.00185166
     atom    8 type  2   force =    -0.00000248   -0.00000143   -0.00185174
     atom    9 type  1   force =    -0.00000916   -0.00000529   -0.01134541
     atom   10 type  1   force =     0.00000930    0.00000537   -0.01134555
     atom   11 type  2   force =     0.00000247    0.00000144   -0.00185173
     atom   12 type  2   force =    -0.00000253   -0.00000147   -0.00185171
     atom   13 type  1   force =    -0.00000959   -0.00000554   -0.01134576
     atom   14 type  1   force =     0.00000938    0.00000542   -0.01134520
     atom   15 type  2   force =     0.00000248    0.00000144   -0.00185168
     atom   16 type  2   force =    -0.00000247   -0.00000144   -0.00185172
     atom   17 type  1   force =    -0.00000975   -0.00000557   -0.01134541
     atom   18 type  1   force =     0.00000946    0.00000541   -0.01134545
     atom   19 type  2   force =     0.00000249    0.00000143   -0.00185174
     atom   20 type  2   force =    -0.00000242   -0.00000140   -0.00185171
     atom   21 type  1   force =    -0.00000949   -0.00000543   -0.01134545
     atom   22 type  1   force =     0.00000939    0.00000537   -0.01134560
     atom   23 type  2   force =     0.00000243    0.00000140   -0.00185168
     atom   24 type  2   force =    -0.00000244   -0.00000141   -0.00185171
     The Hubbard contrib.    to forces
     atom    1 type  1   force =     0.00000000    0.00000000    0.00000000
     atom    2 type  1   force =     0.00000000    0.00000000    0.00000000
     atom    3 type  2   force =     0.00000000    0.00000000    0.00000000
     atom    4 type  2   force =     0.00000000    0.00000000    0.00000000
     atom    5 type  1   force =     0.00000000    0.00000000    0.00000000
     atom    6 type  1   force =     0.00000000    0.00000000    0.00000000
     atom    7 type  2   force =     0.00000000    0.00000000    0.00000000
     atom    8 type  2   force =     0.00000000    0.00000000    0.00000000
     atom    9 type  1   force =     0.00000000    0.00000000    0.00000000
     atom   10 type  1   force =     0.00000000    0.00000000    0.00000000
     atom   11 type  2   force =     0.00000000    0.00000000    0.00000000
     atom   12 type  2   force =     0.00000000    0.00000000    0.00000000
     atom   13 type  1   force =     0.00000000    0.00000000    0.00000000
     atom   14 type  1   force =     0.00000000    0.00000000    0.00000000
     atom   15 type  2   force =     0.00000000    0.00000000    0.00000000
     atom   16 type  2   force =     0.00000000    0.00000000    0.00000000
     atom   17 type  1   force =     0.00000000    0.00000000    0.00000000
     atom   18 type  1   force =     0.00000000    0.00000000    0.00000000
     atom   19 type  2   force =     0.00000000    0.00000000    0.00000000
     atom   20 type  2   force =     0.00000000    0.00000000    0.00000000
     atom   21 type  1   force =     0.00000000    0.00000000    0.00000000
     atom   22 type  1   force =     0.00000000    0.00000000    0.00000000
     atom   23 type  2   force =     0.00000000    0.00000000    0.00000000
     atom   24 type  2   force =     0.00000000    0.00000000    0.00000000
     The SCF correction term to forces
     atom    1 type  1   force =     0.00000604    0.00000349    0.00000262
     atom    2 type  1   force =    -0.00000047   -0.00000027   -0.00003794
     atom    3 type  2   force =     0.00000612    0.00000354    0.00001181
     atom    4 type  2   force =    -0.00000393   -0.00000227    0.00000219
     atom    5 type  1   force =     0.00002688    0.00001552   -0.00002257
     atom    6 type  1   force =     0.00000169    0.00000098   -0.00000004
     atom    7 type  2   force =     0.00000367    0.00000212   -0.00002030
     atom    8 type  2   force =     0.00000702    0.00000405   -0.00000328
     atom    9 type  1   force =     0.00001556    0.00000898   -0.00000624
     atom   10 type  1   force =     0.00000649    0.00000374   -0.00004028
     atom   11 type  2   force =     0.00000402    0.00000232    0.00001019
     atom   12 type  2   force =     0.00000931    0.00000537    0.00000152
     atom   13 type  1   force =    -0.00001680   -0.00000970   -0.00003516
     atom   14 type  1   force =     0.00000371    0.00000214    0.00001988
     atom   15 type  2   force =    -0.00000230   -0.00000133   -0.00001681
     atom   16 type  2   force =    -0.00000224   -0.00000130   -0.00000151
     atom   17 type  1   force =    -0.00002392   -0.00001381   -0.00000303
     atom   18 type  1   force =     0.00000460    0.00000265   -0.00001757
     atom   19 type  2   force =    -0.00000680   -0.00000393    0.00000321
     atom   20 type  2   force =    -0.00000455   -0.00000262    0.00000200
     atom   21 type  1   force =    -0.00001733   -0.00001001   -0.00001821
     atom   22 type  1   force =    -0.00000199   -0.00000115   -0.00000182
     atom   23 type  2   force =    -0.00000056   -0.00000033   -0.00001386
     atom   24 type  2   force =    -0.00000661   -0.00000381   -0.00000786

     Total force =     0.018911     Total SCF correction =     0.000103

     General routines

     Parallel routines

   This run was terminated on:  14:45:26   7Sep2025

   JOB DONE.
Note: The following floating-point exceptions are signalling: IEEE_INVALID_FLAG
Note: The following floating-point exceptions are signalling: IEEE_INVALID_FLAG
Note: The following floating-point exceptions are signalling: IEEE_INVALID_FLAG
Note: The following floating-point exceptions are signalling: IEEE_INVALID_FLAG
Note: The following floating-point exceptions are signalling: IEEE_INVALID_FLAG
Note: The following floating-point exceptions are signalling: IEEE_INVALID_FLAG
Note: The following floating-point exceptions are signalling: IEEE_INVALID_FLAG
Note: The following floating-point exceptions are signalling: IEEE_INVALID_FLAG