     Program PWSCF v.7.2 starts on  5Sep2025 at  1:45: 6

     Reading input from /home/jvc/QEspresso7.2/ZnO_database/scripts/cell312.in/ZnO-3.07-1.68-312.in
Warning: card &CELL ignored
Warning: card / ignored
Warning: card &FCP ignored
Warning: card / ignored
Warning: card &RISM ignored
Warning: card / ignored

     Current dimensions of program PWSCF are:
     Max number of different atomic species (ntypx) = 10
     Max number of k-points (npk) =  40000
     Max angular momentum in pseudopotentials (lmaxx) =  4
     file Zn.upf: wavefunction(s)  3D renormalized
     Found identity + (  0.0000  0.0000  0.5000) symmetry
     This is a supercell, fractional translations are disabled
     Message from routine setup:
     using ibrav=0 with symmetry is DISCOURAGED, use correct ibrav instead

     K-points division:     npool     =       8
     R & G space division:  proc/nbgrp/npool/nimage =       8
     Subspace diagonalization in iterative solution of the eigenvalue problem:
     a serial algorithm will be used

     Using Slab Decomposition

     bravais-lattice index     =            0
     lattice parameter (alat)  =      17.4244  a.u.
     unit-cell volume          =    1709.3166 (a.u.)^3
     number of atoms/cell      =           24
     number of atomic types    =            2
     number of electrons       =       216.00
     number of Kohn-Sham states=          108
     kinetic-energy cutoff     =      50.0000  Ry
     charge density cutoff     =     400.0000  Ry
     scf convergence threshold =      1.0E-08
     mixing beta               =       0.3000
     number of iterations used =            8  plain     mixing
     Exchange-correlation= PBE
                           (   1   4   3   4   0   0   0)

     celldm(1)=  17.424368  celldm(2)=   0.000000  celldm(3)=   0.000000
     celldm(4)=   0.000000  celldm(5)=   0.000000  celldm(6)=   0.000000

     crystal axes: (cart. coord. in units of alat)
               a(1) = (   1.000000   0.000000   0.000000 )
               a(2) = (  -0.166667   0.288675   0.000000 )
               a(3) = (   0.000000   0.000000   1.119288 )

     reciprocal axes: (cart. coord. in units 2 pi/alat)
               b(1) = (  1.000000  0.577350 -0.000000 )
               b(2) = (  0.000000  3.464102  0.000000 )
               b(3) = (  0.000000 -0.000000  0.893425 )

     PseudoPot. # 1 for Zn read from file:
     /home/jvc/QEspresso7.2/ZnO_database/pseudos/Zn.upf
     MD5 check sum: 7f56cabf9682ed8c977c2f7d0c5985c5
     Pseudo is Ultrasoft + core correction, Zval = 12.0
     Generated using &quot;atomic&quot; code by A. Dal Corso  v.6.2.2
     Using radial grid of 1201 points,  6 beta functions with:
                l(1) =   0
                l(2) =   0
                l(3) =   1
                l(4) =   1
                l(5) =   2
                l(6) =   2
     Q(r) pseudized with 0 coefficients

     PseudoPot. # 2 for O  read from file:
     /home/jvc/QEspresso7.2/ZnO_database/pseudos/O.upf
     MD5 check sum: 91400c9766925bcf19f520983a725ff0
     Pseudo is Ultrasoft + core correction, Zval =  6.0
     Generated using &quot;atomic&quot; code by A. Dal Corso  v.6.3MaX
     Using radial grid of 1095 points,  4 beta functions with:
                l(1) =   0
                l(2) =   0
                l(3) =   1
                l(4) =   1
     Q(r) pseudized with 0 coefficients

     atomic species   valence    mass     pseudopotential
        Zn            12.00    65.38000     Zn( 1.00)
        O              6.00    15.99900     O ( 1.00)

      2 Sym. Ops. (no inversion) found

                                    s                        frac. trans.

      isym =  1     identity

 cryst.   s( 1) = (     1          0          0      )
                  (     0          1          0      )
                  (     0          0          1      )

 cart.    s( 1) = (  1.0000000  0.0000000  0.0000000 )
                  (  0.0000000  1.0000000  0.0000000 )
                  (  0.0000000  0.0000000  1.0000000 )

      isym =  2     inv. 180 deg rotation - cryst. axis [0,1,0]

 cryst.   s( 2) = (     1          3          0      )
                  (     0         -1          0      )
                  (     0          0          1      )

 cart.    s( 2) = (  0.5000000  0.8660254  0.0000000 )
                  (  0.8660254 -0.5000000  0.0000000 )
                  (  0.0000000  0.0000000  1.0000000 )

   Cartesian axes

     site n.     atom                  positions (alat units)
         1           Zn  tau(   1) = (   0.1666667   0.0962250   0.2801767  )
         2           Zn  tau(   2) = (  -0.0000000   0.1924501   0.0003546  )
         3           O   tau(   3) = (   0.1666667   0.0962250   0.4923058  )
         4           O   tau(   4) = (  -0.0000000   0.1924501   0.2124837  )
         5           Zn  tau(   5) = (   0.1666667   0.0962250   0.8398209  )
         6           Zn  tau(   6) = (  -0.0000000   0.1924501   0.5599988  )
         7           O   tau(   7) = (   0.1666667   0.0962250   1.0519501  )
         8           O   tau(   8) = (  -0.0000000   0.1924501   0.7721279  )
         9           Zn  tau(   9) = (   0.5000000   0.0962250   0.2801767  )
        10           Zn  tau(  10) = (   0.3333333   0.1924501   0.0003546  )
        11           O   tau(  11) = (   0.5000000   0.0962250   0.4923058  )
        12           O   tau(  12) = (   0.3333333   0.1924501   0.2124837  )
        13           Zn  tau(  13) = (   0.5000000   0.0962250   0.8398209  )
        14           Zn  tau(  14) = (   0.3333333   0.1924501   0.5599988  )
        15           O   tau(  15) = (   0.5000000   0.0962250   1.0519501  )
        16           O   tau(  16) = (   0.3333333   0.1924501   0.7721279  )
        17           Zn  tau(  17) = (   0.8333333   0.0962250   0.2801767  )
        18           Zn  tau(  18) = (   0.6666667   0.1924501   0.0003546  )
        19           O   tau(  19) = (   0.8333333   0.0962250   0.4923058  )
        20           O   tau(  20) = (   0.6666667   0.1924501   0.2124837  )
        21           Zn  tau(  21) = (   0.8333333   0.0962250   0.8398209  )
        22           Zn  tau(  22) = (   0.6666667   0.1924501   0.5599988  )
        23           O   tau(  23) = (   0.8333333   0.0962250   1.0519501  )
        24           O   tau(  24) = (   0.6666667   0.1924501   0.7721279  )

   Crystallographic axes

     site n.     atom                  positions (cryst. coord.)
         1           Zn  tau(   1) = (  0.2222222  0.3333333  0.2503168  )
         2           Zn  tau(   2) = (  0.1111111  0.6666667  0.0003168  )
         3           O   tau(   3) = (  0.2222222  0.3333333  0.4398382  )
         4           O   tau(   4) = (  0.1111111  0.6666667  0.1898382  )
         5           Zn  tau(   5) = (  0.2222222  0.3333333  0.7503168  )
         6           Zn  tau(   6) = (  0.1111111  0.6666667  0.5003168  )
         7           O   tau(   7) = (  0.2222222  0.3333333  0.9398382  )
         8           O   tau(   8) = (  0.1111111  0.6666667  0.6898382  )
         9           Zn  tau(   9) = (  0.5555556  0.3333333  0.2503168  )
        10           Zn  tau(  10) = (  0.4444444  0.6666667  0.0003168  )
        11           O   tau(  11) = (  0.5555556  0.3333333  0.4398382  )
        12           O   tau(  12) = (  0.4444444  0.6666667  0.1898382  )
        13           Zn  tau(  13) = (  0.5555556  0.3333333  0.7503168  )
        14           Zn  tau(  14) = (  0.4444444  0.6666667  0.5003168  )
        15           O   tau(  15) = (  0.5555556  0.3333333  0.9398382  )
        16           O   tau(  16) = (  0.4444444  0.6666667  0.6898382  )
        17           Zn  tau(  17) = (  0.8888889  0.3333333  0.2503168  )
        18           Zn  tau(  18) = (  0.7777778  0.6666667  0.0003168  )
        19           O   tau(  19) = (  0.8888889  0.3333333  0.4398382  )
        20           O   tau(  20) = (  0.7777778  0.6666667  0.1898382  )
        21           Zn  tau(  21) = (  0.8888889  0.3333333  0.7503168  )
        22           Zn  tau(  22) = (  0.7777778  0.6666667  0.5003168  )
        23           O   tau(  23) = (  0.8888889  0.3333333  0.9398382  )
        24           O   tau(  24) = (  0.7777778  0.6666667  0.6898382  )

     number of k points=    68
                       cart. coord. in units 2pi/alat
        k(    1) = (   0.0000000   0.0000000   0.0000000), wk =   0.0092593
        k(    2) = (   0.0000000   0.0000000   0.1489041), wk =   0.0185185
        k(    3) = (   0.0000000   0.0000000   0.2978082), wk =   0.0185185
        k(    4) = (   0.0000000   0.0000000  -0.4467124), wk =   0.0092593
        k(    5) = (   0.0000000   0.5773503   0.0000000), wk =   0.0370370
        k(    6) = (   0.0000000   0.5773503   0.1489041), wk =   0.0370370
        k(    7) = (   0.0000000   0.5773503   0.2978082), wk =   0.0370370
        k(    8) = (   0.0000000   0.5773503  -0.4467124), wk =   0.0370370
        k(    9) = (   0.0000000   1.1547005   0.0000000), wk =   0.0185185
        k(   10) = (   0.0000000   1.1547005   0.1489041), wk =   0.0370370
        k(   11) = (   0.0000000   1.1547005   0.2978082), wk =   0.0370370
        k(   12) = (   0.0000000   1.1547005  -0.4467124), wk =   0.0185185
        k(   13) = (   0.0000000  -1.7320508   0.0000000), wk =   0.0185185
        k(   14) = (   0.0000000  -1.7320508   0.1489041), wk =   0.0370370
        k(   15) = (   0.0000000  -1.7320508   0.2978082), wk =   0.0370370
        k(   16) = (   0.0000000  -1.7320508  -0.4467124), wk =   0.0185185
        k(   17) = (   0.1666667   0.0962250   0.0000000), wk =   0.0185185
        k(   18) = (   0.1666667   0.0962250   0.1489041), wk =   0.0185185
        k(   19) = (   0.1666667   0.0962250   0.2978082), wk =   0.0185185
        k(   20) = (   0.1666667   0.0962250  -0.4467124), wk =   0.0185185
        k(   21) = (   0.1666667   0.6735753   0.0000000), wk =   0.0370370
        k(   22) = (   0.1666667   0.6735753   0.1489041), wk =   0.0370370
        k(   23) = (   0.1666667   0.6735753   0.2978082), wk =   0.0370370
        k(   24) = (   0.1666667   0.6735753  -0.4467124), wk =   0.0370370
        k(   25) = (   0.1666667   1.2509256   0.0000000), wk =   0.0370370
        k(   26) = (   0.1666667   1.2509256   0.1489041), wk =   0.0370370
        k(   27) = (   0.1666667   1.2509256   0.2978082), wk =   0.0370370
        k(   28) = (   0.1666667   1.2509256  -0.4467124), wk =   0.0370370
        k(   29) = (   0.1666667  -1.6358258   0.0000000), wk =   0.0370370
        k(   30) = (   0.1666667  -1.6358258   0.1489041), wk =   0.0370370
        k(   31) = (   0.1666667  -1.6358258   0.2978082), wk =   0.0370370
        k(   32) = (   0.1666667  -1.6358258  -0.4467124), wk =   0.0370370
        k(   33) = (   0.1666667  -0.4811252   0.0000000), wk =   0.0370370
        k(   34) = (   0.1666667  -0.4811252   0.1489041), wk =   0.0370370
        k(   35) = (   0.1666667  -0.4811252   0.2978082), wk =   0.0370370
        k(   36) = (   0.1666667  -0.4811252  -0.4467124), wk =   0.0370370
        k(   37) = (   0.3333333   0.1924501   0.0000000), wk =   0.0185185
[...]
     1.0000   1.0000   1.0000   1.0000   1.0000   1.0000   1.0000   1.0000
     1.0000   1.0000   1.0000   1.0000

[...]

          k =-0.5000-0.2887 0.0000 ( 10224 PWs)   bands (ev):

[...]

          k =-0.3333 0.3849-0.2978 ( 10219 PWs)   bands (ev):

[...]

          k = 1.3333-0.3849-0.2978 ( 10202 PWs)   bands (ev):

    -9.3815  -9.2800  -9.1174  -9.0494  -9.0017  -8.9513  -8.9125  -8.9001
    -8.8723  -8.8199  -8.8113  -8.7913   2.2884   2.3151   2.3653   2.3855
     2.4067   2.4229   2.5494   2.6147   2.6198   2.6231   2.6447   2.8081
     3.0332   3.0609   3.0640   3.1114   3.1123   3.1244   3.1566   3.1689
     3.2242   3.2839   3.3090   3.3147   3.3269   3.3557   3.3581   3.4290
     3.4794   3.5276   3.5720   3.6244   3.6552   3.6629   3.7150   3.7462
     4.3166   4.3674   4.3766   4.4447   4.4696   4.4887   4.5009   4.5341
     4.5499   4.5655   4.5840   4.6280   4.6585   4.6986   4.7191   4.7280
     4.7394   4.7658   4.8200   4.8248   4.8291   4.8395   4.9251   5.0268
     5.1408   5.1892   5.1945   5.4000   5.4107   5.5115   5.6036   5.7314
     5.7679   5.7871   5.9707   6.1001   6.3567   6.4082   6.5558   6.6323
     6.7324   6.7793   6.8669   6.9469   6.9500   7.0445   7.2639   7.3271
     7.3432   7.5186   7.6675   7.7246   7.7335   7.8986   7.9352   8.0822
     8.1036   8.1955   8.3651   8.4245

     occupation numbers
     1.0000   1.0000   1.0000   1.0000   1.0000   1.0000   1.0000   1.0000
     1.0000   1.0000   1.0000   1.0000   1.0000   1.0000   1.0000   1.0000
     1.0000   1.0000   1.0000   1.0000   1.0000   1.0000   1.0000   1.0000
     1.0000   1.0000   1.0000   1.0000   1.0000   1.0000   1.0000   1.0000
     1.0000   1.0000   1.0000   1.0000   1.0000   1.0000   1.0000   1.0000
     1.0000   1.0000   1.0000   1.0000   1.0000   1.0000   1.0000   1.0000
     1.0000   1.0000   1.0000   1.0000   1.0000   1.0000   1.0000   1.0000
     1.0000   1.0000   1.0000   1.0000   1.0000   1.0000   1.0000   1.0000
     1.0000   1.0000   1.0000   1.0000   1.0000   1.0000   1.0000   1.0000
     1.0000   1.0000   1.0000   1.0000   1.0000   1.0000   1.0000   1.0000
     1.0000   1.0000   1.0000   1.0000   1.0000   1.0000   1.0000   1.0000
     1.0000   1.0000   1.0000   1.0000   1.0000   1.0000   1.0000   1.0000
     1.0000   1.0000   1.0000   1.0000   1.0000   1.0000   1.0000   1.0000
     1.0000   1.0000   1.0000   1.0000

     highest occupied level (ev):     9.2771

!    total energy              =   -2169.55778718 Ry
     estimated scf accuracy    <          5.9E-10 Ry

     The total energy is the sum of the following terms:
     one-electron contribution =    -824.48660450 Ry
     hartree contribution      =     673.87246432 Ry
     xc contribution           =    -659.23363635 Ry
     ewald contribution        =   -1359.71001065 Ry

     convergence has been achieved in  28 iterations

     Forces acting on atoms (cartesian axes, Ry/au):

     atom    1 type  1   force =     0.00000986    0.00000570    0.02388698
     atom    2 type  1   force =    -0.00001111   -0.00000641    0.02388384
     atom    3 type  2   force =    -0.00000222   -0.00000128   -0.02388827
     atom    4 type  2   force =     0.00000163    0.00000094   -0.02388890
     atom    5 type  1   force =     0.00001123    0.00000648    0.02388763
     atom    6 type  1   force =    -0.00001018   -0.00000588    0.02389266
     atom    7 type  2   force =    -0.00000202   -0.00000117   -0.02388623
     atom    8 type  2   force =     0.00000264    0.00000152   -0.02388636
     atom    9 type  1   force =     0.00001175    0.00000679    0.02388680
     atom   10 type  1   force =    -0.00000993   -0.00000573    0.02388181
     atom   11 type  2   force =    -0.00000219   -0.00000126   -0.02388876
     atom   12 type  2   force =     0.00000251    0.00000145   -0.02388916
     atom   13 type  1   force =     0.00001037    0.00000599    0.02388814
     atom   14 type  1   force =    -0.00001055   -0.00000609    0.02389286
     atom   15 type  2   force =    -0.00000199   -0.00000115   -0.02388708
     atom   16 type  2   force =     0.00000223    0.00000129   -0.02388617
     atom   17 type  1   force =     0.00001061    0.00000613    0.02388636
     atom   18 type  1   force =    -0.00001166   -0.00000673    0.02388357
     atom   19 type  2   force =    -0.00000250   -0.00000144   -0.02388914
     atom   20 type  2   force =     0.00000259    0.00000150   -0.02388906
     atom   21 type  1   force =     0.00001093    0.00000631    0.02388824
     atom   22 type  1   force =    -0.00001137   -0.00000656    0.02389206
     atom   23 type  2   force =    -0.00000245   -0.00000141   -0.02388594
     atom   24 type  2   force =     0.00000178    0.00000103   -0.02388589
     The non-local contrib.  to forces
     atom    1 type  1   force =    -0.00002230   -0.00001287    0.11320296
     atom    2 type  1   force =     0.00002316    0.00001337    0.11320153
     atom    3 type  2   force =    -0.00017899   -0.00010334    0.09417274
     atom    4 type  2   force =     0.00017865    0.00010314    0.09417284
     atom    5 type  1   force =    -0.00002307   -0.00001332    0.11321563
     atom    6 type  1   force =     0.00002261    0.00001305    0.11321489
     atom    7 type  2   force =    -0.00017934   -0.00010354    0.09417836
     atom    8 type  2   force =     0.00017945    0.00010361    0.09417804
     atom    9 type  1   force =    -0.00002329   -0.00001344    0.11320216
     atom   10 type  1   force =     0.00002225    0.00001284    0.11320235
     atom   11 type  2   force =    -0.00017915   -0.00010343    0.09417215
     atom   12 type  2   force =     0.00017948    0.00010362    0.09417224
     atom   13 type  1   force =    -0.00002223   -0.00001283    0.11321465
     atom   14 type  1   force =     0.00002233    0.00001289    0.11321480
     atom   15 type  2   force =    -0.00017906   -0.00010338    0.09417773
     atom   16 type  2   force =     0.00017922    0.00010347    0.09417795
     atom   17 type  1   force =    -0.00002254   -0.00001301    0.11320300
     atom   18 type  1   force =     0.00002240    0.00001293    0.11320156
     atom   19 type  2   force =    -0.00017918   -0.00010345    0.09417192
     atom   20 type  2   force =     0.00017957    0.00010367    0.09417284
     atom   21 type  1   force =    -0.00002312   -0.00001335    0.11321482
     atom   22 type  1   force =     0.00002283    0.00001318    0.11321610
     atom   23 type  2   force =    -0.00017917   -0.00010344    0.09417898
     atom   24 type  2   force =     0.00017883    0.00010325    0.09417768
     The ionic contribution  to forces
     atom    1 type  1   force =     0.00000001    0.00000001    0.96206594
     atom    2 type  1   force =     0.00000001    0.00000000    0.96206593
     atom    3 type  2   force =     0.00000000    0.00000000   -0.96206594
     atom    4 type  2   force =     0.00000001    0.00000000   -0.96206593
     atom    5 type  1   force =     0.00000001    0.00000001    0.96206594
     atom    6 type  1   force =     0.00000001    0.00000000    0.96206593
     atom    7 type  2   force =     0.00000000    0.00000000   -0.96206594
     atom    8 type  2   force =     0.00000001    0.00000000   -0.96206593
     atom    9 type  1   force =    -0.00000001    0.00000000    0.96206593
     atom   10 type  1   force =     0.00000001   -0.00000000    0.96206593
     atom   11 type  2   force =    -0.00000001    0.00000000   -0.96206593
     atom   12 type  2   force =     0.00000001   -0.00000000   -0.96206593
     atom   13 type  1   force =    -0.00000001    0.00000000    0.96206593
     atom   14 type  1   force =     0.00000001   -0.00000000    0.96206593
     atom   15 type  2   force =    -0.00000001    0.00000000   -0.96206593
     atom   16 type  2   force =     0.00000001   -0.00000000   -0.96206593
     atom   17 type  1   force =    -0.00000001   -0.00000000    0.96206593
     atom   18 type  1   force =    -0.00000001   -0.00000001    0.96206594
     atom   19 type  2   force =    -0.00000001   -0.00000000   -0.96206593
     atom   20 type  2   force =    -0.00000000   -0.00000000   -0.96206594
     atom   21 type  1   force =    -0.00000001   -0.00000000    0.96206593
     atom   22 type  1   force =    -0.00000001   -0.00000001    0.96206594
     atom   23 type  2   force =    -0.00000001   -0.00000000   -0.96206593
     atom   24 type  2   force =    -0.00000000   -0.00000000   -0.96206594
     The local contribution  to forces
     atom    1 type  1   force =     0.00003944    0.00002277   -1.04227349
     atom    2 type  1   force =    -0.00003946   -0.00002283   -1.04227663
     atom    3 type  2   force =     0.00017477    0.00010091    0.84468200
     atom    4 type  2   force =    -0.00017474   -0.00010090    0.84468062
     atom    5 type  1   force =     0.00003917    0.00002262   -1.04228137
     atom    6 type  1   force =    -0.00003945   -0.00002282   -1.04227676
     atom    7 type  2   force =     0.00017463    0.00010082    0.84468071
     atom    8 type  2   force =    -0.00017502   -0.00010106    0.84468079
     atom    9 type  1   force =     0.00003886    0.00002253   -1.04227280
     atom   10 type  1   force =    -0.00003919   -0.00002272   -1.04227611
     atom   11 type  2   force =     0.00017501    0.00010106    0.84468226
     atom   12 type  2   force =    -0.00017580   -0.00010152    0.84468187
     atom   13 type  1   force =     0.00003885    0.00002252   -1.04228078
     atom   14 type  1   force =    -0.00003878   -0.00002248   -1.04227693
     atom   15 type  2   force =     0.00017509    0.00010111    0.84468017
     atom   16 type  2   force =    -0.00017524   -0.00010120    0.84468148
     atom   17 type  1   force =     0.00003898    0.00002255   -1.04227302
     atom   18 type  1   force =    -0.00003805   -0.00002197   -1.04227641
     atom   19 type  2   force =     0.00017494    0.00010102    0.84468227
     atom   20 type  2   force =    -0.00017495   -0.00010101    0.84468097
     atom   21 type  1   force =     0.00003946    0.00002283   -1.04228083
     atom   22 type  1   force =    -0.00003877   -0.00002239   -1.04227802
     atom   23 type  2   force =     0.00017543    0.00010129    0.84467984
     atom   24 type  2   force =    -0.00017519   -0.00010115    0.84468206
     The core correction contribution to forces
     atom    1 type  1   force =    -0.00000625   -0.00000361   -0.00910974
     atom    2 type  1   force =     0.00000626    0.00000361   -0.00910915
     atom    3 type  2   force =     0.00000203    0.00000117   -0.00067505
     atom    4 type  2   force =    -0.00000202   -0.00000117   -0.00067375
     atom    5 type  1   force =    -0.00000624   -0.00000360   -0.00911359
     atom    6 type  1   force =     0.00000627    0.00000361   -0.00911423
     atom    7 type  2   force =     0.00000203    0.00000117   -0.00067621
     atom    8 type  2   force =    -0.00000203   -0.00000117   -0.00067751
     atom    9 type  1   force =    -0.00000626   -0.00000360   -0.00910975
     atom   10 type  1   force =     0.00000625    0.00000360   -0.00910915
     atom   11 type  2   force =     0.00000203    0.00000117   -0.00067505
     atom   12 type  2   force =    -0.00000203   -0.00000117   -0.00067374
     atom   13 type  1   force =    -0.00000624   -0.00000359   -0.00911360
     atom   14 type  1   force =     0.00000624    0.00000359   -0.00911423
     atom   15 type  2   force =     0.00000203    0.00000117   -0.00067620
     atom   16 type  2   force =    -0.00000203   -0.00000117   -0.00067751
     atom   17 type  1   force =    -0.00000625   -0.00000360   -0.00910975
     atom   18 type  1   force =     0.00000626    0.00000361   -0.00910915
     atom   19 type  2   force =     0.00000203    0.00000117   -0.00067504
     atom   20 type  2   force =    -0.00000203   -0.00000117   -0.00067375
     atom   21 type  1   force =    -0.00000627   -0.00000361   -0.00911362
     atom   22 type  1   force =     0.00000625    0.00000361   -0.00911421
     atom   23 type  2   force =     0.00000203    0.00000117   -0.00067621
     atom   24 type  2   force =    -0.00000202   -0.00000117   -0.00067750
     The Hubbard contrib.    to forces
     atom    1 type  1   force =     0.00000000    0.00000000    0.00000000
     atom    2 type  1   force =     0.00000000    0.00000000    0.00000000
     atom    3 type  2   force =     0.00000000    0.00000000    0.00000000
     atom    4 type  2   force =     0.00000000    0.00000000    0.00000000
     atom    5 type  1   force =     0.00000000    0.00000000    0.00000000
     atom    6 type  1   force =     0.00000000    0.00000000    0.00000000
     atom    7 type  2   force =     0.00000000    0.00000000    0.00000000
     atom    8 type  2   force =     0.00000000    0.00000000    0.00000000
     atom    9 type  1   force =     0.00000000    0.00000000    0.00000000
     atom   10 type  1   force =     0.00000000    0.00000000    0.00000000
     atom   11 type  2   force =     0.00000000    0.00000000    0.00000000
     atom   12 type  2   force =     0.00000000    0.00000000    0.00000000
     atom   13 type  1   force =     0.00000000    0.00000000    0.00000000
     atom   14 type  1   force =     0.00000000    0.00000000    0.00000000
     atom   15 type  2   force =     0.00000000    0.00000000    0.00000000
     atom   16 type  2   force =     0.00000000    0.00000000    0.00000000
     atom   17 type  1   force =     0.00000000    0.00000000    0.00000000
     atom   18 type  1   force =     0.00000000    0.00000000    0.00000000
     atom   19 type  2   force =     0.00000000    0.00000000    0.00000000
     atom   20 type  2   force =     0.00000000    0.00000000    0.00000000
     atom   21 type  1   force =     0.00000000    0.00000000    0.00000000
     atom   22 type  1   force =     0.00000000    0.00000000    0.00000000
     atom   23 type  2   force =     0.00000000    0.00000000    0.00000000
     atom   24 type  2   force =     0.00000000    0.00000000    0.00000000
     The SCF correction term to forces
     atom    1 type  1   force =    -0.00000106   -0.00000061    0.00000341
     atom    2 type  1   force =    -0.00000108   -0.00000063    0.00000425
     atom    3 type  2   force =    -0.00000006   -0.00000004    0.00000008
     atom    4 type  2   force =    -0.00000028   -0.00000016   -0.00000058
     atom    5 type  1   force =     0.00000134    0.00000077    0.00000312
     atom    6 type  1   force =     0.00000038    0.00000022    0.00000493
     atom    7 type  2   force =     0.00000063    0.00000037   -0.00000106
     atom    8 type  2   force =     0.00000021    0.00000012    0.00000034
     atom    9 type  1   force =     0.00000237    0.00000137    0.00000335
     atom   10 type  1   force =     0.00000078    0.00000045    0.00000088
     atom   11 type  2   force =    -0.00000011   -0.00000006   -0.00000010
     atom   12 type  2   force =     0.00000084    0.00000049   -0.00000150
     atom   13 type  1   force =    -0.00000007   -0.00000004    0.00000404
     atom   14 type  1   force =    -0.00000033   -0.00000019    0.00000537
     atom   15 type  2   force =    -0.00000008   -0.00000005   -0.00000076
     atom   16 type  2   force =     0.00000027    0.00000015   -0.00000006
     atom   17 type  1   force =     0.00000038    0.00000022    0.00000229
     atom   18 type  1   force =    -0.00000229   -0.00000132    0.00000374
     atom   19 type  2   force =    -0.00000032   -0.00000018   -0.00000025
     atom   20 type  2   force =    -0.00000001   -0.00000000   -0.00000108
     atom   21 type  1   force =     0.00000081    0.00000047    0.00000403
     atom   22 type  1   force =    -0.00000170   -0.00000098    0.00000435
     atom   23 type  2   force =    -0.00000076   -0.00000044   -0.00000051
     atom   24 type  2   force =     0.00000015    0.00000008   -0.00000009

     Total force =     0.117025     Total SCF correction =     0.000014

     General routines

     Parallel routines

   This run was terminated on:   1:59: 7   5Sep2025

   JOB DONE.
Note: The following floating-point exceptions are signalling: IEEE_INVALID_FLAG
Note: The following floating-point exceptions are signalling: IEEE_INVALID_FLAG
Note: The following floating-point exceptions are signalling: IEEE_INVALID_FLAG
Note: The following floating-point exceptions are signalling: IEEE_INVALID_FLAG
Note: The following floating-point exceptions are signalling: IEEE_INVALID_FLAG
Note: The following floating-point exceptions are signalling: IEEE_INVALID_FLAG
Note: The following floating-point exceptions are signalling: IEEE_INVALID_FLAG
Note: The following floating-point exceptions are signalling: IEEE_INVALID_FLAG