     Program PWSCF v.7.2 starts on  8Sep2025 at  3:45: 7

     Reading input from /home/jvc/QEspresso7.2/ZnO_database/scripts/cell312.in/ZnO-3.60-1.78-312.in
Warning: card &CELL ignored
Warning: card / ignored
Warning: card &FCP ignored
Warning: card / ignored
Warning: card &RISM ignored
Warning: card / ignored

     Current dimensions of program PWSCF are:
     Max number of different atomic species (ntypx) = 10
     Max number of k-points (npk) =  40000
     Max angular momentum in pseudopotentials (lmaxx) =  4
     file Zn.upf: wavefunction(s)  3D renormalized
     Found identity + (  0.0000  0.0000  0.5000) symmetry
     This is a supercell, fractional translations are disabled
     Message from routine setup:
     using ibrav=0 with symmetry is DISCOURAGED, use correct ibrav instead

     K-points division:     npool     =       8
     R & G space division:  proc/nbgrp/npool/nimage =       8
     Subspace diagonalization in iterative solution of the eigenvalue problem:
     a serial algorithm will be used

     Using Slab Decomposition

     bravais-lattice index     =            0
     lattice parameter (alat)  =      20.3902  a.u.
     unit-cell volume          =    2897.1859 (a.u.)^3
     number of atoms/cell      =           24
     number of atomic types    =            2
     number of electrons       =       216.00
     number of Kohn-Sham states=          108
     kinetic-energy cutoff     =      50.0000  Ry
     charge density cutoff     =     400.0000  Ry
     scf convergence threshold =      1.0E-08
     mixing beta               =       0.3000
     number of iterations used =            8  plain     mixing
     Exchange-correlation= PBE
                           (   1   4   3   4   0   0   0)

     celldm(1)=  20.390218  celldm(2)=   0.000000  celldm(3)=   0.000000
     celldm(4)=   0.000000  celldm(5)=   0.000000  celldm(6)=   0.000000

     crystal axes: (cart. coord. in units of alat)
               a(1) = (   1.000000   0.000000   0.000000 )
               a(2) = (  -0.166667   0.288675   0.000000 )
               a(3) = (   0.000000   0.000000   1.183863 )

     reciprocal axes: (cart. coord. in units 2 pi/alat)
               b(1) = (  1.000000  0.577350 -0.000000 )
               b(2) = (  0.000000  3.464102  0.000000 )
               b(3) = (  0.000000 -0.000000  0.844692 )

     PseudoPot. # 1 for Zn read from file:
     /home/jvc/QEspresso7.2/ZnO_database/pseudos/Zn.upf
     MD5 check sum: 7f56cabf9682ed8c977c2f7d0c5985c5
     Pseudo is Ultrasoft + core correction, Zval = 12.0
     Generated using &quot;atomic&quot; code by A. Dal Corso  v.6.2.2
     Using radial grid of 1201 points,  6 beta functions with:
                l(1) =   0
                l(2) =   0
                l(3) =   1
                l(4) =   1
                l(5) =   2
                l(6) =   2
     Q(r) pseudized with 0 coefficients

     PseudoPot. # 2 for O  read from file:
     /home/jvc/QEspresso7.2/ZnO_database/pseudos/O.upf
     MD5 check sum: 91400c9766925bcf19f520983a725ff0
     Pseudo is Ultrasoft + core correction, Zval =  6.0
     Generated using &quot;atomic&quot; code by A. Dal Corso  v.6.3MaX
     Using radial grid of 1095 points,  4 beta functions with:
                l(1) =   0
                l(2) =   0
                l(3) =   1
                l(4) =   1
     Q(r) pseudized with 0 coefficients

     atomic species   valence    mass     pseudopotential
        Zn            12.00    65.38000     Zn( 1.00)
        O              6.00    15.99900     O ( 1.00)

      2 Sym. Ops. (no inversion) found

                                    s                        frac. trans.

      isym =  1     identity

 cryst.   s( 1) = (     1          0          0      )
                  (     0          1          0      )
                  (     0          0          1      )

 cart.    s( 1) = (  1.0000000  0.0000000  0.0000000 )
                  (  0.0000000  1.0000000  0.0000000 )
                  (  0.0000000  0.0000000  1.0000000 )

      isym =  2     inv. 180 deg rotation - cryst. axis [0,1,0]

 cryst.   s( 2) = (     1          3          0      )
                  (     0         -1          0      )
                  (     0          0          1      )

 cart.    s( 2) = (  0.5000000  0.8660254  0.0000000 )
                  (  0.8660254 -0.5000000  0.0000000 )
                  (  0.0000000  0.0000000  1.0000000 )

   Cartesian axes

     site n.     atom                  positions (alat units)
         1           Zn  tau(   1) = (   0.1666667   0.0962250   0.2963407  )
         2           Zn  tau(   2) = (  -0.0000000   0.1924501   0.0003750  )
         3           O   tau(   3) = (   0.1666667   0.0962250   0.5207081  )
         4           O   tau(   4) = (  -0.0000000   0.1924501   0.2247424  )
         5           Zn  tau(   5) = (   0.1666667   0.0962250   0.8882721  )
         6           Zn  tau(   6) = (  -0.0000000   0.1924501   0.5923064  )
         7           O   tau(   7) = (   0.1666667   0.0962250   1.1126395  )
         8           O   tau(   8) = (  -0.0000000   0.1924501   0.8166738  )
         9           Zn  tau(   9) = (   0.5000000   0.0962250   0.2963407  )
        10           Zn  tau(  10) = (   0.3333333   0.1924501   0.0003750  )
        11           O   tau(  11) = (   0.5000000   0.0962250   0.5207081  )
        12           O   tau(  12) = (   0.3333333   0.1924501   0.2247424  )
        13           Zn  tau(  13) = (   0.5000000   0.0962250   0.8882721  )
        14           Zn  tau(  14) = (   0.3333333   0.1924501   0.5923064  )
        15           O   tau(  15) = (   0.5000000   0.0962250   1.1126395  )
        16           O   tau(  16) = (   0.3333333   0.1924501   0.8166738  )
        17           Zn  tau(  17) = (   0.8333333   0.0962250   0.2963407  )
        18           Zn  tau(  18) = (   0.6666667   0.1924501   0.0003750  )
        19           O   tau(  19) = (   0.8333333   0.0962250   0.5207081  )
        20           O   tau(  20) = (   0.6666667   0.1924501   0.2247424  )
        21           Zn  tau(  21) = (   0.8333333   0.0962250   0.8882721  )
        22           Zn  tau(  22) = (   0.6666667   0.1924501   0.5923064  )
        23           O   tau(  23) = (   0.8333333   0.0962250   1.1126395  )
        24           O   tau(  24) = (   0.6666667   0.1924501   0.8166738  )

   Crystallographic axes

     site n.     atom                  positions (cryst. coord.)
         1           Zn  tau(   1) = (  0.2222222  0.3333333  0.2503168  )
         2           Zn  tau(   2) = (  0.1111111  0.6666667  0.0003168  )
         3           O   tau(   3) = (  0.2222222  0.3333333  0.4398382  )
         4           O   tau(   4) = (  0.1111111  0.6666667  0.1898382  )
         5           Zn  tau(   5) = (  0.2222222  0.3333333  0.7503168  )
         6           Zn  tau(   6) = (  0.1111111  0.6666667  0.5003168  )
         7           O   tau(   7) = (  0.2222222  0.3333333  0.9398382  )
         8           O   tau(   8) = (  0.1111111  0.6666667  0.6898382  )
         9           Zn  tau(   9) = (  0.5555556  0.3333333  0.2503168  )
        10           Zn  tau(  10) = (  0.4444444  0.6666667  0.0003168  )
        11           O   tau(  11) = (  0.5555556  0.3333333  0.4398382  )
        12           O   tau(  12) = (  0.4444444  0.6666667  0.1898382  )
        13           Zn  tau(  13) = (  0.5555556  0.3333333  0.7503168  )
        14           Zn  tau(  14) = (  0.4444444  0.6666667  0.5003168  )
        15           O   tau(  15) = (  0.5555556  0.3333333  0.9398382  )
        16           O   tau(  16) = (  0.4444444  0.6666667  0.6898382  )
        17           Zn  tau(  17) = (  0.8888889  0.3333333  0.2503168  )
        18           Zn  tau(  18) = (  0.7777778  0.6666667  0.0003168  )
        19           O   tau(  19) = (  0.8888889  0.3333333  0.4398382  )
        20           O   tau(  20) = (  0.7777778  0.6666667  0.1898382  )
        21           Zn  tau(  21) = (  0.8888889  0.3333333  0.7503168  )
        22           Zn  tau(  22) = (  0.7777778  0.6666667  0.5003168  )
        23           O   tau(  23) = (  0.8888889  0.3333333  0.9398382  )
        24           O   tau(  24) = (  0.7777778  0.6666667  0.6898382  )

     number of k points=    68
                       cart. coord. in units 2pi/alat
        k(    1) = (   0.0000000   0.0000000   0.0000000), wk =   0.0092593
        k(    2) = (   0.0000000   0.0000000   0.1407821), wk =   0.0185185
        k(    3) = (   0.0000000   0.0000000   0.2815642), wk =   0.0185185
        k(    4) = (   0.0000000   0.0000000  -0.4223462), wk =   0.0092593
        k(    5) = (   0.0000000   0.5773503   0.0000000), wk =   0.0370370
        k(    6) = (   0.0000000   0.5773503   0.1407821), wk =   0.0370370
        k(    7) = (   0.0000000   0.5773503   0.2815642), wk =   0.0370370
        k(    8) = (   0.0000000   0.5773503  -0.4223462), wk =   0.0370370
        k(    9) = (   0.0000000   1.1547005   0.0000000), wk =   0.0185185
        k(   10) = (   0.0000000   1.1547005   0.1407821), wk =   0.0370370
        k(   11) = (   0.0000000   1.1547005   0.2815642), wk =   0.0370370
        k(   12) = (   0.0000000   1.1547005  -0.4223462), wk =   0.0185185
        k(   13) = (   0.0000000  -1.7320508   0.0000000), wk =   0.0185185
        k(   14) = (   0.0000000  -1.7320508   0.1407821), wk =   0.0370370
        k(   15) = (   0.0000000  -1.7320508   0.2815642), wk =   0.0370370
        k(   16) = (   0.0000000  -1.7320508  -0.4223462), wk =   0.0185185
        k(   17) = (   0.1666667   0.0962250   0.0000000), wk =   0.0185185
        k(   18) = (   0.1666667   0.0962250   0.1407821), wk =   0.0185185
        k(   19) = (   0.1666667   0.0962250   0.2815642), wk =   0.0185185
        k(   20) = (   0.1666667   0.0962250  -0.4223462), wk =   0.0185185
        k(   21) = (   0.1666667   0.6735753   0.0000000), wk =   0.0370370
        k(   22) = (   0.1666667   0.6735753   0.1407821), wk =   0.0370370
        k(   23) = (   0.1666667   0.6735753   0.2815642), wk =   0.0370370
        k(   24) = (   0.1666667   0.6735753  -0.4223462), wk =   0.0370370
        k(   25) = (   0.1666667   1.2509256   0.0000000), wk =   0.0370370
        k(   26) = (   0.1666667   1.2509256   0.1407821), wk =   0.0370370
        k(   27) = (   0.1666667   1.2509256   0.2815642), wk =   0.0370370
        k(   28) = (   0.1666667   1.2509256  -0.4223462), wk =   0.0370370
        k(   29) = (   0.1666667  -1.6358258   0.0000000), wk =   0.0370370
        k(   30) = (   0.1666667  -1.6358258   0.1407821), wk =   0.0370370
        k(   31) = (   0.1666667  -1.6358258   0.2815642), wk =   0.0370370
        k(   32) = (   0.1666667  -1.6358258  -0.4223462), wk =   0.0370370
        k(   33) = (   0.1666667  -0.4811252   0.0000000), wk =   0.0370370
        k(   34) = (   0.1666667  -0.4811252   0.1407821), wk =   0.0370370
        k(   35) = (   0.1666667  -0.4811252   0.2815642), wk =   0.0370370
        k(   36) = (   0.1666667  -0.4811252  -0.4223462), wk =   0.0370370
        k(   37) = (   0.3333333   0.1924501   0.0000000), wk =   0.0185185
[...]
     1.0000   1.0000   1.0000   1.0000   1.0000   1.0000   1.0000   1.0000
     1.0000   1.0000   1.0000   1.0000

[...]

          k =-0.5000-0.2887 0.0000 ( 17328 PWs)   bands (ev):

[...]

          k =-0.3333 0.3849-0.2816 ( 17307 PWs)   bands (ev):

[...]

          k = 1.3333-0.3849-0.2816 ( 17287 PWs)   bands (ev):

   -13.1506 -13.1262 -13.0702 -13.0594 -13.0544 -13.0350 -13.0213 -13.0128
   -13.0120 -12.9967 -12.9906 -12.9828  -2.2995  -2.2929  -2.2927  -2.2920
    -2.2836  -2.2638  -2.2622  -2.2621  -2.2399  -2.2345  -2.2335  -2.2265
    -2.1944  -2.1931  -2.1876  -2.1836  -2.1833  -2.1737  -2.1537  -2.1478
    -2.1393  -2.1301  -2.1163  -2.1145  -2.1053  -2.0985  -2.0803  -2.0622
    -2.0618  -2.0446  -2.0427  -2.0286  -2.0277  -2.0244  -2.0219  -2.0166
    -2.0015  -1.9719  -1.9699  -1.9659  -1.9499  -1.9479  -1.9463  -1.9416
    -1.9346  -1.9283  -1.9220  -1.9218  -1.9170  -1.9150  -1.8923  -1.8903
    -1.8901  -1.8547  -1.8534  -1.8396  -1.8303  -1.8266  -1.8041  -1.7954
    -0.2632  -0.2415  -0.2373  -0.2372  -0.1679  -0.0962  -0.0815  -0.0789
     0.0137   0.0222   0.3270   0.4410   0.8048   0.9365   0.9645   1.0380
     1.2511   1.2706   1.2854   1.3097   1.4053   1.4771   1.5168   1.5323
     1.6627   1.7280   1.7336   1.7630   1.8062   1.8446   1.8781   1.9131
     1.9316   1.9863   2.0519   2.0914

     occupation numbers
     1.0000   1.0000   1.0000   1.0000   1.0000   1.0000   1.0000   1.0000
     1.0000   1.0000   1.0000   1.0000   1.0000   1.0000   1.0000   1.0000
     1.0000   1.0000   1.0000   1.0000   1.0000   1.0000   1.0000   1.0000
     1.0000   1.0000   1.0000   1.0000   1.0000   1.0000   1.0000   1.0000
     1.0000   1.0000   1.0000   1.0000   1.0000   1.0000   1.0000   1.0000
     1.0000   1.0000   1.0000   1.0000   1.0000   1.0000   1.0000   1.0000
     1.0000   1.0000   1.0000   1.0000   1.0000   1.0000   1.0000   1.0000
     1.0000   1.0000   1.0000   1.0000   1.0000   1.0000   1.0000   1.0000
     1.0000   1.0000   1.0000   1.0000   1.0000   1.0000   1.0000   1.0000
     1.0000   1.0000   1.0000   1.0000   1.0000   1.0000   1.0000   1.0000
     1.0000   1.0000   1.0000   1.0000   1.0000   1.0000   1.0000   1.0000
     1.0000   1.0000   1.0000   1.0000   1.0000   1.0000   1.0000   1.0000
     1.0000   1.0000   1.0000   1.0000   1.0000   1.0000   1.0000   1.0000
     1.0000   1.0000   1.0000   1.0000

     highest occupied level (ev):     2.5037

!    total energy              =   -2168.91041799 Ry
     estimated scf accuracy    <          9.1E-10 Ry

     The total energy is the sum of the following terms:
     one-electron contribution =   -1180.48263865 Ry
     hartree contribution      =     803.64944703 Ry
     xc contribution           =    -653.50528403 Ry
     ewald contribution        =   -1138.57194234 Ry

     convergence has been achieved in  34 iterations

     Forces acting on atoms (cartesian axes, Ry/au):

     atom    1 type  1   force =    -0.00001887   -0.00001090   -0.01911352
     atom    2 type  1   force =     0.00001518    0.00000877   -0.01912495
     atom    3 type  2   force =    -0.00001787   -0.00001032    0.01912541
     atom    4 type  2   force =     0.00001730    0.00000999    0.01912653
     atom    5 type  1   force =    -0.00002294   -0.00001325   -0.01913350
     atom    6 type  1   force =     0.00001435    0.00000829   -0.01912929
     atom    7 type  2   force =    -0.00001796   -0.00001037    0.01912521
     atom    8 type  2   force =     0.00001761    0.00001017    0.01912534
     atom    9 type  1   force =    -0.00001330   -0.00000768   -0.01912144
     atom   10 type  1   force =     0.00003008    0.00001736   -0.01912232
     atom   11 type  2   force =    -0.00001776   -0.00001025    0.01912569
     atom   12 type  2   force =     0.00001794    0.00001036    0.01912616
     atom   13 type  1   force =    -0.00001461   -0.00000843   -0.01912882
     atom   14 type  1   force =     0.00002368    0.00001367   -0.01913112
     atom   15 type  2   force =    -0.00001760   -0.00001016    0.01912621
     atom   16 type  2   force =     0.00001779    0.00001027    0.01912492
     atom   17 type  1   force =    -0.00002796   -0.00001614   -0.01911545
     atom   18 type  1   force =     0.00001542    0.00000890   -0.01912369
     atom   19 type  2   force =    -0.00001782   -0.00001029    0.01912630
     atom   20 type  2   force =     0.00001754    0.00001013    0.01912642
     atom   21 type  1   force =    -0.00002235   -0.00001290   -0.01913284
     atom   22 type  1   force =     0.00002232    0.00001288   -0.01913285
     atom   23 type  2   force =    -0.00001775   -0.00001025    0.01912593
     atom   24 type  2   force =     0.00001758    0.00001015    0.01912568
     The non-local contrib.  to forces
     atom    1 type  1   force =     0.00005895    0.00003404    0.20512950
     atom    2 type  1   force =    -0.00006101   -0.00003523    0.20512378
     atom    3 type  2   force =    -0.00022485   -0.00012982    0.25686852
     atom    4 type  2   force =     0.00022709    0.00013111    0.25686526
     atom    5 type  1   force =     0.00005870    0.00003389    0.20511833
     atom    6 type  1   force =    -0.00006201   -0.00003580    0.20512111
     atom    7 type  2   force =    -0.00022638   -0.00013070    0.25686831
     atom    8 type  2   force =     0.00022724    0.00013120    0.25687182
     atom    9 type  1   force =     0.00006350    0.00003666    0.20512552
     atom   10 type  1   force =    -0.00005528   -0.00003191    0.20512389
     atom   11 type  2   force =    -0.00022716   -0.00013115    0.25687020
     atom   12 type  2   force =     0.00022301    0.00012875    0.25686711
     atom   13 type  1   force =     0.00006211    0.00003586    0.20511949
     atom   14 type  1   force =    -0.00005787   -0.00003341    0.20512033
     atom   15 type  2   force =    -0.00022711   -0.00013112    0.25686865
     atom   16 type  2   force =     0.00022448    0.00012960    0.25687023
     atom   17 type  1   force =     0.00005716    0.00003300    0.20512813
     atom   18 type  1   force =    -0.00006283   -0.00003627    0.20512230
     atom   19 type  2   force =    -0.00022449   -0.00012961    0.25687024
     atom   20 type  2   force =     0.00022657    0.00013081    0.25686749
     atom   21 type  1   force =     0.00005889    0.00003400    0.20511735
     atom   22 type  1   force =    -0.00005976   -0.00003450    0.20511868
     atom   23 type  2   force =    -0.00022282   -0.00012864    0.25686944
     atom   24 type  2   force =     0.00022481    0.00012980    0.25687217
     The ionic contribution  to forces
     atom    1 type  1   force =     0.00000001    0.00000000    1.58113646
     atom    2 type  1   force =     0.00000001    0.00000000    1.58113646
     atom    3 type  2   force =     0.00000000    0.00000000   -1.58113646
     atom    4 type  2   force =     0.00000000    0.00000000   -1.58113646
     atom    5 type  1   force =     0.00000001    0.00000000    1.58113646
     atom    6 type  1   force =     0.00000001    0.00000000    1.58113646
     atom    7 type  2   force =     0.00000000    0.00000000   -1.58113646
     atom    8 type  2   force =     0.00000000    0.00000000   -1.58113646
     atom    9 type  1   force =    -0.00000001    0.00000000    1.58113645
     atom   10 type  1   force =     0.00000001   -0.00000000    1.58113645
     atom   11 type  2   force =    -0.00000001    0.00000000   -1.58113645
     atom   12 type  2   force =     0.00000001   -0.00000000   -1.58113645
     atom   13 type  1   force =    -0.00000001    0.00000000    1.58113645
     atom   14 type  1   force =     0.00000001   -0.00000000    1.58113645
     atom   15 type  2   force =    -0.00000001    0.00000000   -1.58113645
     atom   16 type  2   force =     0.00000001   -0.00000000   -1.58113645
     atom   17 type  1   force =    -0.00000001   -0.00000000    1.58113646
     atom   18 type  1   force =    -0.00000001   -0.00000000    1.58113646
     atom   19 type  2   force =    -0.00000000   -0.00000000   -1.58113646
     atom   20 type  2   force =    -0.00000000   -0.00000000   -1.58113646
     atom   21 type  1   force =    -0.00000001   -0.00000000    1.58113646
     atom   22 type  1   force =    -0.00000001   -0.00000000    1.58113646
     atom   23 type  2   force =    -0.00000000   -0.00000000   -1.58113646
     atom   24 type  2   force =    -0.00000000   -0.00000000   -1.58113646
     The local contribution  to forces
     atom    1 type  1   force =    -0.00007089   -0.00004093   -1.79461942
     atom    2 type  1   force =     0.00007620    0.00004394   -1.79460458
     atom    3 type  2   force =     0.00020686    0.00011943    1.34586138
     atom    4 type  2   force =    -0.00020385   -0.00011771    1.34585464
     atom    5 type  1   force =    -0.00006559   -0.00003787   -1.79459074
     atom    6 type  1   force =     0.00007777    0.00004485   -1.79459664
     atom    7 type  2   force =     0.00020575    0.00011879    1.34586039
     atom    8 type  2   force =    -0.00020281   -0.00011711    1.34586405
     atom    9 type  1   force =    -0.00007965   -0.00004588   -1.79460835
     atom   10 type  1   force =     0.00005531    0.00003183   -1.79460651
     atom   11 type  2   force =     0.00020183    0.00011656    1.34586238
     atom   12 type  2   force =    -0.00020932   -0.00012088    1.34585480
     atom   13 type  1   force =    -0.00007732   -0.00004453   -1.79459740
     atom   14 type  1   force =     0.00006456    0.00003717   -1.79459435
     atom   15 type  2   force =     0.00020144    0.00011633    1.34585725
     atom   16 type  2   force =    -0.00020734   -0.00011973    1.34586343
     atom   17 type  1   force =    -0.00005870   -0.00003384   -1.79461644
     atom   18 type  1   force =     0.00007690    0.00004440   -1.79460416
     atom   19 type  2   force =     0.00020707    0.00011957    1.34586146
     atom   20 type  2   force =    -0.00020333   -0.00011739    1.34585320
     atom   21 type  1   force =    -0.00006651   -0.00003834   -1.79459088
     atom   22 type  1   force =     0.00006673    0.00003853   -1.79459108
     atom   23 type  2   force =     0.00020818    0.00012021    1.34585838
     atom   24 type  2   force =    -0.00020555   -0.00011868    1.34586281
     The core correction contribution to forces
     atom    1 type  1   force =    -0.00001011   -0.00000584   -0.01078070
     atom    2 type  1   force =     0.00001008    0.00000581   -0.01078071
     atom    3 type  2   force =     0.00000253    0.00000146   -0.00246767
     atom    4 type  2   force =    -0.00000256   -0.00000148   -0.00246763
     atom    5 type  1   force =    -0.00001032   -0.00000596   -0.01078080
     atom    6 type  1   force =     0.00001010    0.00000583   -0.01078080
     atom    7 type  2   force =     0.00000255    0.00000147   -0.00246767
     atom    8 type  2   force =    -0.00000256   -0.00000148   -0.00246771
     atom    9 type  1   force =    -0.00001020   -0.00000587   -0.01078072
     atom   10 type  1   force =     0.00001042    0.00000600   -0.01078066
     atom   11 type  2   force =     0.00000256    0.00000148   -0.00246769
     atom   12 type  2   force =    -0.00000251   -0.00000145   -0.00246765
     atom   13 type  1   force =    -0.00001015   -0.00000585   -0.01078058
     atom   14 type  1   force =     0.00001028    0.00000592   -0.01078083
     atom   15 type  2   force =     0.00000256    0.00000148   -0.00246767
     atom   16 type  2   force =    -0.00000253   -0.00000146   -0.00246769
     atom   17 type  1   force =    -0.00001045   -0.00000603   -0.01078064
     atom   18 type  1   force =     0.00001022    0.00000590   -0.01078058
     atom   19 type  2   force =     0.00000253    0.00000146   -0.00246769
     atom   20 type  2   force =    -0.00000255   -0.00000147   -0.00246766
     atom   21 type  1   force =    -0.00001030   -0.00000594   -0.01078067
     atom   22 type  1   force =     0.00001037    0.00000598   -0.01078080
     atom   23 type  2   force =     0.00000251    0.00000145   -0.00246768
     atom   24 type  2   force =    -0.00000253   -0.00000146   -0.00246771
     The Hubbard contrib.    to forces
     atom    1 type  1   force =     0.00000000    0.00000000    0.00000000
     atom    2 type  1   force =     0.00000000    0.00000000    0.00000000
     atom    3 type  2   force =     0.00000000    0.00000000    0.00000000
     atom    4 type  2   force =     0.00000000    0.00000000    0.00000000
     atom    5 type  1   force =     0.00000000    0.00000000    0.00000000
     atom    6 type  1   force =     0.00000000    0.00000000    0.00000000
     atom    7 type  2   force =     0.00000000    0.00000000    0.00000000
     atom    8 type  2   force =     0.00000000    0.00000000    0.00000000
     atom    9 type  1   force =     0.00000000    0.00000000    0.00000000
     atom   10 type  1   force =     0.00000000    0.00000000    0.00000000
     atom   11 type  2   force =     0.00000000    0.00000000    0.00000000
     atom   12 type  2   force =     0.00000000    0.00000000    0.00000000
     atom   13 type  1   force =     0.00000000    0.00000000    0.00000000
     atom   14 type  1   force =     0.00000000    0.00000000    0.00000000
     atom   15 type  2   force =     0.00000000    0.00000000    0.00000000
     atom   16 type  2   force =     0.00000000    0.00000000    0.00000000
     atom   17 type  1   force =     0.00000000    0.00000000    0.00000000
     atom   18 type  1   force =     0.00000000    0.00000000    0.00000000
     atom   19 type  2   force =     0.00000000    0.00000000    0.00000000
     atom   20 type  2   force =     0.00000000    0.00000000    0.00000000
     atom   21 type  1   force =     0.00000000    0.00000000    0.00000000
     atom   22 type  1   force =     0.00000000    0.00000000    0.00000000
     atom   23 type  2   force =     0.00000000    0.00000000    0.00000000
     atom   24 type  2   force =     0.00000000    0.00000000    0.00000000
     The SCF correction term to forces
     atom    1 type  1   force =     0.00000324    0.00000187    0.00001897
     atom    2 type  1   force =    -0.00000999   -0.00000577   -0.00000157
     atom    3 type  2   force =    -0.00000234   -0.00000135   -0.00000204
     atom    4 type  2   force =    -0.00000330   -0.00000191    0.00000905
     atom    5 type  1   force =    -0.00000566   -0.00000327   -0.00001842
     atom    6 type  1   force =    -0.00001141   -0.00000659   -0.00001108
     atom    7 type  2   force =     0.00000020    0.00000011   -0.00000104
     atom    8 type  2   force =    -0.00000417   -0.00000241   -0.00000804
     atom    9 type  1   force =     0.00001308    0.00000755    0.00000400
     atom   10 type  1   force =     0.00001975    0.00001140    0.00000284
     atom   11 type  2   force =     0.00000508    0.00000294   -0.00000442
     atom   12 type  2   force =     0.00000685    0.00000396    0.00000669
     atom   13 type  1   force =     0.00001079    0.00000623   -0.00000845
     atom   14 type  1   force =     0.00000683    0.00000394   -0.00001439
     atom   15 type  2   force =     0.00000558    0.00000322    0.00000276
     atom   16 type  2   force =     0.00000327    0.00000189   -0.00000626
     atom   17 type  1   force =    -0.00001591   -0.00000919    0.00001537
     atom   18 type  1   force =    -0.00000879   -0.00000507    0.00000062
     atom   19 type  2   force =    -0.00000285   -0.00000165   -0.00000293
     atom   20 type  2   force =    -0.00000307   -0.00000177    0.00000817
     atom   21 type  1   force =    -0.00000438   -0.00000253   -0.00001676
     atom   22 type  1   force =     0.00000506    0.00000292   -0.00001777
     atom   23 type  2   force =    -0.00000554   -0.00000320    0.00000057
     atom   24 type  2   force =     0.00000093    0.00000054   -0.00000680

     Total force =     0.093697     Total SCF correction =     0.000067

     General routines

     Parallel routines

   This run was terminated on:   4: 9:23   8Sep2025

   JOB DONE.
Note: The following floating-point exceptions are signalling: IEEE_INVALID_FLAG
Note: The following floating-point exceptions are signalling: IEEE_INVALID_FLAG
Note: The following floating-point exceptions are signalling: IEEE_INVALID_FLAG
Note: The following floating-point exceptions are signalling: IEEE_INVALID_FLAG
Note: The following floating-point exceptions are signalling: IEEE_INVALID_FLAG
Note: The following floating-point exceptions are signalling: IEEE_INVALID_FLAG
Note: The following floating-point exceptions are signalling: IEEE_INVALID_FLAG
Note: The following floating-point exceptions are signalling: IEEE_INVALID_FLAG