     Program PWSCF v.7.2 starts on  5Sep2025 at 10:32: 4

     Reading input from /home/jvc/QEspresso7.2/ZnO_database/scripts/cell312.in/ZnO-3.27-1.71-312.in
Warning: card &CELL ignored
Warning: card / ignored
Warning: card &FCP ignored
Warning: card / ignored
Warning: card &RISM ignored
Warning: card / ignored

     Current dimensions of program PWSCF are:
     Max number of different atomic species (ntypx) = 10
     Max number of k-points (npk) =  40000
     Max angular momentum in pseudopotentials (lmaxx) =  4
     file Zn.upf: wavefunction(s)  3D renormalized
     Found identity + (  0.0000  0.0000  0.5000) symmetry
     This is a supercell, fractional translations are disabled
     Message from routine setup:
     using ibrav=0 with symmetry is DISCOURAGED, use correct ibrav instead

     K-points division:     npool     =       8
     R & G space division:  proc/nbgrp/npool/nimage =       8
     Subspace diagonalization in iterative solution of the eigenvalue problem:
     a serial algorithm will be used

     Using Slab Decomposition

     bravais-lattice index     =            0
     lattice parameter (alat)  =      18.5366  a.u.
     unit-cell volume          =    2097.5460 (a.u.)^3
     number of atoms/cell      =           24
     number of atomic types    =            2
     number of electrons       =       216.00
     number of Kohn-Sham states=          108
     kinetic-energy cutoff     =      50.0000  Ry
     charge density cutoff     =     400.0000  Ry
     scf convergence threshold =      1.0E-08
     mixing beta               =       0.3000
     number of iterations used =            8  plain     mixing
     Exchange-correlation= PBE
                           (   1   4   3   4   0   0   0)

     celldm(1)=  18.536562  celldm(2)=   0.000000  celldm(3)=   0.000000
     celldm(4)=   0.000000  celldm(5)=   0.000000  celldm(6)=   0.000000

     crystal axes: (cart. coord. in units of alat)
               a(1) = (   1.000000   0.000000   0.000000 )
               a(2) = (  -0.166667   0.288675   0.000000 )
               a(3) = (   0.000000   0.000000   1.140813 )

     reciprocal axes: (cart. coord. in units 2 pi/alat)
               b(1) = (  1.000000  0.577350 -0.000000 )
               b(2) = (  0.000000  3.464102  0.000000 )
               b(3) = (  0.000000 -0.000000  0.876568 )

     PseudoPot. # 1 for Zn read from file:
     /home/jvc/QEspresso7.2/ZnO_database/pseudos/Zn.upf
     MD5 check sum: 7f56cabf9682ed8c977c2f7d0c5985c5
     Pseudo is Ultrasoft + core correction, Zval = 12.0
     Generated using &quot;atomic&quot; code by A. Dal Corso  v.6.2.2
     Using radial grid of 1201 points,  6 beta functions with:
                l(1) =   0
                l(2) =   0
                l(3) =   1
                l(4) =   1
                l(5) =   2
                l(6) =   2
     Q(r) pseudized with 0 coefficients

     PseudoPot. # 2 for O  read from file:
     /home/jvc/QEspresso7.2/ZnO_database/pseudos/O.upf
     MD5 check sum: 91400c9766925bcf19f520983a725ff0
     Pseudo is Ultrasoft + core correction, Zval =  6.0
     Generated using &quot;atomic&quot; code by A. Dal Corso  v.6.3MaX
     Using radial grid of 1095 points,  4 beta functions with:
                l(1) =   0
                l(2) =   0
                l(3) =   1
                l(4) =   1
     Q(r) pseudized with 0 coefficients

     atomic species   valence    mass     pseudopotential
        Zn            12.00    65.38000     Zn( 1.00)
        O              6.00    15.99900     O ( 1.00)

      2 Sym. Ops. (no inversion) found

                                    s                        frac. trans.

      isym =  1     identity

 cryst.   s( 1) = (     1          0          0      )
                  (     0          1          0      )
                  (     0          0          1      )

 cart.    s( 1) = (  1.0000000 -0.0000000  0.0000000 )
                  (  0.0000000  1.0000000  0.0000000 )
                  (  0.0000000  0.0000000  1.0000000 )

      isym =  2     inv. 180 deg rotation - cryst. axis [0,1,0]

 cryst.   s( 2) = (     1          3          0      )
                  (     0         -1          0      )
                  (     0          0          1      )

 cart.    s( 2) = (  0.5000000  0.8660254  0.0000000 )
                  (  0.8660254 -0.5000000  0.0000000 )
                  (  0.0000000  0.0000000  1.0000000 )

   Cartesian axes

     site n.     atom                  positions (alat units)
         1           Zn  tau(   1) = (   0.1666667   0.0962250   0.2855647  )
         2           Zn  tau(   2) = (  -0.0000000   0.1924501   0.0003614  )
         3           O   tau(   3) = (   0.1666667   0.0962250   0.5017732  )
         4           O   tau(   4) = (  -0.0000000   0.1924501   0.2165699  )
         5           Zn  tau(   5) = (   0.1666667   0.0962250   0.8559713  )
         6           Zn  tau(   6) = (  -0.0000000   0.1924501   0.5707680  )
         7           O   tau(   7) = (   0.1666667   0.0962250   1.0721799  )
         8           O   tau(   8) = (  -0.0000000   0.1924501   0.7869766  )
         9           Zn  tau(   9) = (   0.5000000   0.0962250   0.2855647  )
        10           Zn  tau(  10) = (   0.3333333   0.1924501   0.0003614  )
        11           O   tau(  11) = (   0.5000000   0.0962250   0.5017732  )
        12           O   tau(  12) = (   0.3333333   0.1924501   0.2165699  )
        13           Zn  tau(  13) = (   0.5000000   0.0962250   0.8559713  )
        14           Zn  tau(  14) = (   0.3333333   0.1924501   0.5707680  )
        15           O   tau(  15) = (   0.5000000   0.0962250   1.0721799  )
        16           O   tau(  16) = (   0.3333333   0.1924501   0.7869766  )
        17           Zn  tau(  17) = (   0.8333333   0.0962250   0.2855647  )
        18           Zn  tau(  18) = (   0.6666667   0.1924501   0.0003614  )
        19           O   tau(  19) = (   0.8333333   0.0962250   0.5017732  )
        20           O   tau(  20) = (   0.6666667   0.1924501   0.2165699  )
        21           Zn  tau(  21) = (   0.8333333   0.0962250   0.8559713  )
        22           Zn  tau(  22) = (   0.6666667   0.1924501   0.5707680  )
        23           O   tau(  23) = (   0.8333333   0.0962250   1.0721799  )
        24           O   tau(  24) = (   0.6666667   0.1924501   0.7869766  )

   Crystallographic axes

     site n.     atom                  positions (cryst. coord.)
         1           Zn  tau(   1) = (  0.2222222  0.3333333  0.2503168  )
         2           Zn  tau(   2) = (  0.1111111  0.6666667  0.0003168  )
         3           O   tau(   3) = (  0.2222222  0.3333333  0.4398382  )
         4           O   tau(   4) = (  0.1111111  0.6666667  0.1898382  )
         5           Zn  tau(   5) = (  0.2222222  0.3333333  0.7503168  )
         6           Zn  tau(   6) = (  0.1111111  0.6666667  0.5003168  )
         7           O   tau(   7) = (  0.2222222  0.3333333  0.9398382  )
         8           O   tau(   8) = (  0.1111111  0.6666667  0.6898382  )
         9           Zn  tau(   9) = (  0.5555556  0.3333333  0.2503168  )
        10           Zn  tau(  10) = (  0.4444444  0.6666667  0.0003168  )
        11           O   tau(  11) = (  0.5555556  0.3333333  0.4398382  )
        12           O   tau(  12) = (  0.4444444  0.6666667  0.1898382  )
        13           Zn  tau(  13) = (  0.5555556  0.3333333  0.7503168  )
        14           Zn  tau(  14) = (  0.4444444  0.6666667  0.5003168  )
        15           O   tau(  15) = (  0.5555556  0.3333333  0.9398382  )
        16           O   tau(  16) = (  0.4444444  0.6666667  0.6898382  )
        17           Zn  tau(  17) = (  0.8888889  0.3333333  0.2503168  )
        18           Zn  tau(  18) = (  0.7777778  0.6666667  0.0003168  )
        19           O   tau(  19) = (  0.8888889  0.3333333  0.4398382  )
        20           O   tau(  20) = (  0.7777778  0.6666667  0.1898382  )
        21           Zn  tau(  21) = (  0.8888889  0.3333333  0.7503168  )
        22           Zn  tau(  22) = (  0.7777778  0.6666667  0.5003168  )
        23           O   tau(  23) = (  0.8888889  0.3333333  0.9398382  )
        24           O   tau(  24) = (  0.7777778  0.6666667  0.6898382  )

     number of k points=    68
                       cart. coord. in units 2pi/alat
        k(    1) = (   0.0000000   0.0000000   0.0000000), wk =   0.0092593
        k(    2) = (   0.0000000   0.0000000   0.1460946), wk =   0.0185185
        k(    3) = (   0.0000000   0.0000000   0.2921892), wk =   0.0185185
        k(    4) = (   0.0000000   0.0000000  -0.4382838), wk =   0.0092593
        k(    5) = (   0.0000000   0.5773503   0.0000000), wk =   0.0370370
        k(    6) = (   0.0000000   0.5773503   0.1460946), wk =   0.0370370
        k(    7) = (   0.0000000   0.5773503   0.2921892), wk =   0.0370370
        k(    8) = (   0.0000000   0.5773503  -0.4382838), wk =   0.0370370
        k(    9) = (   0.0000000   1.1547005   0.0000000), wk =   0.0185185
        k(   10) = (   0.0000000   1.1547005   0.1460946), wk =   0.0370370
        k(   11) = (   0.0000000   1.1547005   0.2921892), wk =   0.0370370
        k(   12) = (   0.0000000   1.1547005  -0.4382838), wk =   0.0185185
        k(   13) = (   0.0000000  -1.7320508   0.0000000), wk =   0.0185185
        k(   14) = (   0.0000000  -1.7320508   0.1460946), wk =   0.0370370
        k(   15) = (   0.0000000  -1.7320508   0.2921892), wk =   0.0370370
        k(   16) = (   0.0000000  -1.7320508  -0.4382838), wk =   0.0185185
        k(   17) = (   0.1666667   0.0962250   0.0000000), wk =   0.0185185
        k(   18) = (   0.1666667   0.0962250   0.1460946), wk =   0.0185185
        k(   19) = (   0.1666667   0.0962250   0.2921892), wk =   0.0185185
        k(   20) = (   0.1666667   0.0962250  -0.4382838), wk =   0.0185185
        k(   21) = (   0.1666667   0.6735753   0.0000000), wk =   0.0370370
        k(   22) = (   0.1666667   0.6735753   0.1460946), wk =   0.0370370
        k(   23) = (   0.1666667   0.6735753   0.2921892), wk =   0.0370370
        k(   24) = (   0.1666667   0.6735753  -0.4382838), wk =   0.0370370
        k(   25) = (   0.1666667   1.2509256   0.0000000), wk =   0.0370370
        k(   26) = (   0.1666667   1.2509256   0.1460946), wk =   0.0370370
        k(   27) = (   0.1666667   1.2509256   0.2921892), wk =   0.0370370
        k(   28) = (   0.1666667   1.2509256  -0.4382838), wk =   0.0370370
        k(   29) = (   0.1666667  -1.6358258   0.0000000), wk =   0.0370370
        k(   30) = (   0.1666667  -1.6358258   0.1460946), wk =   0.0370370
        k(   31) = (   0.1666667  -1.6358258   0.2921892), wk =   0.0370370
        k(   32) = (   0.1666667  -1.6358258  -0.4382838), wk =   0.0370370
        k(   33) = (   0.1666667  -0.4811252   0.0000000), wk =   0.0370370
        k(   34) = (   0.1666667  -0.4811252   0.1460946), wk =   0.0370370
        k(   35) = (   0.1666667  -0.4811252   0.2921892), wk =   0.0370370
        k(   36) = (   0.1666667  -0.4811252  -0.4382838), wk =   0.0370370
        k(   37) = (   0.3333333   0.1924501   0.0000000), wk =   0.0185185
[...]
     1.0000   1.0000   1.0000   1.0000   1.0000   1.0000   1.0000   1.0000
     1.0000   1.0000   1.0000   1.0000

[...]

          k =-0.5000-0.2887 0.0000 ( 12470 PWs)   bands (ev):

[...]

          k =-0.3333 0.3849-0.2922 ( 12535 PWs)   bands (ev):

[...]

          k = 1.3333-0.3849-0.2922 ( 12550 PWs)   bands (ev):

   -11.0305 -10.9685 -10.8576 -10.8168 -10.7987 -10.7501 -10.7366 -10.7275
   -10.7089 -10.6710 -10.6708 -10.6524   0.4973   0.5215   0.5239   0.5526
     0.6080   0.6267   0.6806   0.6898   0.7219   0.7484   0.7989   0.8767
     0.9006   0.9207   0.9340   0.9591   0.9770   0.9817   0.9820   1.0298
     1.0855   1.0987   1.1255   1.1341   1.1522   1.1924   1.1979   1.2031
     1.2194   1.2330   1.2728   1.3051   1.3153   1.3402   1.3459   1.4110
     1.6182   1.6602   1.6662   1.6945   1.7246   1.7291   1.7311   1.7553
     1.7573   1.7752   1.7851   1.8067   1.8179   1.8401   1.8637   1.8723
     1.8740   1.9203   1.9462   1.9583   1.9603   2.0307   2.0636   2.0696
     2.4111   2.4602   2.5142   2.6484   2.6543   2.7152   2.8316   2.9559
     2.9966   3.0832   3.3230   3.5983   3.6253   3.6540   3.7296   4.0187
     4.0510   4.1295   4.2030   4.2271   4.2415   4.4266   4.5300   4.5728
     4.6597   4.7948   4.8636   4.9029   4.9321   5.0556   5.0787   5.1808
     5.1882   5.2826   5.4065   5.4488

     occupation numbers
     1.0000   1.0000   1.0000   1.0000   1.0000   1.0000   1.0000   1.0000
     1.0000   1.0000   1.0000   1.0000   1.0000   1.0000   1.0000   1.0000
     1.0000   1.0000   1.0000   1.0000   1.0000   1.0000   1.0000   1.0000
     1.0000   1.0000   1.0000   1.0000   1.0000   1.0000   1.0000   1.0000
     1.0000   1.0000   1.0000   1.0000   1.0000   1.0000   1.0000   1.0000
     1.0000   1.0000   1.0000   1.0000   1.0000   1.0000   1.0000   1.0000
     1.0000   1.0000   1.0000   1.0000   1.0000   1.0000   1.0000   1.0000
     1.0000   1.0000   1.0000   1.0000   1.0000   1.0000   1.0000   1.0000
     1.0000   1.0000   1.0000   1.0000   1.0000   1.0000   1.0000   1.0000
     1.0000   1.0000   1.0000   1.0000   1.0000   1.0000   1.0000   1.0000
     1.0000   1.0000   1.0000   1.0000   1.0000   1.0000   1.0000   1.0000
     1.0000   1.0000   1.0000   1.0000   1.0000   1.0000   1.0000   1.0000
     1.0000   1.0000   1.0000   1.0000   1.0000   1.0000   1.0000   1.0000
     1.0000   1.0000   1.0000   1.0000

     highest occupied level (ev):     6.1178

!    total energy              =   -2169.77720326 Ry
     estimated scf accuracy    <          1.1E-10 Ry

     The total energy is the sum of the following terms:
     one-electron contribution =    -968.01133973 Ry
     hartree contribution      =     724.41145217 Ry
     xc contribution           =    -656.59603712 Ry
     ewald contribution        =   -1269.58127857 Ry

     convergence has been achieved in  44 iterations

     Forces acting on atoms (cartesian axes, Ry/au):

     atom    1 type  1   force =     0.00000159    0.00000092    0.00821362
     atom    2 type  1   force =    -0.00000258   -0.00000149    0.00822505
     atom    3 type  2   force =    -0.00000446   -0.00000257   -0.00821945
     atom    4 type  2   force =     0.00000456    0.00000263   -0.00821785
     atom    5 type  1   force =     0.00000296    0.00000171    0.00822413
     atom    6 type  1   force =    -0.00000238   -0.00000137    0.00821024
     atom    7 type  2   force =    -0.00000414   -0.00000239   -0.00821717
     atom    8 type  2   force =     0.00000462    0.00000267   -0.00821847
     atom    9 type  1   force =     0.00000470    0.00000271    0.00821563
     atom   10 type  1   force =    -0.00000084   -0.00000049    0.00822270
     atom   11 type  2   force =    -0.00000420   -0.00000243   -0.00821961
     atom   12 type  2   force =     0.00000494    0.00000285   -0.00821785
     atom   13 type  1   force =     0.00000297    0.00000172    0.00822365
     atom   14 type  1   force =    -0.00000071   -0.00000041    0.00821034
     atom   15 type  2   force =    -0.00000427   -0.00000247   -0.00821687
     atom   16 type  2   force =     0.00000510    0.00000294   -0.00821817
     atom   17 type  1   force =     0.00000030    0.00000017    0.00821407
     atom   18 type  1   force =    -0.00000346   -0.00000200    0.00822485
     atom   19 type  2   force =    -0.00000508   -0.00000294   -0.00821944
     atom   20 type  2   force =     0.00000445    0.00000257   -0.00821743
     atom   21 type  1   force =     0.00000090    0.00000052    0.00822293
     atom   22 type  1   force =    -0.00000449   -0.00000259    0.00821022
     atom   23 type  2   force =    -0.00000458   -0.00000264   -0.00821692
     atom   24 type  2   force =     0.00000411    0.00000237   -0.00821820
     The non-local contrib.  to forces
     atom    1 type  1   force =    -0.00000534   -0.00000309    0.15272813
     atom    2 type  1   force =     0.00000556    0.00000321    0.15273565
     atom    3 type  2   force =    -0.00020537   -0.00011857    0.15218606
     atom    4 type  2   force =     0.00020566    0.00011874    0.15218974
     atom    5 type  1   force =    -0.00000606   -0.00000350    0.15274191
     atom    6 type  1   force =     0.00000571    0.00000329    0.15273284
     atom    7 type  2   force =    -0.00020523   -0.00011849    0.15218663
     atom    8 type  2   force =     0.00020530    0.00011853    0.15218270
     atom    9 type  1   force =    -0.00000551   -0.00000318    0.15272808
     atom   10 type  1   force =     0.00000536    0.00000309    0.15273600
     atom   11 type  2   force =    -0.00020593   -0.00011889    0.15218561
     atom   12 type  2   force =     0.00020529    0.00011852    0.15218895
     atom   13 type  1   force =    -0.00000580   -0.00000335    0.15274161
     atom   14 type  1   force =     0.00000564    0.00000326    0.15273276
     atom   15 type  2   force =    -0.00020540   -0.00011859    0.15218683
     atom   16 type  2   force =     0.00020518    0.00011846    0.15218315
     atom   17 type  1   force =    -0.00000578   -0.00000333    0.15272846
     atom   18 type  1   force =     0.00000613    0.00000354    0.15273584
     atom   19 type  2   force =    -0.00020495   -0.00011833    0.15218652
     atom   20 type  2   force =     0.00020537    0.00011857    0.15218946
     atom   21 type  1   force =    -0.00000498   -0.00000287    0.15274186
     atom   22 type  1   force =     0.00000526    0.00000303    0.15273228
     atom   23 type  2   force =    -0.00020510   -0.00011841    0.15218646
     atom   24 type  2   force =     0.00020571    0.00011877    0.15218262
     The ionic contribution  to forces
     atom    1 type  1   force =     0.00000001    0.00000001    1.21906034
     atom    2 type  1   force =     0.00000001    0.00000000    1.21906034
     atom    3 type  2   force =     0.00000000    0.00000000   -1.21906034
     atom    4 type  2   force =     0.00000000    0.00000000   -1.21906034
     atom    5 type  1   force =     0.00000001    0.00000001    1.21906034
     atom    6 type  1   force =     0.00000001    0.00000000    1.21906034
     atom    7 type  2   force =     0.00000000    0.00000000   -1.21906034
     atom    8 type  2   force =     0.00000000    0.00000000   -1.21906034
     atom    9 type  1   force =    -0.00000001    0.00000000    1.21906033
     atom   10 type  1   force =     0.00000001   -0.00000000    1.21906033
     atom   11 type  2   force =    -0.00000001    0.00000000   -1.21906033
     atom   12 type  2   force =     0.00000001   -0.00000000   -1.21906033
     atom   13 type  1   force =    -0.00000001    0.00000000    1.21906033
     atom   14 type  1   force =     0.00000001   -0.00000000    1.21906033
     atom   15 type  2   force =    -0.00000001    0.00000000   -1.21906033
     atom   16 type  2   force =     0.00000001   -0.00000000   -1.21906033
     atom   17 type  1   force =    -0.00000001   -0.00000000    1.21906034
     atom   18 type  1   force =    -0.00000001   -0.00000001    1.21906034
     atom   19 type  2   force =    -0.00000000   -0.00000000   -1.21906034
     atom   20 type  2   force =    -0.00000000   -0.00000000   -1.21906034
     atom   21 type  1   force =    -0.00000001   -0.00000000    1.21906034
     atom   22 type  1   force =    -0.00000001   -0.00000001    1.21906034
     atom   23 type  2   force =    -0.00000000   -0.00000000   -1.21906034
     atom   24 type  2   force =    -0.00000000   -0.00000000   -1.21906034
     The local contribution  to forces
     atom    1 type  1   force =     0.00001675    0.00000967   -1.35316468
     atom    2 type  1   force =    -0.00001598   -0.00000928   -1.35317693
     atom    3 type  2   force =     0.00019822    0.00011444    1.05993676
     atom    4 type  2   force =    -0.00019791   -0.00011428    1.05993877
     atom    5 type  1   force =     0.00001591    0.00000919   -1.35318631
     atom    6 type  1   force =    -0.00001579   -0.00000916   -1.35317027
     atom    7 type  2   force =     0.00019875    0.00011475    1.05993628
     atom    8 type  2   force =    -0.00019824   -0.00011447    1.05993270
     atom    9 type  1   force =     0.00001348    0.00000788   -1.35316637
     atom   10 type  1   force =    -0.00001667   -0.00000972   -1.35317507
     atom   11 type  2   force =     0.00019814    0.00011442    1.05993683
     atom   12 type  2   force =    -0.00019936   -0.00011513    1.05993886
     atom   13 type  1   force =     0.00001553    0.00000906   -1.35318560
     atom   14 type  1   force =    -0.00001755   -0.00001023   -1.35317011
     atom   15 type  2   force =     0.00019859    0.00011468    1.05993683
     atom   16 type  2   force =    -0.00019900   -0.00011492    1.05993296
     atom   17 type  1   force =     0.00001741    0.00001010   -1.35316485
     atom   18 type  1   force =    -0.00001529   -0.00000883   -1.35317734
     atom   19 type  2   force =     0.00019927    0.00011506    1.05993670
     atom   20 type  2   force =    -0.00019878   -0.00011477    1.05993893
     atom   21 type  1   force =     0.00001640    0.00000952   -1.35318502
     atom   22 type  1   force =    -0.00001386   -0.00000800   -1.35316963
     atom   23 type  2   force =     0.00019904    0.00011493    1.05993621
     atom   24 type  2   force =    -0.00019867   -0.00011470    1.05993418
     The core correction contribution to forces
     atom    1 type  1   force =    -0.00000817   -0.00000472   -0.01039908
     atom    2 type  1   force =     0.00000815    0.00000470   -0.01040045
     atom    3 type  2   force =     0.00000232    0.00000134   -0.00127763
     atom    4 type  2   force =    -0.00000232   -0.00000134   -0.00127928
     atom    5 type  1   force =    -0.00000810   -0.00000467   -0.01040405
     atom    6 type  1   force =     0.00000810    0.00000467   -0.01040269
     atom    7 type  2   force =     0.00000232    0.00000134   -0.00128041
     atom    8 type  2   force =    -0.00000232   -0.00000134   -0.00127875
     atom    9 type  1   force =    -0.00000806   -0.00000464   -0.01039903
     atom   10 type  1   force =     0.00000813    0.00000468   -0.01040052
     atom   11 type  2   force =     0.00000233    0.00000134   -0.00127762
     atom   12 type  2   force =    -0.00000232   -0.00000134   -0.00127927
     atom   13 type  1   force =    -0.00000810   -0.00000467   -0.01040405
     atom   14 type  1   force =     0.00000817    0.00000471   -0.01040270
     atom   15 type  2   force =     0.00000232    0.00000134   -0.00128041
     atom   16 type  2   force =    -0.00000232   -0.00000134   -0.00127875
     atom   17 type  1   force =    -0.00000812   -0.00000468   -0.01039912
     atom   18 type  1   force =     0.00000807    0.00000466   -0.01040042
     atom   19 type  2   force =     0.00000232    0.00000134   -0.00127763
     atom   20 type  2   force =    -0.00000232   -0.00000134   -0.00127927
     atom   21 type  1   force =    -0.00000815   -0.00000470   -0.01040410
     atom   22 type  1   force =     0.00000810    0.00000468   -0.01040269
     atom   23 type  2   force =     0.00000232    0.00000134   -0.00128041
     atom   24 type  2   force =    -0.00000233   -0.00000134   -0.00127875
     The Hubbard contrib.    to forces
     atom    1 type  1   force =     0.00000000    0.00000000    0.00000000
     atom    2 type  1   force =     0.00000000    0.00000000    0.00000000
     atom    3 type  2   force =     0.00000000    0.00000000    0.00000000
     atom    4 type  2   force =     0.00000000    0.00000000    0.00000000
     atom    5 type  1   force =     0.00000000    0.00000000    0.00000000
     atom    6 type  1   force =     0.00000000    0.00000000    0.00000000
     atom    7 type  2   force =     0.00000000    0.00000000    0.00000000
     atom    8 type  2   force =     0.00000000    0.00000000    0.00000000
     atom    9 type  1   force =     0.00000000    0.00000000    0.00000000
     atom   10 type  1   force =     0.00000000    0.00000000    0.00000000
     atom   11 type  2   force =     0.00000000    0.00000000    0.00000000
     atom   12 type  2   force =     0.00000000    0.00000000    0.00000000
     atom   13 type  1   force =     0.00000000    0.00000000    0.00000000
     atom   14 type  1   force =     0.00000000    0.00000000    0.00000000
     atom   15 type  2   force =     0.00000000    0.00000000    0.00000000
     atom   16 type  2   force =     0.00000000    0.00000000    0.00000000
     atom   17 type  1   force =     0.00000000    0.00000000    0.00000000
     atom   18 type  1   force =     0.00000000    0.00000000    0.00000000
     atom   19 type  2   force =     0.00000000    0.00000000    0.00000000
     atom   20 type  2   force =     0.00000000    0.00000000    0.00000000
     atom   21 type  1   force =     0.00000000    0.00000000    0.00000000
     atom   22 type  1   force =     0.00000000    0.00000000    0.00000000
     atom   23 type  2   force =     0.00000000    0.00000000    0.00000000
     atom   24 type  2   force =     0.00000000    0.00000000    0.00000000
     The SCF correction term to forces
     atom    1 type  1   force =    -0.00000172   -0.00000099   -0.00001052
     atom    2 type  1   force =    -0.00000036   -0.00000021    0.00000701
     atom    3 type  2   force =     0.00000029    0.00000017   -0.00000373
     atom    4 type  2   force =    -0.00000094   -0.00000054   -0.00000617
     atom    5 type  1   force =     0.00000112    0.00000065    0.00001282
     atom    6 type  1   force =    -0.00000045   -0.00000026   -0.00000941
     atom    7 type  2   force =    -0.00000005   -0.00000003    0.00000123
     atom    8 type  2   force =    -0.00000019   -0.00000011    0.00000579
     atom    9 type  1   force =     0.00000468    0.00000270   -0.00000682
     atom   10 type  1   force =     0.00000231    0.00000133    0.00000254
     atom   11 type  2   force =     0.00000118    0.00000068   -0.00000352
     atom   12 type  2   force =     0.00000127    0.00000073   -0.00000548
     atom   13 type  1   force =     0.00000124    0.00000071    0.00001193
     atom   14 type  1   force =     0.00000299    0.00000173   -0.00000936
     atom   15 type  2   force =     0.00000013    0.00000008    0.00000078
     atom   16 type  2   force =     0.00000116    0.00000067    0.00000538
     atom   17 type  1   force =    -0.00000331   -0.00000191   -0.00001019
     atom   18 type  1   force =    -0.00000243   -0.00000140    0.00000701
     atom   19 type  2   force =    -0.00000179   -0.00000104   -0.00000413
     atom   20 type  2   force =     0.00000012    0.00000007   -0.00000563
     atom   21 type  1   force =    -0.00000246   -0.00000142    0.00001042
     atom   22 type  1   force =    -0.00000405   -0.00000234   -0.00000951
     atom   23 type  2   force =    -0.00000091   -0.00000053    0.00000172
     atom   24 type  2   force =    -0.00000068   -0.00000039    0.00000466

     Total force =     0.040260     Total SCF correction =     0.000037

     General routines

     Parallel routines

   This run was terminated on:  10:56:43   5Sep2025

   JOB DONE.
Note: The following floating-point exceptions are signalling: IEEE_INVALID_FLAG
Note: The following floating-point exceptions are signalling: IEEE_INVALID_FLAG
Note: The following floating-point exceptions are signalling: IEEE_INVALID_FLAG
Note: The following floating-point exceptions are signalling: IEEE_INVALID_FLAG
Note: The following floating-point exceptions are signalling: IEEE_INVALID_FLAG
Note: The following floating-point exceptions are signalling: IEEE_INVALID_FLAG
Note: The following floating-point exceptions are signalling: IEEE_INVALID_FLAG
Note: The following floating-point exceptions are signalling: IEEE_INVALID_FLAG