     Program PWSCF v.7.2 starts on  4Sep2025 at 14:46:55

     Reading input from /home/jvc/QEspresso7.2/ZnO_database/scripts/cell312.in/ZnO-2.94-1.68-312.in
Warning: card &CELL ignored
Warning: card / ignored
Warning: card &FCP ignored
Warning: card / ignored
Warning: card &RISM ignored
Warning: card / ignored

     Current dimensions of program PWSCF are:
     Max number of different atomic species (ntypx) = 10
     Max number of k-points (npk) =  40000
     Max angular momentum in pseudopotentials (lmaxx) =  4
     file Zn.upf: wavefunction(s)  3D renormalized
     Found identity + (  0.0000  0.0000  0.5000) symmetry
     This is a supercell, fractional translations are disabled
     Message from routine setup:
     using ibrav=0 with symmetry is DISCOURAGED, use correct ibrav instead

     K-points division:     npool     =       8
     R & G space division:  proc/nbgrp/npool/nimage =       8
     Subspace diagonalization in iterative solution of the eigenvalue problem:
     a serial algorithm will be used

     Using Slab Decomposition

     bravais-lattice index     =            0
     lattice parameter (alat)  =      16.6829  a.u.
     unit-cell volume          =    1500.2599 (a.u.)^3
     number of atoms/cell      =           24
     number of atomic types    =            2
     number of electrons       =       216.00
     number of Kohn-Sham states=          108
     kinetic-energy cutoff     =      50.0000  Ry
     charge density cutoff     =     400.0000  Ry
     scf convergence threshold =      1.0E-08
     mixing beta               =       0.3000
     number of iterations used =            8  plain     mixing
     Exchange-correlation= PBE
                           (   1   4   3   4   0   0   0)

     celldm(1)=  16.682906  celldm(2)=   0.000000  celldm(3)=   0.000000
     celldm(4)=   0.000000  celldm(5)=   0.000000  celldm(6)=   0.000000

     crystal axes: (cart. coord. in units of alat)
               a(1) = (   1.000000   0.000000   0.000000 )
               a(2) = (  -0.166667   0.288675   0.000000 )
               a(3) = (   0.000000   0.000000   1.119288 )

     reciprocal axes: (cart. coord. in units 2 pi/alat)
               b(1) = (  1.000000  0.577350 -0.000000 )
               b(2) = (  0.000000  3.464102  0.000000 )
               b(3) = (  0.000000 -0.000000  0.893425 )

     PseudoPot. # 1 for Zn read from file:
     /home/jvc/QEspresso7.2/ZnO_database/pseudos/Zn.upf
     MD5 check sum: 7f56cabf9682ed8c977c2f7d0c5985c5
     Pseudo is Ultrasoft + core correction, Zval = 12.0
     Generated using &quot;atomic&quot; code by A. Dal Corso  v.6.2.2
     Using radial grid of 1201 points,  6 beta functions with:
                l(1) =   0
                l(2) =   0
                l(3) =   1
                l(4) =   1
                l(5) =   2
                l(6) =   2
     Q(r) pseudized with 0 coefficients

     PseudoPot. # 2 for O  read from file:
     /home/jvc/QEspresso7.2/ZnO_database/pseudos/O.upf
     MD5 check sum: 91400c9766925bcf19f520983a725ff0
     Pseudo is Ultrasoft + core correction, Zval =  6.0
     Generated using &quot;atomic&quot; code by A. Dal Corso  v.6.3MaX
     Using radial grid of 1095 points,  4 beta functions with:
                l(1) =   0
                l(2) =   0
                l(3) =   1
                l(4) =   1
     Q(r) pseudized with 0 coefficients

     atomic species   valence    mass     pseudopotential
        Zn            12.00    65.38000     Zn( 1.00)
        O              6.00    15.99900     O ( 1.00)

      2 Sym. Ops. (no inversion) found

                                    s                        frac. trans.

      isym =  1     identity

 cryst.   s( 1) = (     1          0          0      )
                  (     0          1          0      )
                  (     0          0          1      )

 cart.    s( 1) = (  1.0000000  0.0000000  0.0000000 )
                  (  0.0000000  1.0000000  0.0000000 )
                  (  0.0000000  0.0000000  1.0000000 )

      isym =  2     inv. 180 deg rotation - cryst. axis [0,1,0]

 cryst.   s( 2) = (     1          3          0      )
                  (     0         -1          0      )
                  (     0          0          1      )

 cart.    s( 2) = (  0.5000000  0.8660254  0.0000000 )
                  (  0.8660254 -0.5000000  0.0000000 )
                  (  0.0000000  0.0000000  1.0000000 )

   Cartesian axes

     site n.     atom                  positions (alat units)
         1           Zn  tau(   1) = (   0.1666667   0.0962250   0.2801767  )
         2           Zn  tau(   2) = (  -0.0000000   0.1924501   0.0003546  )
         3           O   tau(   3) = (   0.1666667   0.0962250   0.4923058  )
         4           O   tau(   4) = (  -0.0000000   0.1924501   0.2124837  )
         5           Zn  tau(   5) = (   0.1666667   0.0962250   0.8398209  )
         6           Zn  tau(   6) = (  -0.0000000   0.1924501   0.5599988  )
         7           O   tau(   7) = (   0.1666667   0.0962250   1.0519501  )
         8           O   tau(   8) = (  -0.0000000   0.1924501   0.7721279  )
         9           Zn  tau(   9) = (   0.5000000   0.0962250   0.2801767  )
        10           Zn  tau(  10) = (   0.3333333   0.1924501   0.0003546  )
        11           O   tau(  11) = (   0.5000000   0.0962250   0.4923058  )
        12           O   tau(  12) = (   0.3333333   0.1924501   0.2124837  )
        13           Zn  tau(  13) = (   0.5000000   0.0962250   0.8398209  )
        14           Zn  tau(  14) = (   0.3333333   0.1924501   0.5599988  )
        15           O   tau(  15) = (   0.5000000   0.0962250   1.0519501  )
        16           O   tau(  16) = (   0.3333333   0.1924501   0.7721279  )
        17           Zn  tau(  17) = (   0.8333333   0.0962250   0.2801767  )
        18           Zn  tau(  18) = (   0.6666667   0.1924501   0.0003546  )
        19           O   tau(  19) = (   0.8333333   0.0962250   0.4923058  )
        20           O   tau(  20) = (   0.6666667   0.1924501   0.2124837  )
        21           Zn  tau(  21) = (   0.8333333   0.0962250   0.8398209  )
        22           Zn  tau(  22) = (   0.6666667   0.1924501   0.5599988  )
        23           O   tau(  23) = (   0.8333333   0.0962250   1.0519501  )
        24           O   tau(  24) = (   0.6666667   0.1924501   0.7721279  )

   Crystallographic axes

     site n.     atom                  positions (cryst. coord.)
         1           Zn  tau(   1) = (  0.2222222  0.3333333  0.2503168  )
         2           Zn  tau(   2) = (  0.1111111  0.6666667  0.0003168  )
         3           O   tau(   3) = (  0.2222222  0.3333333  0.4398382  )
         4           O   tau(   4) = (  0.1111111  0.6666667  0.1898382  )
         5           Zn  tau(   5) = (  0.2222222  0.3333333  0.7503168  )
         6           Zn  tau(   6) = (  0.1111111  0.6666667  0.5003168  )
         7           O   tau(   7) = (  0.2222222  0.3333333  0.9398382  )
         8           O   tau(   8) = (  0.1111111  0.6666667  0.6898382  )
         9           Zn  tau(   9) = (  0.5555556  0.3333333  0.2503168  )
        10           Zn  tau(  10) = (  0.4444444  0.6666667  0.0003168  )
        11           O   tau(  11) = (  0.5555556  0.3333333  0.4398382  )
        12           O   tau(  12) = (  0.4444444  0.6666667  0.1898382  )
        13           Zn  tau(  13) = (  0.5555556  0.3333333  0.7503168  )
        14           Zn  tau(  14) = (  0.4444444  0.6666667  0.5003168  )
        15           O   tau(  15) = (  0.5555556  0.3333333  0.9398382  )
        16           O   tau(  16) = (  0.4444444  0.6666667  0.6898382  )
        17           Zn  tau(  17) = (  0.8888889  0.3333333  0.2503168  )
        18           Zn  tau(  18) = (  0.7777778  0.6666667  0.0003168  )
        19           O   tau(  19) = (  0.8888889  0.3333333  0.4398382  )
        20           O   tau(  20) = (  0.7777778  0.6666667  0.1898382  )
        21           Zn  tau(  21) = (  0.8888889  0.3333333  0.7503168  )
        22           Zn  tau(  22) = (  0.7777778  0.6666667  0.5003168  )
        23           O   tau(  23) = (  0.8888889  0.3333333  0.9398382  )
        24           O   tau(  24) = (  0.7777778  0.6666667  0.6898382  )

     number of k points=    68
                       cart. coord. in units 2pi/alat
        k(    1) = (   0.0000000   0.0000000   0.0000000), wk =   0.0092593
        k(    2) = (   0.0000000   0.0000000   0.1489041), wk =   0.0185185
        k(    3) = (   0.0000000   0.0000000   0.2978082), wk =   0.0185185
        k(    4) = (   0.0000000   0.0000000  -0.4467124), wk =   0.0092593
        k(    5) = (   0.0000000   0.5773503   0.0000000), wk =   0.0370370
        k(    6) = (   0.0000000   0.5773503   0.1489041), wk =   0.0370370
        k(    7) = (   0.0000000   0.5773503   0.2978082), wk =   0.0370370
        k(    8) = (   0.0000000   0.5773503  -0.4467124), wk =   0.0370370
        k(    9) = (   0.0000000   1.1547005   0.0000000), wk =   0.0185185
        k(   10) = (   0.0000000   1.1547005   0.1489041), wk =   0.0370370
        k(   11) = (   0.0000000   1.1547005   0.2978082), wk =   0.0370370
        k(   12) = (   0.0000000   1.1547005  -0.4467124), wk =   0.0185185
        k(   13) = (   0.0000000  -1.7320508   0.0000000), wk =   0.0185185
        k(   14) = (   0.0000000  -1.7320508   0.1489041), wk =   0.0370370
        k(   15) = (   0.0000000  -1.7320508   0.2978082), wk =   0.0370370
        k(   16) = (   0.0000000  -1.7320508  -0.4467124), wk =   0.0185185
        k(   17) = (   0.1666667   0.0962250   0.0000000), wk =   0.0185185
        k(   18) = (   0.1666667   0.0962250   0.1489041), wk =   0.0185185
        k(   19) = (   0.1666667   0.0962250   0.2978082), wk =   0.0185185
        k(   20) = (   0.1666667   0.0962250  -0.4467124), wk =   0.0185185
        k(   21) = (   0.1666667   0.6735753   0.0000000), wk =   0.0370370
        k(   22) = (   0.1666667   0.6735753   0.1489041), wk =   0.0370370
        k(   23) = (   0.1666667   0.6735753   0.2978082), wk =   0.0370370
        k(   24) = (   0.1666667   0.6735753  -0.4467124), wk =   0.0370370
        k(   25) = (   0.1666667   1.2509256   0.0000000), wk =   0.0370370
        k(   26) = (   0.1666667   1.2509256   0.1489041), wk =   0.0370370
        k(   27) = (   0.1666667   1.2509256   0.2978082), wk =   0.0370370
        k(   28) = (   0.1666667   1.2509256  -0.4467124), wk =   0.0370370
        k(   29) = (   0.1666667  -1.6358258   0.0000000), wk =   0.0370370
        k(   30) = (   0.1666667  -1.6358258   0.1489041), wk =   0.0370370
        k(   31) = (   0.1666667  -1.6358258   0.2978082), wk =   0.0370370
        k(   32) = (   0.1666667  -1.6358258  -0.4467124), wk =   0.0370370
        k(   33) = (   0.1666667  -0.4811252   0.0000000), wk =   0.0370370
        k(   34) = (   0.1666667  -0.4811252   0.1489041), wk =   0.0370370
        k(   35) = (   0.1666667  -0.4811252   0.2978082), wk =   0.0370370
        k(   36) = (   0.1666667  -0.4811252  -0.4467124), wk =   0.0370370
        k(   37) = (   0.3333333   0.1924501   0.0000000), wk =   0.0185185
[...]
     1.0000   1.0000   1.0000   1.0000   1.0000   1.0000   1.0000   1.0000
     1.0000   1.0000   1.0000   1.0000

[...]

          k =-0.5000-0.2887 0.0000 (  8950 PWs)   bands (ev):

[...]

          k =-0.3333 0.3849-0.2978 (  8958 PWs)   bands (ev):

[...]

          k = 1.3333-0.3849-0.2978 (  8951 PWs)   bands (ev):

    -8.1628  -8.0318  -7.8227  -7.7340  -7.6719  -7.6086  -7.5572  -7.5405
    -7.5049  -7.4376  -7.4271  -7.4022   3.5141   3.5776   3.6109   3.6421
     3.6712   3.6797   3.8214   3.8790   3.8893   3.9327   3.9369   4.0838
     4.4950   4.5093   4.5447   4.5588   4.6094   4.6131   4.6486   4.6511
     4.6664   4.7584   4.7916   4.7981   4.8031   4.8318   4.9203   5.0047
     5.0468   5.1252   5.1273   5.2374   5.2716   5.2922   5.3146   5.3698
     6.2146   6.2695   6.2850   6.3851   6.4055   6.4350   6.4662   6.5012
     6.5349   6.5446   6.5738   6.6392   6.6822   6.7364   6.7580   6.7585
     6.7870   6.7879   6.8120   6.8522   6.8715   6.8791   6.9508   7.1064
     7.1932   7.2473   7.3064   7.4814   7.4954   7.5643   7.5992   7.8020
     7.8972   7.9141   8.1041   8.1503   8.4244   8.4649   8.6620   8.7048
     8.7983   8.8226   8.8887   9.1196   9.1277   9.1933   9.3831   9.4421
     9.5018   9.6559   9.8374   9.8837   9.9013  10.0845  10.1285  10.3207
    10.3313  10.4521  10.6300  10.7237

     occupation numbers
     1.0000   1.0000   1.0000   1.0000   1.0000   1.0000   1.0000   1.0000
     1.0000   1.0000   1.0000   1.0000   1.0000   1.0000   1.0000   1.0000
     1.0000   1.0000   1.0000   1.0000   1.0000   1.0000   1.0000   1.0000
     1.0000   1.0000   1.0000   1.0000   1.0000   1.0000   1.0000   1.0000
     1.0000   1.0000   1.0000   1.0000   1.0000   1.0000   1.0000   1.0000
     1.0000   1.0000   1.0000   1.0000   1.0000   1.0000   1.0000   1.0000
     1.0000   1.0000   1.0000   1.0000   1.0000   1.0000   1.0000   1.0000
     1.0000   1.0000   1.0000   1.0000   1.0000   1.0000   1.0000   1.0000
     1.0000   1.0000   1.0000   1.0000   1.0000   1.0000   1.0000   1.0000
     1.0000   1.0000   1.0000   1.0000   1.0000   1.0000   1.0000   1.0000
     1.0000   1.0000   1.0000   1.0000   1.0000   1.0000   1.0000   1.0000
     1.0000   1.0000   1.0000   1.0000   1.0000   1.0000   1.0000   1.0000
     1.0000   1.0000   1.0000   1.0000   1.0000   1.0000   1.0000   1.0000
     1.0000   1.0000   1.0000   1.0000

     highest occupied level (ev):    11.7202

!    total energy              =   -2168.87717712 Ry
     estimated scf accuracy    <          6.9E-10 Ry

     The total energy is the sum of the following terms:
     one-electron contribution =    -729.26138310 Ry
     hartree contribution      =     641.81533928 Ry
     xc contribution           =    -661.28956661 Ry
     ewald contribution        =   -1420.14156668 Ry

     convergence has been achieved in  22 iterations

     Forces acting on atoms (cartesian axes, Ry/au):

     atom    1 type  1   force =     0.00001486    0.00000858    0.04103045
     atom    2 type  1   force =    -0.00001485   -0.00000857    0.04102399
     atom    3 type  2   force =    -0.00000314   -0.00000182   -0.04102866
     atom    4 type  2   force =     0.00000315    0.00000182   -0.04102743
     atom    5 type  1   force =     0.00000932    0.00000538    0.04102596
     atom    6 type  1   force =    -0.00001778   -0.00001026    0.04103221
     atom    7 type  2   force =    -0.00000379   -0.00000219   -0.04102824
     atom    8 type  2   force =     0.00000228    0.00000132   -0.04102837
     atom    9 type  1   force =     0.00001482    0.00000856    0.04103231
     atom   10 type  1   force =    -0.00001345   -0.00000776    0.04102774
     atom   11 type  2   force =    -0.00000292   -0.00000169   -0.04102786
     atom   12 type  2   force =     0.00000312    0.00000180   -0.04102876
     atom   13 type  1   force =     0.00001694    0.00000978    0.04102580
     atom   14 type  1   force =    -0.00001212   -0.00000700    0.04102778
     atom   15 type  2   force =    -0.00000223   -0.00000129   -0.04102793
     atom   16 type  2   force =     0.00000388    0.00000224   -0.04102875
     atom   17 type  1   force =     0.00001281    0.00000739    0.04103423
     atom   18 type  1   force =    -0.00001521   -0.00000878    0.04102306
     atom   19 type  2   force =    -0.00000289   -0.00000167   -0.04102786
     atom   20 type  2   force =     0.00000328    0.00000189   -0.04102760
     atom   21 type  1   force =     0.00001636    0.00000945    0.04102602
     atom   22 type  1   force =    -0.00001325   -0.00000765    0.04102929
     atom   23 type  2   force =    -0.00000269   -0.00000155   -0.04102893
     atom   24 type  2   force =     0.00000348    0.00000201   -0.04102842
     The non-local contrib.  to forces
     atom    1 type  1   force =    -0.00002716   -0.00001568    0.11998196
     atom    2 type  1   force =     0.00002654    0.00001532    0.11997937
     atom    3 type  2   force =    -0.00016302   -0.00009412    0.08474655
     atom    4 type  2   force =     0.00016357    0.00009444    0.08474688
     atom    5 type  1   force =    -0.00002852   -0.00001647    0.11998034
     atom    6 type  1   force =     0.00002510    0.00001449    0.11998276
     atom    7 type  2   force =    -0.00016402   -0.00009469    0.08474766
     atom    8 type  2   force =     0.00016314    0.00009419    0.08474791
     atom    9 type  1   force =    -0.00002601   -0.00001501    0.11998255
     atom   10 type  1   force =     0.00002712    0.00001566    0.11998017
     atom   11 type  2   force =    -0.00016411   -0.00009475    0.08474771
     atom   12 type  2   force =     0.00016324    0.00009424    0.08474577
     atom   13 type  1   force =    -0.00002613   -0.00001508    0.11997999
     atom   14 type  1   force =     0.00002787    0.00001609    0.11998198
     atom   15 type  2   force =    -0.00016357   -0.00009444    0.08474771
     atom   16 type  2   force =     0.00016373    0.00009453    0.08474732
     atom   17 type  1   force =    -0.00002755   -0.00001590    0.11998312
     atom   18 type  1   force =     0.00002640    0.00001524    0.11997955
     atom   19 type  2   force =    -0.00016375   -0.00009454    0.08474661
     atom   20 type  2   force =     0.00016362    0.00009447    0.08474655
     atom   21 type  1   force =    -0.00002600   -0.00001501    0.11997943
     atom   22 type  1   force =     0.00002739    0.00001582    0.11998189
     atom   23 type  2   force =    -0.00016367   -0.00009450    0.08474733
     atom   24 type  2   force =     0.00016315    0.00009420    0.08474735
     The ionic contribution  to forces
     atom    1 type  1   force =     0.00000001    0.00000001    1.04948328
     atom    2 type  1   force =     0.00000001    0.00000000    1.04948328
     atom    3 type  2   force =     0.00000000    0.00000000   -1.04948328
     atom    4 type  2   force =     0.00000001    0.00000000   -1.04948328
     atom    5 type  1   force =     0.00000001    0.00000001    1.04948328
     atom    6 type  1   force =     0.00000001    0.00000000    1.04948328
     atom    7 type  2   force =     0.00000000    0.00000000   -1.04948328
     atom    8 type  2   force =     0.00000001    0.00000000   -1.04948328
     atom    9 type  1   force =    -0.00000001    0.00000000    1.04948328
     atom   10 type  1   force =     0.00000001   -0.00000000    1.04948328
     atom   11 type  2   force =    -0.00000001    0.00000001   -1.04948328
     atom   12 type  2   force =     0.00000001   -0.00000001   -1.04948328
     atom   13 type  1   force =    -0.00000001    0.00000000    1.04948328
     atom   14 type  1   force =     0.00000001   -0.00000000    1.04948328
     atom   15 type  2   force =    -0.00000001    0.00000001   -1.04948328
     atom   16 type  2   force =     0.00000001   -0.00000001   -1.04948328
     atom   17 type  1   force =    -0.00000001   -0.00000000    1.04948328
     atom   18 type  1   force =    -0.00000001   -0.00000001    1.04948328
     atom   19 type  2   force =    -0.00000001   -0.00000000   -1.04948328
     atom   20 type  2   force =    -0.00000000   -0.00000000   -1.04948328
     atom   21 type  1   force =    -0.00000001   -0.00000000    1.04948328
     atom   22 type  1   force =    -0.00000001   -0.00000001    1.04948328
     atom   23 type  2   force =    -0.00000001   -0.00000000   -1.04948328
     atom   24 type  2   force =    -0.00000000   -0.00000000   -1.04948328
     The local contribution  to forces
     atom    1 type  1   force =     0.00004652    0.00002686   -1.11767431
     atom    2 type  1   force =    -0.00004549   -0.00002631   -1.11766709
     atom    3 type  2   force =     0.00015918    0.00009190    0.92421788
     atom    4 type  2   force =    -0.00015943   -0.00009206    0.92421771
     atom    5 type  1   force =     0.00005126    0.00002959   -1.11766917
     atom    6 type  1   force =    -0.00004120   -0.00002383   -1.11767597
     atom    7 type  2   force =     0.00015930    0.00009197    0.92422159
     atom    8 type  2   force =    -0.00015437   -0.00008914    0.92422233
     atom    9 type  1   force =     0.00004453    0.00002580   -1.11767612
     atom   10 type  1   force =    -0.00004717   -0.00002732   -1.11767018
     atom   11 type  2   force =     0.00015531    0.00008969    0.92421800
     atom   12 type  2   force =    -0.00015872   -0.00009166    0.92421872
     atom   13 type  1   force =     0.00004384    0.00002540   -1.11766877
     atom   14 type  1   force =    -0.00004921   -0.00002850   -1.11767289
     atom   15 type  2   force =     0.00015736    0.00009087    0.92422095
     atom   16 type  2   force =    -0.00015942   -0.00009206    0.92422407
     atom   17 type  1   force =     0.00004809    0.00002781   -1.11767838
     atom   18 type  1   force =    -0.00004546   -0.00002624   -1.11766690
     atom   19 type  2   force =     0.00015927    0.00009197    0.92421753
     atom   20 type  2   force =    -0.00015741   -0.00009088    0.92421698
     atom   21 type  1   force =     0.00004394    0.00002541   -1.11766810
     atom   22 type  1   force =    -0.00004798   -0.00002770   -1.11767290
     atom   23 type  2   force =     0.00015891    0.00009176    0.92422412
     atom   24 type  2   force =    -0.00016005   -0.00009240    0.92422347
     The core correction contribution to forces
     atom    1 type  1   force =    -0.00000549   -0.00000317   -0.01076930
     atom    2 type  1   force =     0.00000549    0.00000316   -0.01076928
     atom    3 type  2   force =     0.00000184    0.00000106   -0.00050653
     atom    4 type  2   force =    -0.00000185   -0.00000107   -0.00050654
     atom    5 type  1   force =    -0.00000546   -0.00000315   -0.01076931
     atom    6 type  1   force =     0.00000548    0.00000316   -0.01076933
     atom    7 type  2   force =     0.00000185    0.00000107   -0.00050654
     atom    8 type  2   force =    -0.00000184   -0.00000106   -0.00050654
     atom    9 type  1   force =    -0.00000548   -0.00000315   -0.01076930
     atom   10 type  1   force =     0.00000550    0.00000316   -0.01076928
     atom   11 type  2   force =     0.00000185    0.00000107   -0.00050655
     atom   12 type  2   force =    -0.00000184   -0.00000106   -0.00050652
     atom   13 type  1   force =    -0.00000549   -0.00000316   -0.01076929
     atom   14 type  1   force =     0.00000551    0.00000317   -0.01076929
     atom   15 type  2   force =     0.00000185    0.00000107   -0.00050654
     atom   16 type  2   force =    -0.00000185   -0.00000107   -0.00050653
     atom   17 type  1   force =    -0.00000548   -0.00000316   -0.01076931
     atom   18 type  1   force =     0.00000552    0.00000319   -0.01076927
     atom   19 type  2   force =     0.00000185    0.00000107   -0.00050653
     atom   20 type  2   force =    -0.00000185   -0.00000107   -0.00050653
     atom   21 type  1   force =    -0.00000550   -0.00000317   -0.01076928
     atom   22 type  1   force =     0.00000550    0.00000318   -0.01076933
     atom   23 type  2   force =     0.00000185    0.00000107   -0.00050653
     atom   24 type  2   force =    -0.00000184   -0.00000107   -0.00050653
     The Hubbard contrib.    to forces
     atom    1 type  1   force =     0.00000000    0.00000000    0.00000000
     atom    2 type  1   force =     0.00000000    0.00000000    0.00000000
     atom    3 type  2   force =     0.00000000    0.00000000    0.00000000
     atom    4 type  2   force =     0.00000000    0.00000000    0.00000000
     atom    5 type  1   force =     0.00000000    0.00000000    0.00000000
     atom    6 type  1   force =     0.00000000    0.00000000    0.00000000
     atom    7 type  2   force =     0.00000000    0.00000000    0.00000000
     atom    8 type  2   force =     0.00000000    0.00000000    0.00000000
     atom    9 type  1   force =     0.00000000    0.00000000    0.00000000
     atom   10 type  1   force =     0.00000000    0.00000000    0.00000000
     atom   11 type  2   force =     0.00000000    0.00000000    0.00000000
     atom   12 type  2   force =     0.00000000    0.00000000    0.00000000
     atom   13 type  1   force =     0.00000000    0.00000000    0.00000000
     atom   14 type  1   force =     0.00000000    0.00000000    0.00000000
     atom   15 type  2   force =     0.00000000    0.00000000    0.00000000
     atom   16 type  2   force =     0.00000000    0.00000000    0.00000000
     atom   17 type  1   force =     0.00000000    0.00000000    0.00000000
     atom   18 type  1   force =     0.00000000    0.00000000    0.00000000
     atom   19 type  2   force =     0.00000000    0.00000000    0.00000000
     atom   20 type  2   force =     0.00000000    0.00000000    0.00000000
     atom   21 type  1   force =     0.00000000    0.00000000    0.00000000
     atom   22 type  1   force =     0.00000000    0.00000000    0.00000000
     atom   23 type  2   force =     0.00000000    0.00000000    0.00000000
     atom   24 type  2   force =     0.00000000    0.00000000    0.00000000
     The SCF correction term to forces
     atom    1 type  1   force =     0.00000074    0.00000043    0.00001319
     atom    2 type  1   force =    -0.00000161   -0.00000093    0.00000208
     atom    3 type  2   force =    -0.00000139   -0.00000080    0.00000109
     atom    4 type  2   force =     0.00000062    0.00000036    0.00000218
     atom    5 type  1   force =    -0.00000820   -0.00000474    0.00000519
     atom    6 type  1   force =    -0.00000738   -0.00000426    0.00001585
     atom    7 type  2   force =    -0.00000117   -0.00000068   -0.00000329
     atom    8 type  2   force =    -0.00000489   -0.00000282   -0.00000440
     atom    9 type  1   force =     0.00000150    0.00000086    0.00001628
     atom   10 type  1   force =     0.00000090    0.00000052    0.00000813
     atom   11 type  2   force =     0.00000379    0.00000219    0.00000063
     atom   12 type  2   force =     0.00000021    0.00000012    0.00000092
     atom   13 type  1   force =     0.00000445    0.00000257    0.00000497
     atom   14 type  1   force =     0.00000350    0.00000202    0.00000909
     atom   15 type  2   force =     0.00000189    0.00000109   -0.00000238
     atom   16 type  2   force =     0.00000119    0.00000069   -0.00000595
     atom   17 type  1   force =    -0.00000250   -0.00000144    0.00001989
     atom   18 type  1   force =    -0.00000190   -0.00000110    0.00000078
     atom   19 type  2   force =    -0.00000050   -0.00000029    0.00000219
     atom   20 type  2   force =    -0.00000131   -0.00000076    0.00000307
     atom   21 type  1   force =     0.00000367    0.00000212    0.00000506
     atom   22 type  1   force =     0.00000161    0.00000093    0.00001072
     atom   23 type  2   force =    -0.00000001   -0.00000001   -0.00000619
     atom   24 type  2   force =     0.00000198    0.00000114   -0.00000505

     Total force =     0.200996     Total SCF correction =     0.000044

     General routines

     Parallel routines

   This run was terminated on:  14:56: 3   4Sep2025

   JOB DONE.
Note: The following floating-point exceptions are signalling: IEEE_INVALID_FLAG
Note: The following floating-point exceptions are signalling: IEEE_INVALID_FLAG
Note: The following floating-point exceptions are signalling: IEEE_INVALID_FLAG
Note: The following floating-point exceptions are signalling: IEEE_INVALID_FLAG
Note: The following floating-point exceptions are signalling: IEEE_INVALID_FLAG
Note: The following floating-point exceptions are signalling: IEEE_INVALID_FLAG
Note: The following floating-point exceptions are signalling: IEEE_INVALID_FLAG
Note: The following floating-point exceptions are signalling: IEEE_INVALID_FLAG