     Program PWSCF v.7.2 starts on  5Sep2025 at 13:46:39

     Reading input from /home/jvc/QEspresso7.2/ZnO_database/scripts/cell312.in/ZnO-3.34-1.65-312.in
Warning: card &CELL ignored
Warning: card / ignored
Warning: card &FCP ignored
Warning: card / ignored
Warning: card &RISM ignored
Warning: card / ignored

     Current dimensions of program PWSCF are:
     Max number of different atomic species (ntypx) = 10
     Max number of k-points (npk) =  40000
     Max angular momentum in pseudopotentials (lmaxx) =  4
     file Zn.upf: wavefunction(s)  3D renormalized
     Found identity + (  0.0000  0.0000  0.5000) symmetry
     This is a supercell, fractional translations are disabled
     Message from routine setup:
     using ibrav=0 with symmetry is DISCOURAGED, use correct ibrav instead

     K-points division:     npool     =       8
     R & G space division:  proc/nbgrp/npool/nimage =       8
     Subspace diagonalization in iterative solution of the eigenvalue problem:
     a serial algorithm will be used

     Using Slab Decomposition

     bravais-lattice index     =            0
     lattice parameter (alat)  =      18.9073  a.u.
     unit-cell volume          =    2141.9351 (a.u.)^3
     number of atoms/cell      =           24
     number of atomic types    =            2
     number of electrons       =       216.00
     number of Kohn-Sham states=          108
     kinetic-energy cutoff     =      50.0000  Ry
     charge density cutoff     =     400.0000  Ry
     scf convergence threshold =      1.0E-08
     mixing beta               =       0.3000
     number of iterations used =            8  plain     mixing
     Exchange-correlation= PBE
                           (   1   4   3   4   0   0   0)

     celldm(1)=  18.907293  celldm(2)=   0.000000  celldm(3)=   0.000000
     celldm(4)=   0.000000  celldm(5)=   0.000000  celldm(6)=   0.000000

     crystal axes: (cart. coord. in units of alat)
               a(1) = (   1.000000   0.000000   0.000000 )
               a(2) = (  -0.166667   0.288675   0.000000 )
               a(3) = (   0.000000   0.000000   1.097764 )

     reciprocal axes: (cart. coord. in units 2 pi/alat)
               b(1) = (  1.000000  0.577350 -0.000000 )
               b(2) = (  0.000000  3.464102  0.000000 )
               b(3) = (  0.000000 -0.000000  0.910943 )

     PseudoPot. # 1 for Zn read from file:
     /home/jvc/QEspresso7.2/ZnO_database/pseudos/Zn.upf
     MD5 check sum: 7f56cabf9682ed8c977c2f7d0c5985c5
     Pseudo is Ultrasoft + core correction, Zval = 12.0
     Generated using &quot;atomic&quot; code by A. Dal Corso  v.6.2.2
     Using radial grid of 1201 points,  6 beta functions with:
                l(1) =   0
                l(2) =   0
                l(3) =   1
                l(4) =   1
                l(5) =   2
                l(6) =   2
     Q(r) pseudized with 0 coefficients

     PseudoPot. # 2 for O  read from file:
     /home/jvc/QEspresso7.2/ZnO_database/pseudos/O.upf
     MD5 check sum: 91400c9766925bcf19f520983a725ff0
     Pseudo is Ultrasoft + core correction, Zval =  6.0
     Generated using &quot;atomic&quot; code by A. Dal Corso  v.6.3MaX
     Using radial grid of 1095 points,  4 beta functions with:
                l(1) =   0
                l(2) =   0
                l(3) =   1
                l(4) =   1
     Q(r) pseudized with 0 coefficients

     atomic species   valence    mass     pseudopotential
        Zn            12.00    65.38000     Zn( 1.00)
        O              6.00    15.99900     O ( 1.00)

      2 Sym. Ops. (no inversion) found

                                    s                        frac. trans.

      isym =  1     identity

 cryst.   s( 1) = (     1          0          0      )
                  (     0          1          0      )
                  (     0          0          1      )

 cart.    s( 1) = (  1.0000000  0.0000000  0.0000000 )
                  (  0.0000000  1.0000000  0.0000000 )
                  (  0.0000000  0.0000000  1.0000000 )

      isym =  2     inv. 180 deg rotation - cryst. axis [0,1,0]

 cryst.   s( 2) = (     1          3          0      )
                  (     0         -1          0      )
                  (     0          0          1      )

 cart.    s( 2) = (  0.5000000  0.8660254  0.0000000 )
                  (  0.8660254 -0.5000000  0.0000000 )
                  (  0.0000000  0.0000000  1.0000000 )

   Cartesian axes

     site n.     atom                  positions (alat units)
         1           Zn  tau(   1) = (   0.1666667   0.0962250   0.2747887  )
         2           Zn  tau(   2) = (  -0.0000000   0.1924501   0.0003478  )
         3           O   tau(   3) = (   0.1666667   0.0962250   0.4828384  )
         4           O   tau(   4) = (  -0.0000000   0.1924501   0.2083975  )
         5           Zn  tau(   5) = (   0.1666667   0.0962250   0.8236705  )
         6           Zn  tau(   6) = (  -0.0000000   0.1924501   0.5492296  )
         7           O   tau(   7) = (   0.1666667   0.0962250   1.0317203  )
         8           O   tau(   8) = (  -0.0000000   0.1924501   0.7572793  )
         9           Zn  tau(   9) = (   0.5000000   0.0962250   0.2747887  )
        10           Zn  tau(  10) = (   0.3333333   0.1924501   0.0003478  )
        11           O   tau(  11) = (   0.5000000   0.0962250   0.4828384  )
        12           O   tau(  12) = (   0.3333333   0.1924501   0.2083975  )
        13           Zn  tau(  13) = (   0.5000000   0.0962250   0.8236705  )
        14           Zn  tau(  14) = (   0.3333333   0.1924501   0.5492296  )
        15           O   tau(  15) = (   0.5000000   0.0962250   1.0317203  )
        16           O   tau(  16) = (   0.3333333   0.1924501   0.7572793  )
        17           Zn  tau(  17) = (   0.8333333   0.0962250   0.2747887  )
        18           Zn  tau(  18) = (   0.6666667   0.1924501   0.0003478  )
        19           O   tau(  19) = (   0.8333333   0.0962250   0.4828384  )
        20           O   tau(  20) = (   0.6666667   0.1924501   0.2083975  )
        21           Zn  tau(  21) = (   0.8333333   0.0962250   0.8236705  )
        22           Zn  tau(  22) = (   0.6666667   0.1924501   0.5492296  )
        23           O   tau(  23) = (   0.8333333   0.0962250   1.0317203  )
        24           O   tau(  24) = (   0.6666667   0.1924501   0.7572793  )

   Crystallographic axes

     site n.     atom                  positions (cryst. coord.)
         1           Zn  tau(   1) = (  0.2222222  0.3333333  0.2503168  )
         2           Zn  tau(   2) = (  0.1111111  0.6666667  0.0003168  )
         3           O   tau(   3) = (  0.2222222  0.3333333  0.4398382  )
         4           O   tau(   4) = (  0.1111111  0.6666667  0.1898382  )
         5           Zn  tau(   5) = (  0.2222222  0.3333333  0.7503168  )
         6           Zn  tau(   6) = (  0.1111111  0.6666667  0.5003168  )
         7           O   tau(   7) = (  0.2222222  0.3333333  0.9398382  )
         8           O   tau(   8) = (  0.1111111  0.6666667  0.6898382  )
         9           Zn  tau(   9) = (  0.5555556  0.3333333  0.2503168  )
        10           Zn  tau(  10) = (  0.4444444  0.6666667  0.0003168  )
        11           O   tau(  11) = (  0.5555556  0.3333333  0.4398382  )
        12           O   tau(  12) = (  0.4444444  0.6666667  0.1898382  )
        13           Zn  tau(  13) = (  0.5555556  0.3333333  0.7503168  )
        14           Zn  tau(  14) = (  0.4444444  0.6666667  0.5003168  )
        15           O   tau(  15) = (  0.5555556  0.3333333  0.9398382  )
        16           O   tau(  16) = (  0.4444444  0.6666667  0.6898382  )
        17           Zn  tau(  17) = (  0.8888889  0.3333333  0.2503168  )
        18           Zn  tau(  18) = (  0.7777778  0.6666667  0.0003168  )
        19           O   tau(  19) = (  0.8888889  0.3333333  0.4398382  )
        20           O   tau(  20) = (  0.7777778  0.6666667  0.1898382  )
        21           Zn  tau(  21) = (  0.8888889  0.3333333  0.7503168  )
        22           Zn  tau(  22) = (  0.7777778  0.6666667  0.5003168  )
        23           O   tau(  23) = (  0.8888889  0.3333333  0.9398382  )
        24           O   tau(  24) = (  0.7777778  0.6666667  0.6898382  )

     number of k points=    68
                       cart. coord. in units 2pi/alat
        k(    1) = (   0.0000000   0.0000000   0.0000000), wk =   0.0092593
        k(    2) = (   0.0000000   0.0000000   0.1518238), wk =   0.0185185
        k(    3) = (   0.0000000   0.0000000   0.3036476), wk =   0.0185185
        k(    4) = (   0.0000000   0.0000000  -0.4554714), wk =   0.0092593
        k(    5) = (   0.0000000   0.5773503   0.0000000), wk =   0.0370370
        k(    6) = (   0.0000000   0.5773503   0.1518238), wk =   0.0370370
        k(    7) = (   0.0000000   0.5773503   0.3036476), wk =   0.0370370
        k(    8) = (   0.0000000   0.5773503  -0.4554714), wk =   0.0370370
        k(    9) = (   0.0000000   1.1547005   0.0000000), wk =   0.0185185
        k(   10) = (   0.0000000   1.1547005   0.1518238), wk =   0.0370370
        k(   11) = (   0.0000000   1.1547005   0.3036476), wk =   0.0370370
        k(   12) = (   0.0000000   1.1547005  -0.4554714), wk =   0.0185185
        k(   13) = (   0.0000000  -1.7320508   0.0000000), wk =   0.0185185
        k(   14) = (   0.0000000  -1.7320508   0.1518238), wk =   0.0370370
        k(   15) = (   0.0000000  -1.7320508   0.3036476), wk =   0.0370370
        k(   16) = (   0.0000000  -1.7320508  -0.4554714), wk =   0.0185185
        k(   17) = (   0.1666667   0.0962250   0.0000000), wk =   0.0185185
        k(   18) = (   0.1666667   0.0962250   0.1518238), wk =   0.0185185
        k(   19) = (   0.1666667   0.0962250   0.3036476), wk =   0.0185185
        k(   20) = (   0.1666667   0.0962250  -0.4554714), wk =   0.0185185
        k(   21) = (   0.1666667   0.6735753   0.0000000), wk =   0.0370370
        k(   22) = (   0.1666667   0.6735753   0.1518238), wk =   0.0370370
        k(   23) = (   0.1666667   0.6735753   0.3036476), wk =   0.0370370
        k(   24) = (   0.1666667   0.6735753  -0.4554714), wk =   0.0370370
        k(   25) = (   0.1666667   1.2509256   0.0000000), wk =   0.0370370
        k(   26) = (   0.1666667   1.2509256   0.1518238), wk =   0.0370370
        k(   27) = (   0.1666667   1.2509256   0.3036476), wk =   0.0370370
        k(   28) = (   0.1666667   1.2509256  -0.4554714), wk =   0.0370370
        k(   29) = (   0.1666667  -1.6358258   0.0000000), wk =   0.0370370
        k(   30) = (   0.1666667  -1.6358258   0.1518238), wk =   0.0370370
        k(   31) = (   0.1666667  -1.6358258   0.3036476), wk =   0.0370370
        k(   32) = (   0.1666667  -1.6358258  -0.4554714), wk =   0.0370370
        k(   33) = (   0.1666667  -0.4811252   0.0000000), wk =   0.0370370
        k(   34) = (   0.1666667  -0.4811252   0.1518238), wk =   0.0370370
        k(   35) = (   0.1666667  -0.4811252   0.3036476), wk =   0.0370370
        k(   36) = (   0.1666667  -0.4811252  -0.4554714), wk =   0.0370370
        k(   37) = (   0.3333333   0.1924501   0.0000000), wk =   0.0185185
[...]
     1.0000   1.0000   1.0000   1.0000   1.0000   1.0000   1.0000   1.0000
     1.0000   1.0000   1.0000   1.0000

[...]

          k =-0.5000-0.2887 0.0000 ( 12780 PWs)   bands (ev):

[...]

          k =-0.3333 0.3849-0.3036 ( 12772 PWs)   bands (ev):

[...]

          k = 1.3333-0.3849-0.3036 ( 12812 PWs)   bands (ev):

   -11.1823 -11.1167 -11.0221 -10.9786 -10.9383 -10.9202 -10.8957 -10.8734
   -10.8648 -10.8360 -10.8252 -10.8169   0.3311   0.3523   0.3692   0.3942
     0.4398   0.4592   0.5049   0.5083   0.5557   0.5959   0.6014   0.6831
     0.7058   0.7121   0.7310   0.7596   0.7600   0.7792   0.7831   0.8394
     0.8678   0.8909   0.9289   0.9329   0.9423   0.9630   0.9793   0.9889
     1.0069   1.0190   1.0742   1.0798   1.0941   1.1052   1.1460   1.1841
     1.3691   1.4142   1.4160   1.4467   1.4679   1.4679   1.4805   1.4958
     1.4970   1.5123   1.5188   1.5409   1.5617   1.5859   1.5996   1.6091
     1.6222   1.6528   1.6879   1.6929   1.7016   1.7655   1.7817   1.7916
     2.2064   2.2488   2.2673   2.3987   2.4168   2.4908   2.6064   2.7247
     2.7943   2.8244   3.0573   3.3450   3.3505   3.3967   3.5014   3.7489
     3.8442   3.8970   3.9213   4.0258   4.0565   4.1694   4.3299   4.3313
     4.3742   4.4828   4.6335   4.6545   4.7463   4.8328   4.8842   4.9378
     4.9623   5.0381   5.1567   5.2071

     occupation numbers
     1.0000   1.0000   1.0000   1.0000   1.0000   1.0000   1.0000   1.0000
     1.0000   1.0000   1.0000   1.0000   1.0000   1.0000   1.0000   1.0000
     1.0000   1.0000   1.0000   1.0000   1.0000   1.0000   1.0000   1.0000
     1.0000   1.0000   1.0000   1.0000   1.0000   1.0000   1.0000   1.0000
     1.0000   1.0000   1.0000   1.0000   1.0000   1.0000   1.0000   1.0000
     1.0000   1.0000   1.0000   1.0000   1.0000   1.0000   1.0000   1.0000
     1.0000   1.0000   1.0000   1.0000   1.0000   1.0000   1.0000   1.0000
     1.0000   1.0000   1.0000   1.0000   1.0000   1.0000   1.0000   1.0000
     1.0000   1.0000   1.0000   1.0000   1.0000   1.0000   1.0000   1.0000
     1.0000   1.0000   1.0000   1.0000   1.0000   1.0000   1.0000   1.0000
     1.0000   1.0000   1.0000   1.0000   1.0000   1.0000   1.0000   1.0000
     1.0000   1.0000   1.0000   1.0000   1.0000   1.0000   1.0000   1.0000
     1.0000   1.0000   1.0000   1.0000   1.0000   1.0000   1.0000   1.0000
     1.0000   1.0000   1.0000   1.0000

     highest occupied level (ev):     5.7963

!    total energy              =   -2169.77982260 Ry
     estimated scf accuracy    <          5.9E-09 Ry

     The total energy is the sum of the following terms:
     one-electron contribution =    -980.99491545 Ry
     hartree contribution      =     728.97505387 Ry
     xc contribution           =    -656.34454907 Ry
     ewald contribution        =   -1261.41541195 Ry

     convergence has been achieved in  28 iterations

     Forces acting on atoms (cartesian axes, Ry/au):

     atom    1 type  1   force =     0.00001645    0.00000950    0.00276565
     atom    2 type  1   force =     0.00000939    0.00000542    0.00279062
     atom    3 type  2   force =    -0.00000329   -0.00000190   -0.00276348
     atom    4 type  2   force =     0.00000383    0.00000221   -0.00276565
     atom    5 type  1   force =     0.00001451    0.00000838    0.00275654
     atom    6 type  1   force =     0.00000078    0.00000045    0.00274356
     atom    7 type  2   force =    -0.00000402   -0.00000232   -0.00276569
     atom    8 type  2   force =     0.00000450    0.00000260   -0.00276695
     atom    9 type  1   force =    -0.00000344   -0.00000199    0.00275968
     atom   10 type  1   force =    -0.00000100   -0.00000058    0.00279279
     atom   11 type  2   force =    -0.00000454   -0.00000262   -0.00276358
     atom   12 type  2   force =     0.00000363    0.00000210   -0.00276437
     atom   13 type  1   force =     0.00000262    0.00000151    0.00276240
     atom   14 type  1   force =    -0.00000935   -0.00000540    0.00274215
     atom   15 type  2   force =    -0.00000433   -0.00000250   -0.00276383
     atom   16 type  2   force =     0.00000406    0.00000234   -0.00276513
     atom   17 type  1   force =     0.00000127    0.00000073    0.00277623
     atom   18 type  1   force =    -0.00002002   -0.00001156    0.00279231
     atom   19 type  2   force =    -0.00000515   -0.00000297   -0.00276495
     atom   20 type  2   force =     0.00000413    0.00000239   -0.00276643
     atom   21 type  1   force =    -0.00000173   -0.00000100    0.00275404
     atom   22 type  1   force =    -0.00000583   -0.00000337    0.00274728
     atom   23 type  2   force =    -0.00000512   -0.00000295   -0.00276595
     atom   24 type  2   force =     0.00000265    0.00000153   -0.00276723
     The non-local contrib.  to forces
     atom    1 type  1   force =    -0.00000027   -0.00000015    0.04908112
     atom    2 type  1   force =     0.00000621    0.00000358    0.04909691
     atom    3 type  2   force =    -0.00020667   -0.00011932    0.05552085
     atom    4 type  2   force =     0.00019570    0.00011299    0.05551003
     atom    5 type  1   force =     0.00000030    0.00000017    0.04907526
     atom    6 type  1   force =     0.00000522    0.00000301    0.04907261
     atom    7 type  2   force =    -0.00021413   -0.00012363    0.05550351
     atom    8 type  2   force =     0.00019911    0.00011496    0.05552210
     atom    9 type  1   force =    -0.00000484   -0.00000279    0.04907918
     atom   10 type  1   force =     0.00000295    0.00000171    0.04909886
     atom   11 type  2   force =    -0.00019887   -0.00011482    0.05552634
     atom   12 type  2   force =     0.00020110    0.00011611    0.05551602
     atom   13 type  1   force =    -0.00000495   -0.00000286    0.04907621
     atom   14 type  1   force =     0.00000191    0.00000111    0.04906936
     atom   15 type  2   force =    -0.00020007   -0.00011551    0.05550196
     atom   16 type  2   force =     0.00020337    0.00011741    0.05552016
     atom   17 type  1   force =    -0.00000625   -0.00000361    0.04908639
     atom   18 type  1   force =     0.00000218    0.00000126    0.04909740
     atom   19 type  2   force =    -0.00020416   -0.00011787    0.05552430
     atom   20 type  2   force =     0.00020943    0.00012091    0.05551156
     atom   21 type  1   force =    -0.00000501   -0.00000289    0.04907918
     atom   22 type  1   force =     0.00000548    0.00000317    0.04906988
     atom   23 type  2   force =    -0.00019793   -0.00011428    0.05550180
     atom   24 type  2   force =     0.00020741    0.00011975    0.05551798
     The ionic contribution  to forces
     atom    1 type  1   force =     0.00000001    0.00000001    0.44698223
     atom    2 type  1   force =     0.00000001    0.00000000    0.44698223
     atom    3 type  2   force =     0.00000000    0.00000000   -0.44698223
     atom    4 type  2   force =     0.00000000    0.00000000   -0.44698223
     atom    5 type  1   force =     0.00000001    0.00000001    0.44698223
     atom    6 type  1   force =     0.00000001    0.00000000    0.44698223
     atom    7 type  2   force =     0.00000000    0.00000000   -0.44698223
     atom    8 type  2   force =     0.00000000    0.00000000   -0.44698223
     atom    9 type  1   force =    -0.00000001    0.00000000    0.44698223
     atom   10 type  1   force =     0.00000001   -0.00000000    0.44698223
     atom   11 type  2   force =    -0.00000001    0.00000000   -0.44698223
     atom   12 type  2   force =     0.00000001   -0.00000000   -0.44698223
     atom   13 type  1   force =    -0.00000001    0.00000000    0.44698223
     atom   14 type  1   force =     0.00000001   -0.00000000    0.44698223
     atom   15 type  2   force =    -0.00000001    0.00000000   -0.44698223
     atom   16 type  2   force =     0.00000001   -0.00000000   -0.44698223
     atom   17 type  1   force =    -0.00000001   -0.00000000    0.44698223
     atom   18 type  1   force =    -0.00000001   -0.00000001    0.44698223
     atom   19 type  2   force =    -0.00000000   -0.00000000   -0.44698223
     atom   20 type  2   force =    -0.00000000   -0.00000000   -0.44698223
     atom   21 type  1   force =    -0.00000001   -0.00000000    0.44698223
     atom   22 type  1   force =    -0.00000001   -0.00000001    0.44698223
     atom   23 type  2   force =    -0.00000000   -0.00000000   -0.44698223
     atom   24 type  2   force =    -0.00000000   -0.00000000   -0.44698223
     The local contribution  to forces
     atom    1 type  1   force =     0.00000021    0.00000012   -0.49003143
     atom    2 type  1   force =    -0.00002473   -0.00001433   -0.49006680
     atom    3 type  2   force =     0.00019432    0.00011219    0.38918582
     atom    4 type  2   force =    -0.00019696   -0.00011373    0.38917898
     atom    5 type  1   force =     0.00000138    0.00000080   -0.49002343
     atom    6 type  1   force =    -0.00001762   -0.00001022   -0.49001039
     atom    7 type  2   force =     0.00019556    0.00011291    0.38916892
     atom    8 type  2   force =    -0.00020095   -0.00011603    0.38918326
     atom    9 type  1   force =     0.00001953    0.00001138   -0.49002411
     atom   10 type  1   force =    -0.00001668   -0.00000973   -0.49006829
     atom   11 type  2   force =     0.00020044    0.00011575    0.38917816
     atom   12 type  2   force =    -0.00019288   -0.00011139    0.38918598
     atom   13 type  1   force =     0.00001506    0.00000880   -0.49003108
     atom   14 type  1   force =    -0.00000675   -0.00000400   -0.49000655
     atom   15 type  2   force =     0.00019822    0.00011447    0.38916842
     atom   16 type  2   force =    -0.00019614   -0.00011327    0.38918491
     atom   17 type  1   force =     0.00001661    0.00000964   -0.49004342
     atom   18 type  1   force =     0.00000291    0.00000168   -0.49006705
     atom   19 type  2   force =     0.00019607    0.00011321    0.38918311
     atom   20 type  2   force =    -0.00019366   -0.00011181    0.38918263
     atom   21 type  1   force =     0.00001807    0.00001048   -0.49002494
     atom   22 type  1   force =    -0.00001418   -0.00000819   -0.49000942
     atom   23 type  2   force =     0.00019955    0.00011522    0.38917095
     atom   24 type  2   force =    -0.00019674   -0.00011359    0.38918620
     The core correction contribution to forces
     atom    1 type  1   force =    -0.00000671   -0.00000385   -0.00325912
     atom    2 type  1   force =     0.00000702    0.00000398   -0.00326176
     atom    3 type  2   force =     0.00000234    0.00000134   -0.00047879
     atom    4 type  2   force =    -0.00000220   -0.00000127   -0.00047916
     atom    5 type  1   force =    -0.00000683   -0.00000392   -0.00326200
     atom    6 type  1   force =     0.00000690    0.00000391   -0.00325978
     atom    7 type  2   force =     0.00000244    0.00000140   -0.00048073
     atom    8 type  2   force =    -0.00000225   -0.00000130   -0.00048045
     atom    9 type  1   force =    -0.00000685   -0.00000397   -0.00325928
     atom   10 type  1   force =     0.00000694    0.00000402   -0.00326193
     atom   11 type  2   force =     0.00000226    0.00000130   -0.00047888
     atom   12 type  2   force =    -0.00000227   -0.00000131   -0.00047921
     atom   13 type  1   force =    -0.00000673   -0.00000390   -0.00326183
     atom   14 type  1   force =     0.00000665    0.00000385   -0.00325952
     atom   15 type  2   force =     0.00000227    0.00000131   -0.00048070
     atom   16 type  2   force =    -0.00000232   -0.00000133   -0.00048042
     atom   17 type  1   force =    -0.00000683   -0.00000387   -0.00325929
     atom   18 type  1   force =     0.00000638    0.00000366   -0.00326182
     atom   19 type  2   force =     0.00000230    0.00000133   -0.00047884
     atom   20 type  2   force =    -0.00000237   -0.00000136   -0.00047916
     atom   21 type  1   force =    -0.00000694   -0.00000394   -0.00326233
     atom   22 type  1   force =     0.00000675    0.00000387   -0.00325962
     atom   23 type  2   force =     0.00000223    0.00000129   -0.00048070
     atom   24 type  2   force =    -0.00000235   -0.00000135   -0.00048039
     The Hubbard contrib.    to forces
     atom    1 type  1   force =     0.00000000    0.00000000    0.00000000
     atom    2 type  1   force =     0.00000000    0.00000000    0.00000000
     atom    3 type  2   force =     0.00000000    0.00000000    0.00000000
     atom    4 type  2   force =     0.00000000    0.00000000    0.00000000
     atom    5 type  1   force =     0.00000000    0.00000000    0.00000000
     atom    6 type  1   force =     0.00000000    0.00000000    0.00000000
     atom    7 type  2   force =     0.00000000    0.00000000    0.00000000
     atom    8 type  2   force =     0.00000000    0.00000000    0.00000000
     atom    9 type  1   force =     0.00000000    0.00000000    0.00000000
     atom   10 type  1   force =     0.00000000    0.00000000    0.00000000
     atom   11 type  2   force =     0.00000000    0.00000000    0.00000000
     atom   12 type  2   force =     0.00000000    0.00000000    0.00000000
     atom   13 type  1   force =     0.00000000    0.00000000    0.00000000
     atom   14 type  1   force =     0.00000000    0.00000000    0.00000000
     atom   15 type  2   force =     0.00000000    0.00000000    0.00000000
     atom   16 type  2   force =     0.00000000    0.00000000    0.00000000
     atom   17 type  1   force =     0.00000000    0.00000000    0.00000000
     atom   18 type  1   force =     0.00000000    0.00000000    0.00000000
     atom   19 type  2   force =     0.00000000    0.00000000    0.00000000
     atom   20 type  2   force =     0.00000000    0.00000000    0.00000000
     atom   21 type  1   force =     0.00000000    0.00000000    0.00000000
     atom   22 type  1   force =     0.00000000    0.00000000    0.00000000
     atom   23 type  2   force =     0.00000000    0.00000000    0.00000000
     atom   24 type  2   force =     0.00000000    0.00000000    0.00000000
     The SCF correction term to forces
     atom    1 type  1   force =     0.00002344    0.00001354   -0.00000928
     atom    2 type  1   force =     0.00002119    0.00001224    0.00003791
     atom    3 type  2   force =     0.00000696    0.00000402   -0.00001127
     atom    4 type  2   force =     0.00000753    0.00000435    0.00000460
     atom    5 type  1   force =     0.00001990    0.00001149   -0.00001767
     atom    6 type  1   force =     0.00000657    0.00000379   -0.00004325
     atom    7 type  2   force =     0.00001237    0.00000714    0.00002271
     atom    8 type  2   force =     0.00000883    0.00000510   -0.00001176
     atom    9 type  1   force =    -0.00001107   -0.00000639   -0.00002047
     atom   10 type  1   force =     0.00000606    0.00000350    0.00003979
     atom   11 type  2   force =    -0.00000813   -0.00000469   -0.00000912
     atom   12 type  2   force =    -0.00000206   -0.00000119   -0.00000707
     atom   13 type  1   force =    -0.00000054   -0.00000031   -0.00000525
     atom   14 type  1   force =    -0.00001089   -0.00000628   -0.00004550
     atom   15 type  2   force =    -0.00000451   -0.00000260    0.00002658
     atom   16 type  2   force =    -0.00000060   -0.00000035   -0.00000969
     atom   17 type  1   force =    -0.00000207   -0.00000119    0.00000819
     atom   18 type  1   force =    -0.00003121   -0.00001802    0.00003942
     atom   19 type  2   force =     0.00000089    0.00000052   -0.00001344
     atom   20 type  2   force =    -0.00000901   -0.00000520   -0.00000138
     atom   21 type  1   force =    -0.00000765   -0.00000442   -0.00002223
     atom   22 type  1   force =    -0.00000361   -0.00000209   -0.00003792
     atom   23 type  2   force =    -0.00000872   -0.00000503    0.00002209
     atom   24 type  2   force =    -0.00000543   -0.00000313   -0.00001092

     Total force =     0.013547     Total SCF correction =     0.000136

     General routines

     Parallel routines

   This run was terminated on:  14: 1:37   5Sep2025

   JOB DONE.
Note: The following floating-point exceptions are signalling: IEEE_INVALID_FLAG
Note: The following floating-point exceptions are signalling: IEEE_INVALID_FLAG
Note: The following floating-point exceptions are signalling: IEEE_INVALID_FLAG
Note: The following floating-point exceptions are signalling: IEEE_INVALID_FLAG
Note: The following floating-point exceptions are signalling: IEEE_INVALID_FLAG
Note: The following floating-point exceptions are signalling: IEEE_INVALID_FLAG
Note: The following floating-point exceptions are signalling: IEEE_INVALID_FLAG
Note: The following floating-point exceptions are signalling: IEEE_INVALID_FLAG