     Program PWSCF v.7.2 starts on  5Sep2025 at  9:43: 8

     Reading input from /home/jvc/QEspresso7.2/ZnO_database/scripts/cell312.in/ZnO-3.27-1.61-312.in
Warning: card &CELL ignored
Warning: card / ignored
Warning: card &FCP ignored
Warning: card / ignored
Warning: card &RISM ignored
Warning: card / ignored

     Current dimensions of program PWSCF are:
     Max number of different atomic species (ntypx) = 10
     Max number of k-points (npk) =  40000
     Max angular momentum in pseudopotentials (lmaxx) =  4
     file Zn.upf: wavefunction(s)  3D renormalized
     Found identity + (  0.0000  0.0000  0.5000) symmetry
     This is a supercell, fractional translations are disabled
     Message from routine setup:
     using ibrav=0 with symmetry is DISCOURAGED, use correct ibrav instead

     K-points division:     npool     =       8
     R & G space division:  proc/nbgrp/npool/nimage =       8
     Subspace diagonalization in iterative solution of the eigenvalue problem:
     a serial algorithm will be used

     Using Slab Decomposition

     bravais-lattice index     =            0
     lattice parameter (alat)  =      18.5366  a.u.
     unit-cell volume          =    1978.8170 (a.u.)^3
     number of atoms/cell      =           24
     number of atomic types    =            2
     number of electrons       =       216.00
     number of Kohn-Sham states=          108
     kinetic-energy cutoff     =      50.0000  Ry
     charge density cutoff     =     400.0000  Ry
     scf convergence threshold =      1.0E-08
     mixing beta               =       0.3000
     number of iterations used =            8  plain     mixing
     Exchange-correlation= PBE
                           (   1   4   3   4   0   0   0)

     celldm(1)=  18.536562  celldm(2)=   0.000000  celldm(3)=   0.000000
     celldm(4)=   0.000000  celldm(5)=   0.000000  celldm(6)=   0.000000

     crystal axes: (cart. coord. in units of alat)
               a(1) = (   1.000000   0.000000   0.000000 )
               a(2) = (  -0.166667   0.288675   0.000000 )
               a(3) = (   0.000000   0.000000   1.076239 )

     reciprocal axes: (cart. coord. in units 2 pi/alat)
               b(1) = (  1.000000  0.577350 -0.000000 )
               b(2) = (  0.000000  3.464102  0.000000 )
               b(3) = (  0.000000 -0.000000  0.929162 )

     PseudoPot. # 1 for Zn read from file:
     /home/jvc/QEspresso7.2/ZnO_database/pseudos/Zn.upf
     MD5 check sum: 7f56cabf9682ed8c977c2f7d0c5985c5
     Pseudo is Ultrasoft + core correction, Zval = 12.0
     Generated using &quot;atomic&quot; code by A. Dal Corso  v.6.2.2
     Using radial grid of 1201 points,  6 beta functions with:
                l(1) =   0
                l(2) =   0
                l(3) =   1
                l(4) =   1
                l(5) =   2
                l(6) =   2
     Q(r) pseudized with 0 coefficients

     PseudoPot. # 2 for O  read from file:
     /home/jvc/QEspresso7.2/ZnO_database/pseudos/O.upf
     MD5 check sum: 91400c9766925bcf19f520983a725ff0
     Pseudo is Ultrasoft + core correction, Zval =  6.0
     Generated using &quot;atomic&quot; code by A. Dal Corso  v.6.3MaX
     Using radial grid of 1095 points,  4 beta functions with:
                l(1) =   0
                l(2) =   0
                l(3) =   1
                l(4) =   1
     Q(r) pseudized with 0 coefficients

     atomic species   valence    mass     pseudopotential
        Zn            12.00    65.38000     Zn( 1.00)
        O              6.00    15.99900     O ( 1.00)

      2 Sym. Ops. (no inversion) found

                                    s                        frac. trans.

      isym =  1     identity

 cryst.   s( 1) = (     1          0          0      )
                  (     0          1          0      )
                  (     0          0          1      )

 cart.    s( 1) = (  1.0000000  0.0000000  0.0000000 )
                  (  0.0000000  1.0000000  0.0000000 )
                  (  0.0000000  0.0000000  1.0000000 )

      isym =  2     inv. 180 deg rotation - cryst. axis [0,1,0]

 cryst.   s( 2) = (     1          3          0      )
                  (     0         -1          0      )
                  (     0          0          1      )

 cart.    s( 2) = (  0.5000000  0.8660254  0.0000000 )
                  (  0.8660254 -0.5000000  0.0000000 )
                  (  0.0000000  0.0000000  1.0000000 )

   Cartesian axes

     site n.     atom                  positions (alat units)
         1           Zn  tau(   1) = (   0.1666667   0.0962250   0.2694007  )
         2           Zn  tau(   2) = (  -0.0000000   0.1924501   0.0003409  )
         3           O   tau(   3) = (   0.1666667   0.0962250   0.4733710  )
         4           O   tau(   4) = (  -0.0000000   0.1924501   0.2043113  )
         5           Zn  tau(   5) = (   0.1666667   0.0962250   0.8075201  )
         6           Zn  tau(   6) = (  -0.0000000   0.1924501   0.5384604  )
         7           O   tau(   7) = (   0.1666667   0.0962250   1.0114904  )
         8           O   tau(   8) = (  -0.0000000   0.1924501   0.7424307  )
         9           Zn  tau(   9) = (   0.5000000   0.0962250   0.2694007  )
        10           Zn  tau(  10) = (   0.3333333   0.1924501   0.0003409  )
        11           O   tau(  11) = (   0.5000000   0.0962250   0.4733710  )
        12           O   tau(  12) = (   0.3333333   0.1924501   0.2043113  )
        13           Zn  tau(  13) = (   0.5000000   0.0962250   0.8075201  )
        14           Zn  tau(  14) = (   0.3333333   0.1924501   0.5384604  )
        15           O   tau(  15) = (   0.5000000   0.0962250   1.0114904  )
        16           O   tau(  16) = (   0.3333333   0.1924501   0.7424307  )
        17           Zn  tau(  17) = (   0.8333333   0.0962250   0.2694007  )
        18           Zn  tau(  18) = (   0.6666667   0.1924501   0.0003409  )
        19           O   tau(  19) = (   0.8333333   0.0962250   0.4733710  )
        20           O   tau(  20) = (   0.6666667   0.1924501   0.2043113  )
        21           Zn  tau(  21) = (   0.8333333   0.0962250   0.8075201  )
        22           Zn  tau(  22) = (   0.6666667   0.1924501   0.5384604  )
        23           O   tau(  23) = (   0.8333333   0.0962250   1.0114904  )
        24           O   tau(  24) = (   0.6666667   0.1924501   0.7424307  )

   Crystallographic axes

     site n.     atom                  positions (cryst. coord.)
         1           Zn  tau(   1) = (  0.2222222  0.3333333  0.2503168  )
         2           Zn  tau(   2) = (  0.1111111  0.6666667  0.0003168  )
         3           O   tau(   3) = (  0.2222222  0.3333333  0.4398382  )
         4           O   tau(   4) = (  0.1111111  0.6666667  0.1898382  )
         5           Zn  tau(   5) = (  0.2222222  0.3333333  0.7503168  )
         6           Zn  tau(   6) = (  0.1111111  0.6666667  0.5003168  )
         7           O   tau(   7) = (  0.2222222  0.3333333  0.9398382  )
         8           O   tau(   8) = (  0.1111111  0.6666667  0.6898382  )
         9           Zn  tau(   9) = (  0.5555556  0.3333333  0.2503168  )
        10           Zn  tau(  10) = (  0.4444444  0.6666667  0.0003168  )
        11           O   tau(  11) = (  0.5555556  0.3333333  0.4398382  )
        12           O   tau(  12) = (  0.4444444  0.6666667  0.1898382  )
        13           Zn  tau(  13) = (  0.5555556  0.3333333  0.7503168  )
        14           Zn  tau(  14) = (  0.4444444  0.6666667  0.5003168  )
        15           O   tau(  15) = (  0.5555556  0.3333333  0.9398382  )
        16           O   tau(  16) = (  0.4444444  0.6666667  0.6898382  )
        17           Zn  tau(  17) = (  0.8888889  0.3333333  0.2503168  )
        18           Zn  tau(  18) = (  0.7777778  0.6666667  0.0003168  )
        19           O   tau(  19) = (  0.8888889  0.3333333  0.4398382  )
        20           O   tau(  20) = (  0.7777778  0.6666667  0.1898382  )
        21           Zn  tau(  21) = (  0.8888889  0.3333333  0.7503168  )
        22           Zn  tau(  22) = (  0.7777778  0.6666667  0.5003168  )
        23           O   tau(  23) = (  0.8888889  0.3333333  0.9398382  )
        24           O   tau(  24) = (  0.7777778  0.6666667  0.6898382  )

     number of k points=    68
                       cart. coord. in units 2pi/alat
        k(    1) = (   0.0000000   0.0000000   0.0000000), wk =   0.0092593
        k(    2) = (   0.0000000   0.0000000   0.1548603), wk =   0.0185185
        k(    3) = (   0.0000000   0.0000000   0.3097206), wk =   0.0185185
        k(    4) = (   0.0000000   0.0000000  -0.4645809), wk =   0.0092593
        k(    5) = (   0.0000000   0.5773503   0.0000000), wk =   0.0370370
        k(    6) = (   0.0000000   0.5773503   0.1548603), wk =   0.0370370
        k(    7) = (   0.0000000   0.5773503   0.3097206), wk =   0.0370370
        k(    8) = (   0.0000000   0.5773503  -0.4645809), wk =   0.0370370
        k(    9) = (   0.0000000   1.1547005   0.0000000), wk =   0.0185185
        k(   10) = (   0.0000000   1.1547005   0.1548603), wk =   0.0370370
        k(   11) = (   0.0000000   1.1547005   0.3097206), wk =   0.0370370
        k(   12) = (   0.0000000   1.1547005  -0.4645809), wk =   0.0185185
        k(   13) = (   0.0000000  -1.7320508   0.0000000), wk =   0.0185185
        k(   14) = (   0.0000000  -1.7320508   0.1548603), wk =   0.0370370
        k(   15) = (   0.0000000  -1.7320508   0.3097206), wk =   0.0370370
        k(   16) = (   0.0000000  -1.7320508  -0.4645809), wk =   0.0185185
        k(   17) = (   0.1666667   0.0962250   0.0000000), wk =   0.0185185
        k(   18) = (   0.1666667   0.0962250   0.1548603), wk =   0.0185185
        k(   19) = (   0.1666667   0.0962250   0.3097206), wk =   0.0185185
        k(   20) = (   0.1666667   0.0962250  -0.4645809), wk =   0.0185185
        k(   21) = (   0.1666667   0.6735753   0.0000000), wk =   0.0370370
        k(   22) = (   0.1666667   0.6735753   0.1548603), wk =   0.0370370
        k(   23) = (   0.1666667   0.6735753   0.3097206), wk =   0.0370370
        k(   24) = (   0.1666667   0.6735753  -0.4645809), wk =   0.0370370
        k(   25) = (   0.1666667   1.2509256   0.0000000), wk =   0.0370370
        k(   26) = (   0.1666667   1.2509256   0.1548603), wk =   0.0370370
        k(   27) = (   0.1666667   1.2509256   0.3097206), wk =   0.0370370
        k(   28) = (   0.1666667   1.2509256  -0.4645809), wk =   0.0370370
        k(   29) = (   0.1666667  -1.6358258   0.0000000), wk =   0.0370370
        k(   30) = (   0.1666667  -1.6358258   0.1548603), wk =   0.0370370
        k(   31) = (   0.1666667  -1.6358258   0.3097206), wk =   0.0370370
        k(   32) = (   0.1666667  -1.6358258  -0.4645809), wk =   0.0370370
        k(   33) = (   0.1666667  -0.4811252   0.0000000), wk =   0.0370370
        k(   34) = (   0.1666667  -0.4811252   0.1548603), wk =   0.0370370
        k(   35) = (   0.1666667  -0.4811252   0.3097206), wk =   0.0370370
        k(   36) = (   0.1666667  -0.4811252  -0.4645809), wk =   0.0370370
        k(   37) = (   0.3333333   0.1924501   0.0000000), wk =   0.0185185
[...]
     1.0000   1.0000   1.0000   1.0000

[...]

          k =-0.5000-0.2887 0.0000 ( 11762 PWs)   bands (ev):

[...]

          k =-0.3333 0.3849-0.3097 ( 11805 PWs)   bands (ev):

[...]

          k = 1.3333-0.3849-0.3097 ( 11843 PWs)   bands (ev):

   -10.5934 -10.5110 -10.4046 -10.3493 -10.2873 -10.2830 -10.2514 -10.2065
   -10.2065 -10.1765 -10.1576 -10.1535   1.0135   1.0189   1.0776   1.0900
     1.1222   1.1284   1.2027   1.2530   1.2862   1.3007   1.3153   1.4542
     1.4973   1.5216   1.5422   1.5473   1.5723   1.5974   1.6016   1.6046
     1.6900   1.7280   1.7300   1.7443   1.7661   1.7826   1.8095   1.8253
     1.8316   1.8741   1.9407   1.9570   1.9671   1.9779   2.0382   2.0773
     2.3632   2.4141   2.4141   2.4606   2.4768   2.4817   2.4978   2.5175
     2.5188   2.5344   2.5427   2.5717   2.6051   2.6363   2.6447   2.6590
     2.6714   2.6957   2.7453   2.7464   2.7489   2.8198   2.8341   2.8700
     3.1494   3.1828   3.1941   3.3670   3.3729   3.4723   3.5836   3.7261
     3.7721   3.8381   3.8461   4.1847   4.3465   4.3889   4.4180   4.7306
     4.7392   4.7488   4.8377   4.9695   4.9918   5.0780   5.2234   5.2972
     5.3508   5.3981   5.6192   5.6357   5.7538   5.8390   5.9113   5.9550
     5.9752   6.0817   6.1943   6.2563

     occupation numbers
     1.0000   1.0000   1.0000   1.0000   1.0000   1.0000   1.0000   1.0000
     1.0000   1.0000   1.0000   1.0000   1.0000   1.0000   1.0000   1.0000
     1.0000   1.0000   1.0000   1.0000   1.0000   1.0000   1.0000   1.0000
     1.0000   1.0000   1.0000   1.0000   1.0000   1.0000   1.0000   1.0000
     1.0000   1.0000   1.0000   1.0000   1.0000   1.0000   1.0000   1.0000
     1.0000   1.0000   1.0000   1.0000   1.0000   1.0000   1.0000   1.0000
     1.0000   1.0000   1.0000   1.0000   1.0000   1.0000   1.0000   1.0000
     1.0000   1.0000   1.0000   1.0000   1.0000   1.0000   1.0000   1.0000
     1.0000   1.0000   1.0000   1.0000   1.0000   1.0000   1.0000   1.0000
     1.0000   1.0000   1.0000   1.0000   1.0000   1.0000   1.0000   1.0000
     1.0000   1.0000   1.0000   1.0000   1.0000   1.0000   1.0000   1.0000
     1.0000   1.0000   1.0000   1.0000   1.0000   1.0000   1.0000   1.0000
     1.0000   1.0000   1.0000   1.0000   1.0000   1.0000   1.0000   1.0000
     1.0000   1.0000   1.0000   1.0000

     highest occupied level (ev):     6.8858

!    total energy              =   -2169.82191741 Ry
     estimated scf accuracy    <          1.4E-09 Ry

     The total energy is the sum of the following terms:
     one-electron contribution =    -927.14941554 Ry
     hartree contribution      =     709.72203267 Ry
     xc contribution           =    -657.27287538 Ry
     ewald contribution        =   -1295.12165916 Ry

     convergence has been achieved in  27 iterations

     Forces acting on atoms (cartesian axes, Ry/au):

     atom    1 type  1   force =    -0.00000948   -0.00000547    0.00005755
     atom    2 type  1   force =    -0.00001217   -0.00000703    0.00006274
     atom    3 type  2   force =    -0.00000261   -0.00000151   -0.00005608
     atom    4 type  2   force =     0.00000168    0.00000097   -0.00005660
     atom    5 type  1   force =    -0.00000162   -0.00000094    0.00004917
     atom    6 type  1   force =    -0.00000085   -0.00000049    0.00005227
     atom    7 type  2   force =    -0.00000222   -0.00000128   -0.00005616
     atom    8 type  2   force =     0.00000237    0.00000137   -0.00005662
     atom    9 type  1   force =    -0.00000162   -0.00000093    0.00005534
     atom   10 type  1   force =    -0.00002002   -0.00001156    0.00005807
     atom   11 type  2   force =    -0.00000294   -0.00000170   -0.00005620
     atom   12 type  2   force =     0.00000176    0.00000101   -0.00005659
     atom   13 type  1   force =    -0.00000208   -0.00000120    0.00005855
     atom   14 type  1   force =    -0.00002562   -0.00001479    0.00005948
     atom   15 type  2   force =    -0.00000253   -0.00000146   -0.00005699
     atom   16 type  2   force =     0.00000162    0.00000093   -0.00005608
     atom   17 type  1   force =     0.00002842    0.00001641    0.00004531
     atom   18 type  1   force =     0.00001219    0.00000704    0.00006285
     atom   19 type  2   force =    -0.00000013   -0.00000008   -0.00005653
     atom   20 type  2   force =     0.00000380    0.00000219   -0.00005691
     atom   21 type  1   force =     0.00002023    0.00001168    0.00005626
     atom   22 type  1   force =     0.00000975    0.00000563    0.00005873
     atom   23 type  2   force =    -0.00000143   -0.00000083   -0.00005566
     atom   24 type  2   force =     0.00000352    0.00000203   -0.00005589
     The non-local contrib.  to forces
     atom    1 type  1   force =    -0.00001688   -0.00000975   -0.00477913
     atom    2 type  1   force =     0.00000813    0.00000469   -0.00477809
     atom    3 type  2   force =    -0.00018576   -0.00010725    0.00551508
     atom    4 type  2   force =     0.00019013    0.00010977    0.00551388
     atom    5 type  1   force =    -0.00001412   -0.00000815   -0.00478192
     atom    6 type  1   force =     0.00001226    0.00000708   -0.00478179
     atom    7 type  2   force =    -0.00018548   -0.00010709    0.00551402
     atom    8 type  2   force =     0.00018876    0.00010898    0.00551498
     atom    9 type  1   force =    -0.00001699   -0.00000981   -0.00477752
     atom   10 type  1   force =     0.00000749    0.00000432   -0.00477855
     atom   11 type  2   force =    -0.00018869   -0.00010894    0.00551484
     atom   12 type  2   force =     0.00019314    0.00011151    0.00551369
     atom   13 type  1   force =    -0.00001600   -0.00000924   -0.00477714
     atom   14 type  1   force =     0.00000562    0.00000324   -0.00477866
     atom   15 type  2   force =    -0.00019012   -0.00010977    0.00551480
     atom   16 type  2   force =     0.00019302    0.00011144    0.00551440
     atom   17 type  1   force =    -0.00000240   -0.00000138   -0.00478292
     atom   18 type  1   force =     0.00002015    0.00001163   -0.00477617
     atom   19 type  2   force =    -0.00019365   -0.00011180    0.00551530
     atom   20 type  2   force =     0.00018576    0.00010725    0.00551453
     atom   21 type  1   force =    -0.00000571   -0.00000329   -0.00477877
     atom   22 type  1   force =     0.00001890    0.00001091   -0.00477857
     atom   23 type  2   force =    -0.00019393   -0.00011196    0.00551386
     atom   24 type  2   force =     0.00018791    0.00010849    0.00551421
     The ionic contribution  to forces
     atom    1 type  1   force =     0.00000001    0.00000001    0.06271682
     atom    2 type  1   force =     0.00000001    0.00000000    0.06271682
     atom    3 type  2   force =     0.00000000    0.00000000   -0.06271682
     atom    4 type  2   force =     0.00000000    0.00000000   -0.06271682
     atom    5 type  1   force =     0.00000001    0.00000001    0.06271682
     atom    6 type  1   force =     0.00000001    0.00000000    0.06271682
     atom    7 type  2   force =     0.00000000    0.00000000   -0.06271682
     atom    8 type  2   force =     0.00000000    0.00000000   -0.06271682
     atom    9 type  1   force =    -0.00000001    0.00000000    0.06271682
     atom   10 type  1   force =     0.00000001   -0.00000000    0.06271682
     atom   11 type  2   force =    -0.00000001    0.00000000   -0.06271682
     atom   12 type  2   force =     0.00000001   -0.00000000   -0.06271682
     atom   13 type  1   force =    -0.00000001    0.00000000    0.06271682
     atom   14 type  1   force =     0.00000001   -0.00000000    0.06271682
     atom   15 type  2   force =    -0.00000001    0.00000000   -0.06271682
     atom   16 type  2   force =     0.00000001   -0.00000000   -0.06271682
     atom   17 type  1   force =    -0.00000001   -0.00000000    0.06271682
     atom   18 type  1   force =    -0.00000001   -0.00000001    0.06271682
     atom   19 type  2   force =    -0.00000000   -0.00000000   -0.06271682
     atom   20 type  2   force =    -0.00000000   -0.00000000   -0.06271682
     atom   21 type  1   force =    -0.00000001   -0.00000000    0.06271682
     atom   22 type  1   force =    -0.00000001   -0.00000001    0.06271682
     atom   23 type  2   force =    -0.00000000   -0.00000000   -0.06271682
     atom   24 type  2   force =    -0.00000000   -0.00000000   -0.06271682
     The local contribution  to forces
     atom    1 type  1   force =     0.00004200    0.00002425   -0.05835764
     atom    2 type  1   force =    -0.00001692   -0.00000982   -0.05836254
     atom    3 type  2   force =     0.00018992    0.00010965    0.05720957
     atom    4 type  2   force =    -0.00017732   -0.00010239    0.05721002
     atom    5 type  1   force =     0.00003297    0.00001904   -0.05834917
     atom    6 type  1   force =    -0.00003052   -0.00001767   -0.05835058
     atom    7 type  2   force =     0.00018866    0.00010892    0.05720746
     atom    8 type  2   force =    -0.00018454   -0.00010656    0.05721217
     atom    9 type  1   force =     0.00003367    0.00001954   -0.05835536
     atom   10 type  1   force =    -0.00000659   -0.00000390   -0.05835808
     atom   11 type  2   force =     0.00019011    0.00010979    0.05721026
     atom   12 type  2   force =    -0.00017509   -0.00010111    0.05721049
     atom   13 type  1   force =     0.00003425    0.00001987   -0.05835678
     atom   14 type  1   force =    -0.00000033   -0.00000029   -0.05835745
     atom   15 type  2   force =     0.00018738    0.00010821    0.05721249
     atom   16 type  2   force =    -0.00017340   -0.00010014    0.05720938
     atom   17 type  1   force =    -0.00000320   -0.00000180   -0.05834241
     atom   18 type  1   force =    -0.00004756   -0.00002746   -0.05836411
     atom   19 type  2   force =     0.00017027    0.00009832    0.05721128
     atom   20 type  2   force =    -0.00019618   -0.00011326    0.05721500
     atom   21 type  1   force =     0.00000501    0.00000294   -0.05835686
     atom   22 type  1   force =    -0.00004191   -0.00002420   -0.05835780
     atom   23 type  2   force =     0.00017356    0.00010022    0.05720431
     atom   24 type  2   force =    -0.00019185   -0.00011076    0.05720718
     The core correction contribution to forces
     atom    1 type  1   force =    -0.00000588   -0.00000340    0.00047016
     atom    2 type  1   force =     0.00000581    0.00000335    0.00047023
     atom    3 type  2   force =     0.00000210    0.00000121   -0.00006228
     atom    4 type  2   force =    -0.00000213   -0.00000123   -0.00006226
     atom    5 type  1   force =    -0.00000583   -0.00000337    0.00047016
     atom    6 type  1   force =     0.00000593    0.00000342    0.00047014
     atom    7 type  2   force =     0.00000209    0.00000121   -0.00006227
     atom    8 type  2   force =    -0.00000213   -0.00000123   -0.00006227
     atom    9 type  1   force =    -0.00000558   -0.00000321    0.00046991
     atom   10 type  1   force =     0.00000546    0.00000314    0.00047011
     atom   11 type  2   force =     0.00000213    0.00000123   -0.00006228
     atom   12 type  2   force =    -0.00000217   -0.00000125   -0.00006226
     atom   13 type  1   force =    -0.00000572   -0.00000329    0.00046989
     atom   14 type  1   force =     0.00000542    0.00000312    0.00047004
     atom   15 type  2   force =     0.00000215    0.00000124   -0.00006227
     atom   16 type  2   force =    -0.00000217   -0.00000125   -0.00006227
     atom   17 type  1   force =    -0.00000560   -0.00000323    0.00046997
     atom   18 type  1   force =     0.00000583    0.00000336    0.00047010
     atom   19 type  2   force =     0.00000217    0.00000125   -0.00006228
     atom   20 type  2   force =    -0.00000211   -0.00000122   -0.00006226
     atom   21 type  1   force =    -0.00000552   -0.00000318    0.00047013
     atom   22 type  1   force =     0.00000569    0.00000328    0.00047006
     atom   23 type  2   force =     0.00000218    0.00000126   -0.00006227
     atom   24 type  2   force =    -0.00000213   -0.00000123   -0.00006228
     The Hubbard contrib.    to forces
     atom    1 type  1   force =     0.00000000    0.00000000    0.00000000
     atom    2 type  1   force =     0.00000000    0.00000000    0.00000000
     atom    3 type  2   force =     0.00000000    0.00000000    0.00000000
     atom    4 type  2   force =     0.00000000    0.00000000    0.00000000
     atom    5 type  1   force =     0.00000000    0.00000000    0.00000000
     atom    6 type  1   force =     0.00000000    0.00000000    0.00000000
     atom    7 type  2   force =     0.00000000    0.00000000    0.00000000
     atom    8 type  2   force =     0.00000000    0.00000000    0.00000000
     atom    9 type  1   force =     0.00000000    0.00000000    0.00000000
     atom   10 type  1   force =     0.00000000    0.00000000    0.00000000
     atom   11 type  2   force =     0.00000000    0.00000000    0.00000000
     atom   12 type  2   force =     0.00000000    0.00000000    0.00000000
     atom   13 type  1   force =     0.00000000    0.00000000    0.00000000
     atom   14 type  1   force =     0.00000000    0.00000000    0.00000000
     atom   15 type  2   force =     0.00000000    0.00000000    0.00000000
     atom   16 type  2   force =     0.00000000    0.00000000    0.00000000
     atom   17 type  1   force =     0.00000000    0.00000000    0.00000000
     atom   18 type  1   force =     0.00000000    0.00000000    0.00000000
     atom   19 type  2   force =     0.00000000    0.00000000    0.00000000
     atom   20 type  2   force =     0.00000000    0.00000000    0.00000000
     atom   21 type  1   force =     0.00000000    0.00000000    0.00000000
     atom   22 type  1   force =     0.00000000    0.00000000    0.00000000
     atom   23 type  2   force =     0.00000000    0.00000000    0.00000000
     atom   24 type  2   force =     0.00000000    0.00000000    0.00000000
     The SCF correction term to forces
     atom    1 type  1   force =    -0.00002885   -0.00001666    0.00000709
     atom    2 type  1   force =    -0.00000930   -0.00000537    0.00001608
     atom    3 type  2   force =    -0.00000900   -0.00000520   -0.00000188
     atom    4 type  2   force =    -0.00000913   -0.00000527   -0.00000166
     atom    5 type  1   force =    -0.00001478   -0.00000853   -0.00000697
     atom    6 type  1   force =     0.00001137    0.00000656   -0.00000255
     atom    7 type  2   force =    -0.00000762   -0.00000440    0.00000121
     atom    8 type  2   force =     0.00000016    0.00000009   -0.00000491
     atom    9 type  1   force =    -0.00001288   -0.00000744    0.00000125
     atom   10 type  1   force =    -0.00002646   -0.00001528    0.00000754
     atom   11 type  2   force =    -0.00000664   -0.00000383   -0.00000244
     atom   12 type  2   force =    -0.00001425   -0.00000823   -0.00000193
     atom   13 type  1   force =    -0.00001477   -0.00000853    0.00000552
     atom   14 type  1   force =    -0.00003642   -0.00002103    0.00000849
     atom   15 type  2   force =    -0.00000206   -0.00000119   -0.00000543
     atom   16 type  2   force =    -0.00001596   -0.00000921   -0.00000101
     atom   17 type  1   force =     0.00003947    0.00002279   -0.00001639
     atom   18 type  1   force =     0.00003365    0.00001943    0.00001597
     atom   19 type  2   force =     0.00002094    0.00001209   -0.00000426
     atom   20 type  2   force =     0.00001620    0.00000935   -0.00000759
     atom   21 type  1   force =     0.00002630    0.00001518    0.00000470
     atom   22 type  1   force =     0.00002695    0.00001556    0.00000798
     atom   23 type  2   force =     0.00001662    0.00000960    0.00000502
     atom   24 type  2   force =     0.00000946    0.00000546    0.00000158

     Total force =     0.000283     Total SCF correction =     0.000119
     SCF correction compared to forces is large: reduce conv_thr to get better values

     General routines

     Parallel routines

   This run was terminated on:   9:59:30   5Sep2025

   JOB DONE.
Note: The following floating-point exceptions are signalling: IEEE_INVALID_FLAG
Note: The following floating-point exceptions are signalling: IEEE_INVALID_FLAG
Note: The following floating-point exceptions are signalling: IEEE_INVALID_FLAG
Note: The following floating-point exceptions are signalling: IEEE_INVALID_FLAG
Note: The following floating-point exceptions are signalling: IEEE_INVALID_FLAG
Note: The following floating-point exceptions are signalling: IEEE_INVALID_FLAG
Note: The following floating-point exceptions are signalling: IEEE_INVALID_FLAG
Note: The following floating-point exceptions are signalling: IEEE_INVALID_FLAG