     Program PWSCF v.7.0 starts on 30Aug2025 at 10: 2: 1

     K-points division:     npool     =       8
     R & G space division:  proc/nbgrp/npool/nimage =       4

     Reading input from /home/jvc/QEspresso7.2/ZnO_database/scripts/cell132.in/ZnO-3.07-1.74-132.in
Warning: card &CELL ignored
Warning: card / ignored
Warning: card &FCP ignored
Warning: card / ignored
Warning: card &RISM ignored
Warning: card / ignored

     Current dimensions of program PWSCF are:
     Max number of different atomic species (ntypx) = 10
     Max number of k-points (npk) =  40000
     Max angular momentum in pseudopotentials (lmaxx) =  4
     file Zn.upf: wavefunction(s)  3D renormalized
     Found identity + (  0.0000  0.0000  0.5000) symmetry
     This is a supercell, fractional translations are disabled
     Message from routine setup:
     using ibrav=0 with symmetry is DISCOURAGED, use correct ibrav instead

     Using Slab Decomposition

     bravais-lattice index     =            0
     lattice parameter (alat)  =       5.8081  a.u.
     unit-cell volume          =    1775.0596 (a.u.)^3
     number of atoms/cell      =           24
     number of atomic types    =            2
     number of electrons       =       216.00
     number of Kohn-Sham states=          108
     kinetic-energy cutoff     =      50.0000  Ry
     charge density cutoff     =     400.0000  Ry
     scf convergence threshold =      1.0E-08
     mixing beta               =       0.3000
     number of iterations used =            8  plain     mixing
     Exchange-correlation= PBE
                           (   1   4   3   4   0   0   0)

     celldm(1)=   5.808123  celldm(2)=   0.000000  celldm(3)=   0.000000
     celldm(4)=   0.000000  celldm(5)=   0.000000  celldm(6)=   0.000000

     crystal axes: (cart. coord. in units of alat)
               a(1) = (   1.000000   0.000000   0.000000 )
               a(2) = (  -1.500000   2.598076   0.000000 )
               a(3) = (   0.000000   0.000000   3.487014 )

     reciprocal axes: (cart. coord. in units 2 pi/alat)
               b(1) = (  1.000000  0.577350 -0.000000 )
               b(2) = (  0.000000  0.384900  0.000000 )
               b(3) = (  0.000000 -0.000000  0.286778 )

     PseudoPot. # 1 for Zn read from file:
     /home/jvc/QEspresso7.2/ZnO_database/pseudos/Zn.upf
     MD5 check sum: 7f56cabf9682ed8c977c2f7d0c5985c5
     Pseudo is Ultrasoft + core correction, Zval = 12.0
     Generated using &quot;atomic&quot; code by A. Dal Corso  v.6.2.2
     Using radial grid of 1201 points,  6 beta functions with:
                l(1) =   0
                l(2) =   0
                l(3) =   1
                l(4) =   1
                l(5) =   2
                l(6) =   2
     Q(r) pseudized with 0 coefficients

     PseudoPot. # 2 for O  read from file:
     /home/jvc/QEspresso7.2/ZnO_database/pseudos/O.upf
     MD5 check sum: 91400c9766925bcf19f520983a725ff0
     Pseudo is Ultrasoft + core correction, Zval =  6.0
     Generated using &quot;atomic&quot; code by A. Dal Corso  v.6.3MaX
     Using radial grid of 1095 points,  4 beta functions with:
                l(1) =   0
                l(2) =   0
                l(3) =   1
                l(4) =   1
     Q(r) pseudized with 0 coefficients

     atomic species   valence    mass     pseudopotential
        Zn            12.00    65.38000     Zn( 1.00)
        O              6.00    15.99900     O ( 1.00)

      2 Sym. Ops. (no inversion) found

                                    s                        frac. trans.

      isym =  1     identity

 cryst.   s( 1) = (     1          0          0      )
                  (     0          1          0      )
                  (     0          0          1      )

 cart.    s( 1) = (  1.0000000  0.0000000  0.0000000 )
                  (  0.0000000  1.0000000  0.0000000 )
                  (  0.0000000  0.0000000  1.0000000 )

      isym =  2     inv. 180 deg rotation - cart. axis [1,0,0]

 cryst.   s( 2) = (    -1          0          0      )
                  (     3          1          0      )
                  (     0          0          1      )

 cart.    s( 2) = ( -1.0000000  0.0000000  0.0000000 )
                  (  0.0000000  1.0000000  0.0000000 )
                  (  0.0000000  0.0000000  1.0000000 )

   Cartesian axes

     site n.     atom                  positions (alat units)
         1           Zn  tau(   1) = (   0.5000000   0.2886751   0.8728582  )
         2           Zn  tau(   2) = (   0.0000000   0.5773503   0.0011047  )
         3           O   tau(   3) = (   0.5000000   0.2886751   1.5337220  )
         4           O   tau(   4) = (   0.0000000   0.5773503   0.6619685  )
         5           Zn  tau(   5) = (   0.5000000   0.2886751   2.6163652  )
         6           Zn  tau(   6) = (   0.0000000   0.5773503   1.7446117  )
         7           O   tau(   7) = (   0.5000000   0.2886751   3.2772290  )
         8           O   tau(   8) = (   0.0000000   0.5773503   2.4054755  )
         9           Zn  tau(   9) = (   0.0000000   1.1547005   0.8728582  )
        10           Zn  tau(  10) = (  -0.5000000   1.4433757   0.0011047  )
        11           O   tau(  11) = (   0.0000000   1.1547005   1.5337220  )
        12           O   tau(  12) = (  -0.5000000   1.4433757   0.6619685  )
        13           Zn  tau(  13) = (   0.0000000   1.1547005   2.6163652  )
        14           Zn  tau(  14) = (  -0.5000000   1.4433757   1.7446117  )
        15           O   tau(  15) = (   0.0000000   1.1547005   3.2772290  )
        16           O   tau(  16) = (  -0.5000000   1.4433757   2.4054755  )
        17           Zn  tau(  17) = (  -0.5000000   2.0207259   0.8728582  )
        18           Zn  tau(  18) = (  -1.0000000   2.3094011   0.0011047  )
        19           O   tau(  19) = (  -0.5000000   2.0207259   1.5337220  )
        20           O   tau(  20) = (  -1.0000000   2.3094011   0.6619685  )
        21           Zn  tau(  21) = (  -0.5000000   2.0207259   2.6163652  )
        22           Zn  tau(  22) = (  -1.0000000   2.3094011   1.7446117  )
        23           O   tau(  23) = (  -0.5000000   2.0207259   3.2772290  )
        24           O   tau(  24) = (  -1.0000000   2.3094011   2.4054755  )

   Crystallographic axes

     site n.     atom                  positions (cryst. coord.)
         1           Zn  tau(   1) = (  0.6666667  0.1111111  0.2503168  )
         2           Zn  tau(   2) = (  0.3333333  0.2222222  0.0003168  )
         3           O   tau(   3) = (  0.6666667  0.1111111  0.4398382  )
         4           O   tau(   4) = (  0.3333333  0.2222222  0.1898382  )
         5           Zn  tau(   5) = (  0.6666667  0.1111111  0.7503168  )
         6           Zn  tau(   6) = (  0.3333333  0.2222222  0.5003168  )
         7           O   tau(   7) = (  0.6666667  0.1111111  0.9398382  )
         8           O   tau(   8) = (  0.3333333  0.2222222  0.6898382  )
         9           Zn  tau(   9) = (  0.6666667  0.4444444  0.2503168  )
        10           Zn  tau(  10) = (  0.3333333  0.5555556  0.0003168  )
        11           O   tau(  11) = (  0.6666667  0.4444444  0.4398382  )
        12           O   tau(  12) = (  0.3333333  0.5555556  0.1898382  )
        13           Zn  tau(  13) = (  0.6666667  0.4444444  0.7503168  )
        14           Zn  tau(  14) = (  0.3333333  0.5555556  0.5003168  )
        15           O   tau(  15) = (  0.6666667  0.4444444  0.9398382  )
        16           O   tau(  16) = (  0.3333333  0.5555556  0.6898382  )
        17           Zn  tau(  17) = (  0.6666667  0.7777778  0.2503168  )
        18           Zn  tau(  18) = (  0.3333333  0.8888889  0.0003168  )
        19           O   tau(  19) = (  0.6666667  0.7777778  0.4398382  )
        20           O   tau(  20) = (  0.3333333  0.8888889  0.1898382  )
        21           Zn  tau(  21) = (  0.6666667  0.7777778  0.7503168  )
        22           Zn  tau(  22) = (  0.3333333  0.8888889  0.5003168  )
        23           O   tau(  23) = (  0.6666667  0.7777778  0.9398382  )
        24           O   tau(  24) = (  0.3333333  0.8888889  0.6898382  )

     number of k points=    68
                       cart. coord. in units 2pi/alat
        k(    1) = (   0.0000000   0.0000000   0.0000000), wk =   0.0092593
        k(    2) = (   0.0000000   0.0000000   0.0477964), wk =   0.0185185
        k(    3) = (   0.0000000   0.0000000   0.0955928), wk =   0.0185185
        k(    4) = (   0.0000000   0.0000000  -0.1433892), wk =   0.0092593
        k(    5) = (   0.0000000   0.0641500   0.0000000), wk =   0.0185185
        k(    6) = (   0.0000000   0.0641500   0.0477964), wk =   0.0185185
        k(    7) = (   0.0000000   0.0641500   0.0955928), wk =   0.0185185
        k(    8) = (   0.0000000   0.0641500  -0.1433892), wk =   0.0185185
        k(    9) = (   0.0000000   0.1283001   0.0000000), wk =   0.0185185
        k(   10) = (   0.0000000   0.1283001   0.0477964), wk =   0.0185185
        k(   11) = (   0.0000000   0.1283001   0.0955928), wk =   0.0185185
        k(   12) = (   0.0000000   0.1283001  -0.1433892), wk =   0.0185185
        k(   13) = (   0.0000000  -0.1924501   0.0000000), wk =   0.0092593
        k(   14) = (   0.0000000  -0.1924501   0.0477964), wk =   0.0185185
        k(   15) = (   0.0000000  -0.1924501   0.0955928), wk =   0.0185185
        k(   16) = (   0.0000000  -0.1924501  -0.1433892), wk =   0.0092593
        k(   17) = (   0.1666667   0.0962250   0.0000000), wk =   0.0370370
        k(   18) = (   0.1666667   0.0962250   0.0477964), wk =   0.0370370
        k(   19) = (   0.1666667   0.0962250   0.0955928), wk =   0.0370370
        k(   20) = (   0.1666667   0.0962250  -0.1433892), wk =   0.0370370
        k(   21) = (   0.1666667   0.1603751   0.0000000), wk =   0.0370370
        k(   22) = (   0.1666667   0.1603751   0.0477964), wk =   0.0370370
        k(   23) = (   0.1666667   0.1603751   0.0955928), wk =   0.0370370
        k(   24) = (   0.1666667   0.1603751  -0.1433892), wk =   0.0370370
        k(   25) = (   0.1666667  -0.0320750   0.0000000), wk =   0.0370370
        k(   26) = (   0.1666667  -0.0320750   0.0477964), wk =   0.0370370
        k(   27) = (   0.1666667  -0.0320750   0.0955928), wk =   0.0370370
        k(   28) = (   0.1666667  -0.0320750  -0.1433892), wk =   0.0370370
        k(   29) = (   0.3333333   0.1924501   0.0000000), wk =   0.0185185
        k(   30) = (   0.3333333   0.1924501   0.0477964), wk =   0.0370370
        k(   31) = (   0.3333333   0.1924501   0.0955928), wk =   0.0370370
        k(   32) = (   0.3333333   0.1924501  -0.1433892), wk =   0.0185185
        k(   33) = (   0.3333333   0.2566001   0.0000000), wk =   0.0370370
        k(   34) = (   0.3333333   0.2566001   0.0477964), wk =   0.0370370
        k(   35) = (   0.3333333   0.2566001   0.0955928), wk =   0.0370370
        k(   36) = (   0.3333333   0.2566001  -0.1433892), wk =   0.0370370
        k(   37) = (   0.3333333   0.3207501   0.0000000), wk =   0.0370370
        k(   38) = (   0.3333333   0.3207501   0.0477964), wk =   0.0370370
        k(   39) = (   0.3333333   0.3207501   0.0955928), wk =   0.0370370
[...]

!    total energy              =   -2169.61581693 Ry
     estimated scf accuracy    <          9.0E-09 Ry

     The total energy is the sum of the following terms:
     one-electron contribution =    -853.52128096 Ry
     hartree contribution      =     684.13090563 Ry
     xc contribution           =    -658.72232405 Ry
     ewald contribution        =   -1341.50311755 Ry

     convergence has been achieved in  23 iterations

     Forces acting on atoms (cartesian axes, Ry/au):

     atom    1 type  1   force =     0.00000000   -0.00001487    0.03511368
     atom    2 type  1   force =     0.00000000    0.00000842    0.03509025
     atom    3 type  2   force =     0.00000000    0.00000304   -0.03508844
     atom    4 type  2   force =     0.00000000   -0.00000279   -0.03508661
     atom    5 type  1   force =     0.00000000   -0.00001921    0.03508943
     atom    6 type  1   force =     0.00000000   -0.00000122    0.03506037
     atom    7 type  2   force =     0.00000000    0.00000281   -0.03508860
     atom    8 type  2   force =     0.00000000   -0.00000414   -0.03508859
     atom    9 type  1   force =     0.00000000   -0.00001045    0.03510371
     atom   10 type  1   force =     0.00000000    0.00000386    0.03509022
     atom   11 type  2   force =     0.00000000    0.00000372   -0.03508974
     atom   12 type  2   force =     0.00000000   -0.00000363   -0.03508635
     atom   13 type  1   force =     0.00000000   -0.00000195    0.03509315
     atom   14 type  1   force =     0.00000000    0.00001389    0.03506989
     atom   15 type  2   force =     0.00000000    0.00000355   -0.03508908
     atom   16 type  2   force =     0.00000000   -0.00000239   -0.03508871
     atom   17 type  1   force =     0.00000000   -0.00000519    0.03510542
     atom   18 type  1   force =     0.00000000    0.00001488    0.03509303
     atom   19 type  2   force =     0.00000000    0.00000434   -0.03508858
     atom   20 type  2   force =     0.00000000   -0.00000307   -0.03508643
     atom   21 type  1   force =     0.00000000   -0.00000855    0.03508062
     atom   22 type  1   force =     0.00000000    0.00001893    0.03506995
     atom   23 type  2   force =     0.00000000    0.00000318   -0.03509034
     atom   24 type  2   force =     0.00000000   -0.00000317   -0.03508824
     The non-local contrib.  to forces
     atom    1 type  1   force =     0.00000000    0.00001794    0.22010047
     atom    2 type  1   force =     0.00000000   -0.00002026    0.22009142
     atom    3 type  2   force =     0.00000000    0.00022031    0.18788577
     atom    4 type  2   force =     0.00000000   -0.00021871    0.18787131
     atom    5 type  1   force =     0.00000000    0.00001609    0.22008624
     atom    6 type  1   force =     0.00000000   -0.00002416    0.22007097
     atom    7 type  2   force =     0.00000000    0.00021716    0.18787283
     atom    8 type  2   force =     0.00000000   -0.00021573    0.18787875
     atom    9 type  1   force =     0.00000000    0.00001904    0.22009692
     atom   10 type  1   force =     0.00000000   -0.00002202    0.22009277
     atom   11 type  2   force =     0.00000000    0.00021908    0.18788413
     atom   12 type  2   force =     0.00000000   -0.00021735    0.18787248
     atom   13 type  1   force =     0.00000000    0.00002277    0.22008802
     atom   14 type  1   force =     0.00000000   -0.00001787    0.22007359
     atom   15 type  2   force =     0.00000000    0.00021843    0.18787177
     atom   16 type  2   force =     0.00000000   -0.00022065    0.18787744
     atom   17 type  1   force =     0.00000000    0.00002257    0.22009784
     atom   18 type  1   force =     0.00000000   -0.00001723    0.22009269
     atom   19 type  2   force =     0.00000000    0.00021622    0.18788214
     atom   20 type  2   force =     0.00000000   -0.00021817    0.18787183
     atom   21 type  1   force =     0.00000000    0.00002001    0.22008185
     atom   22 type  1   force =     0.00000000   -0.00001625    0.22007351
     atom   23 type  2   force =     0.00000000    0.00021715    0.18787084
     atom   24 type  2   force =     0.00000000   -0.00021730    0.18788073
     The ionic contribution  to forces
     atom    1 type  1   force =    -0.00000000    0.00000001    1.78031638
     atom    2 type  1   force =     0.00000000    0.00000001    1.78031638
     atom    3 type  2   force =    -0.00000000    0.00000001   -1.78031638
     atom    4 type  2   force =     0.00000000    0.00000000   -1.78031638
     atom    5 type  1   force =    -0.00000000    0.00000001    1.78031638
     atom    6 type  1   force =     0.00000000    0.00000001    1.78031638
     atom    7 type  2   force =    -0.00000000    0.00000001   -1.78031638
     atom    8 type  2   force =     0.00000000    0.00000000   -1.78031638
     atom    9 type  1   force =    -0.00000001    0.00000001    1.78031637
     atom   10 type  1   force =     0.00000001   -0.00000001    1.78031637
     atom   11 type  2   force =    -0.00000001    0.00000000   -1.78031637
     atom   12 type  2   force =     0.00000001   -0.00000000   -1.78031637
     atom   13 type  1   force =    -0.00000001    0.00000001    1.78031637
     atom   14 type  1   force =     0.00000001   -0.00000001    1.78031637
     atom   15 type  2   force =    -0.00000001    0.00000000   -1.78031637
     atom   16 type  2   force =     0.00000001   -0.00000000   -1.78031637
     atom   17 type  1   force =    -0.00000000   -0.00000001    1.78031638
     atom   18 type  1   force =     0.00000000   -0.00000001    1.78031638
     atom   19 type  2   force =    -0.00000000   -0.00000000   -1.78031638
     atom   20 type  2   force =     0.00000000   -0.00000001   -1.78031638
     atom   21 type  1   force =    -0.00000000   -0.00000001    1.78031638
     atom   22 type  1   force =     0.00000000   -0.00000001    1.78031638
     atom   23 type  2   force =    -0.00000000   -0.00000000   -1.78031638
     atom   24 type  2   force =     0.00000000   -0.00000001   -1.78031638
     The local contribution  to forces
     atom    1 type  1   force =    -0.00000004   -0.00003137   -1.94809052
     atom    2 type  1   force =     0.00000000    0.00004067   -1.94806265
     atom    3 type  2   force =    -0.00000001   -0.00020984    1.55875722
     atom    4 type  2   force =    -0.00000000    0.00021308    1.55873245
     atom    5 type  1   force =    -0.00000004   -0.00002285   -1.94807394
     atom    6 type  1   force =    -0.00000000    0.00005576   -1.94802093
     atom    7 type  2   force =    -0.00000001   -0.00021005    1.55873956
     atom    8 type  2   force =     0.00000000    0.00021492    1.55874347
     atom    9 type  1   force =    -0.00000008   -0.00003870   -1.94807641
     atom   10 type  1   force =     0.00000008    0.00004809   -1.94806682
     atom   11 type  2   force =    -0.00000002   -0.00021233    1.55875653
     atom   12 type  2   force =     0.00000002    0.00021336    1.55873483
     atom   13 type  1   force =    -0.00000008   -0.00005072   -1.94807730
     atom   14 type  1   force =     0.00000008    0.00003311   -1.94803657
     atom   15 type  2   force =    -0.00000002   -0.00021403    1.55873926
     atom   16 type  2   force =     0.00000002    0.00020874    1.55874454
     atom   17 type  1   force =    -0.00000000   -0.00004673   -1.94807844
     atom   18 type  1   force =     0.00000004    0.00002911   -1.94806994
     atom   19 type  2   force =    -0.00000000   -0.00021698    1.55875544
     atom   20 type  2   force =     0.00000001    0.00021094    1.55873078
     atom   21 type  1   force =    -0.00000000   -0.00004224   -1.94805702
     atom   22 type  1   force =     0.00000004    0.00002681   -1.94803561
     atom   23 type  2   force =    -0.00000000   -0.00021051    1.55874272
     atom   24 type  2   force =     0.00000001    0.00021146    1.55874735
     The core correction contribution to forces
     atom    1 type  1   force =    -0.00000001    0.00000937   -0.01723268
     atom    2 type  1   force =     0.00000000   -0.00000951   -0.01723550
     atom    3 type  2   force =     0.00000000   -0.00000249   -0.00140365
     atom    4 type  2   force =     0.00000000    0.00000247   -0.00140247
     atom    5 type  1   force =    -0.00000001    0.00000914   -0.01723332
     atom    6 type  1   force =     0.00000000   -0.00000972   -0.01723155
     atom    7 type  2   force =     0.00000000   -0.00000245   -0.00140349
     atom    8 type  2   force =     0.00000000    0.00000244   -0.00140460
     atom    9 type  1   force =    -0.00000001    0.00000956   -0.01723284
     atom   10 type  1   force =     0.00000001   -0.00000966   -0.01723532
     atom   11 type  2   force =     0.00000000   -0.00000248   -0.00140364
     atom   12 type  2   force =    -0.00000000    0.00000246   -0.00140248
     atom   13 type  1   force =    -0.00000001    0.00000965   -0.01723339
     atom   14 type  1   force =     0.00000001   -0.00000943   -0.01723117
     atom   15 type  2   force =     0.00000000   -0.00000247   -0.00140348
     atom   16 type  2   force =    -0.00000000    0.00000249   -0.00140458
     atom   17 type  1   force =    -0.00000000    0.00000954   -0.01723283
     atom   18 type  1   force =     0.00000001   -0.00000923   -0.01723520
     atom   19 type  2   force =    -0.00000000   -0.00000245   -0.00140361
     atom   20 type  2   force =    -0.00000000    0.00000247   -0.00140248
     atom   21 type  1   force =    -0.00000000    0.00000967   -0.01723367
     atom   22 type  1   force =     0.00000001   -0.00000936   -0.01723115
     atom   23 type  2   force =    -0.00000000   -0.00000244   -0.00140346
     atom   24 type  2   force =    -0.00000000    0.00000245   -0.00140461
     The Hubbard contrib.    to forces
     atom    1 type  1   force =     0.00000000    0.00000000    0.00000000
     atom    2 type  1   force =     0.00000000    0.00000000    0.00000000
     atom    3 type  2   force =     0.00000000    0.00000000    0.00000000
     atom    4 type  2   force =     0.00000000    0.00000000    0.00000000
     atom    5 type  1   force =     0.00000000    0.00000000    0.00000000
     atom    6 type  1   force =     0.00000000    0.00000000    0.00000000
     atom    7 type  2   force =     0.00000000    0.00000000    0.00000000
     atom    8 type  2   force =     0.00000000    0.00000000    0.00000000
     atom    9 type  1   force =     0.00000000    0.00000000    0.00000000
     atom   10 type  1   force =     0.00000000    0.00000000    0.00000000
     atom   11 type  2   force =     0.00000000    0.00000000    0.00000000
     atom   12 type  2   force =     0.00000000    0.00000000    0.00000000
     atom   13 type  1   force =     0.00000000    0.00000000    0.00000000
     atom   14 type  1   force =     0.00000000    0.00000000    0.00000000
     atom   15 type  2   force =     0.00000000    0.00000000    0.00000000
     atom   16 type  2   force =     0.00000000    0.00000000    0.00000000
     atom   17 type  1   force =     0.00000000    0.00000000    0.00000000
     atom   18 type  1   force =     0.00000000    0.00000000    0.00000000
     atom   19 type  2   force =     0.00000000    0.00000000    0.00000000
     atom   20 type  2   force =     0.00000000    0.00000000    0.00000000
     atom   21 type  1   force =     0.00000000    0.00000000    0.00000000
     atom   22 type  1   force =     0.00000000    0.00000000    0.00000000
     atom   23 type  2   force =     0.00000000    0.00000000    0.00000000
     atom   24 type  2   force =     0.00000000    0.00000000    0.00000000
     The SCF correction term to forces
     atom    1 type  1   force =    -0.00000000   -0.00001091    0.00001068
     atom    2 type  1   force =     0.00000000   -0.00000258   -0.00002876
     atom    3 type  2   force =    -0.00000000   -0.00000504   -0.00002076
     atom    4 type  2   force =     0.00000000    0.00000027    0.00001912
     atom    5 type  1   force =    -0.00000000   -0.00002169   -0.00001528
     atom    6 type  1   force =     0.00000000   -0.00002319   -0.00008385
     atom    7 type  2   force =    -0.00000000   -0.00000195    0.00000953
     atom    8 type  2   force =     0.00000000   -0.00000587    0.00000081
     atom    9 type  1   force =    -0.00000000   -0.00000046   -0.00000969
     atom   10 type  1   force =     0.00000000   -0.00001263   -0.00002614
     atom   11 type  2   force =    -0.00000000   -0.00000064   -0.00001974
     atom   12 type  2   force =     0.00000000   -0.00000219    0.00001584
     atom   13 type  1   force =    -0.00000000    0.00001625   -0.00000991
     atom   14 type  1   force =     0.00000000    0.00000799   -0.00006170
     atom   15 type  2   force =    -0.00000000    0.00000153    0.00001039
     atom   16 type  2   force =     0.00000000    0.00000695    0.00000091
     atom   17 type  1   force =    -0.00000000    0.00000935   -0.00000688
     atom   18 type  1   force =     0.00000000    0.00001213   -0.00002024
     atom   19 type  2   force =    -0.00000000    0.00000747   -0.00001553
     atom   20 type  2   force =     0.00000000    0.00000160    0.00002046
     atom   21 type  1   force =     0.00000000    0.00000392   -0.00003628
     atom   22 type  1   force =     0.00000000    0.00001764   -0.00006254
     atom   23 type  2   force =    -0.00000000   -0.00000110    0.00000660
     atom   24 type  2   force =     0.00000000    0.00000013   -0.00000469

     Total force =     0.171897     Total SCF correction =     0.000153

     General routines

     Parallel routines

   This run was terminated on:  10:17:40  30Aug2025

   JOB DONE.
Note: The following floating-point exceptions are signalling: IEEE_UNDERFLOW_FLAG IEEE_DENORMAL
Note: The following floating-point exceptions are signalling: IEEE_UNDERFLOW_FLAG IEEE_DENORMAL
Note: The following floating-point exceptions are signalling: IEEE_UNDERFLOW_FLAG IEEE_DENORMAL
Note: The following floating-point exceptions are signalling: IEEE_UNDERFLOW_FLAG IEEE_DENORMAL
Note: The following floating-point exceptions are signalling: IEEE_UNDERFLOW_FLAG IEEE_DENORMAL
Note: The following floating-point exceptions are signalling: IEEE_UNDERFLOW_FLAG IEEE_DENORMAL
Note: The following floating-point exceptions are signalling: IEEE_UNDERFLOW_FLAG IEEE_DENORMAL
Note: The following floating-point exceptions are signalling: IEEE_UNDERFLOW_FLAG IEEE_DENORMAL
Note: The following floating-point exceptions are signalling: IEEE_UNDERFLOW_FLAG IEEE_DENORMAL
Note: The following floating-point exceptions are signalling: IEEE_UNDERFLOW_FLAG IEEE_DENORMAL
Note: The following floating-point exceptions are signalling: IEEE_UNDERFLOW_FLAG IEEE_DENORMAL
Note: The following floating-point exceptions are signalling: IEEE_UNDERFLOW_FLAG IEEE_DENORMAL
Note: The following floating-point exceptions are signalling: IEEE_UNDERFLOW_FLAG IEEE_DENORMAL
Note: The following floating-point exceptions are signalling: IEEE_UNDERFLOW_FLAG IEEE_DENORMAL
Note: The following floating-point exceptions are signalling: IEEE_UNDERFLOW_FLAG IEEE_DENORMAL
Note: The following floating-point exceptions are signalling: IEEE_UNDERFLOW_FLAG IEEE_DENORMAL
Note: The following floating-point exceptions are signalling: IEEE_UNDERFLOW_FLAG IEEE_DENORMAL
Note: The following floating-point exceptions are signalling: IEEE_UNDERFLOW_FLAG IEEE_DENORMAL
Note: The following floating-point exceptions are signalling: IEEE_UNDERFLOW_FLAG IEEE_DENORMAL
Note: The following floating-point exceptions are signalling: IEEE_UNDERFLOW_FLAG IEEE_DENORMAL
Note: The following floating-point exceptions are signalling: IEEE_UNDERFLOW_FLAG IEEE_DENORMAL
Note: The following floating-point exceptions are signalling: IEEE_UNDERFLOW_FLAG IEEE_DENORMAL
Note: The following floating-point exceptions are signalling: IEEE_UNDERFLOW_FLAG IEEE_DENORMAL
Note: The following floating-point exceptions are signalling: IEEE_UNDERFLOW_FLAG IEEE_DENORMAL
Note: The following floating-point exceptions are signalling: IEEE_UNDERFLOW_FLAG IEEE_DENORMAL
Note: The following floating-point exceptions are signalling: IEEE_UNDERFLOW_FLAG IEEE_DENORMAL
Note: The following floating-point exceptions are signalling: IEEE_UNDERFLOW_FLAG IEEE_DENORMAL
Note: The following floating-point exceptions are signalling: IEEE_UNDERFLOW_FLAG IEEE_DENORMAL
Note: The following floating-point exceptions are signalling: IEEE_UNDERFLOW_FLAG IEEE_DENORMAL
Note: The following floating-point exceptions are signalling: IEEE_UNDERFLOW_FLAG IEEE_DENORMAL
Note: The following floating-point exceptions are signalling: IEEE_UNDERFLOW_FLAG IEEE_DENORMAL
Note: The following floating-point exceptions are signalling: IEEE_UNDERFLOW_FLAG IEEE_DENORMAL