     Program PWSCF v.7.0 starts on 31Aug2025 at 16:12: 8

     K-points division:     npool     =       8
     R & G space division:  proc/nbgrp/npool/nimage =       4

     Reading input from /home/jvc/QEspresso7.2/ZnO_database/scripts/cell132.in/ZnO-3.47-1.52-132.in
Warning: card &CELL ignored
Warning: card / ignored
Warning: card &FCP ignored
Warning: card / ignored
Warning: card &RISM ignored
Warning: card / ignored

     Current dimensions of program PWSCF are:
     Max number of different atomic species (ntypx) = 10
     Max number of k-points (npk) =  40000
     Max angular momentum in pseudopotentials (lmaxx) =  4
     file Zn.upf: wavefunction(s)  3D renormalized
     Found identity + (  0.0000  0.0000 -0.5000) symmetry
     This is a supercell, fractional translations are disabled
     Message from routine setup:
     using ibrav=0 with symmetry is DISCOURAGED, use correct ibrav instead

     Using Slab Decomposition

     bravais-lattice index     =            0
     lattice parameter (alat)  =       6.5496  a.u.
     unit-cell volume          =    2215.3945 (a.u.)^3
     number of atoms/cell      =           24
     number of atomic types    =            2
     number of electrons       =       216.00
     number of Kohn-Sham states=          108
     kinetic-energy cutoff     =      50.0000  Ry
     charge density cutoff     =     400.0000  Ry
     scf convergence threshold =      1.0E-08
     mixing beta               =       0.3000
     number of iterations used =            8  plain     mixing
     Exchange-correlation= PBE
                           (   1   4   3   4   0   0   0)

     celldm(1)=   6.549585  celldm(2)=   0.000000  celldm(3)=   0.000000
     celldm(4)=   0.000000  celldm(5)=   0.000000  celldm(6)=   0.000000

     crystal axes: (cart. coord. in units of alat)
               a(1) = (   1.000000   0.000000   0.000000 )
               a(2) = (  -1.500000   2.598076   0.000000 )
               a(3) = (   0.000000   0.000000   3.034994 )

     reciprocal axes: (cart. coord. in units 2 pi/alat)
               b(1) = (  1.000000  0.577350 -0.000000 )
               b(2) = (  0.000000  0.384900  0.000000 )
               b(3) = (  0.000000 -0.000000  0.329490 )

     PseudoPot. # 1 for Zn read from file:
     /home/jvc/QEspresso7.2/ZnO_database/pseudos/Zn.upf
     MD5 check sum: 7f56cabf9682ed8c977c2f7d0c5985c5
     Pseudo is Ultrasoft + core correction, Zval = 12.0
     Generated using &quot;atomic&quot; code by A. Dal Corso  v.6.2.2
     Using radial grid of 1201 points,  6 beta functions with:
                l(1) =   0
                l(2) =   0
                l(3) =   1
                l(4) =   1
                l(5) =   2
                l(6) =   2
     Q(r) pseudized with 0 coefficients

     PseudoPot. # 2 for O  read from file:
     /home/jvc/QEspresso7.2/ZnO_database/pseudos/O.upf
     MD5 check sum: 91400c9766925bcf19f520983a725ff0
     Pseudo is Ultrasoft + core correction, Zval =  6.0
     Generated using &quot;atomic&quot; code by A. Dal Corso  v.6.3MaX
     Using radial grid of 1095 points,  4 beta functions with:
                l(1) =   0
                l(2) =   0
                l(3) =   1
                l(4) =   1
     Q(r) pseudized with 0 coefficients

     atomic species   valence    mass     pseudopotential
        Zn            12.00    65.38000     Zn( 1.00)
        O              6.00    15.99900     O ( 1.00)

      2 Sym. Ops. (no inversion) found

                                    s                        frac. trans.

      isym =  1     identity

 cryst.   s( 1) = (     1          0          0      )
                  (     0          1          0      )
                  (     0          0          1      )

 cart.    s( 1) = (  1.0000000 -0.0000000  0.0000000 )
                  (  0.0000000  1.0000000  0.0000000 )
                  (  0.0000000  0.0000000  1.0000000 )

      isym =  2     inv. 180 deg rotation - cart. axis [1,0,0]

 cryst.   s( 2) = (    -1          0          0      )
                  (     3          1          0      )
                  (     0          0          1      )

 cart.    s( 2) = ( -1.0000000  0.0000000  0.0000000 )
                  (  0.0000000  1.0000000  0.0000000 )
                  (  0.0000000  0.0000000  1.0000000 )

   Cartesian axes

     site n.     atom                  positions (alat units)
         1           Zn  tau(   1) = (   0.5000000   0.2886751   0.7597099  )
         2           Zn  tau(   2) = (  -0.0000000   0.5773503   0.0009615  )
         3           O   tau(   3) = (   0.5000000   0.2886751   1.3349062  )
         4           O   tau(   4) = (  -0.0000000   0.5773503   0.5761578  )
         5           Zn  tau(   5) = (   0.5000000   0.2886751   2.2772067  )
         6           Zn  tau(   6) = (  -0.0000000   0.5773503   1.5184583  )
         7           O   tau(   7) = (   0.5000000   0.2886751   2.8524030  )
         8           O   tau(   8) = (  -0.0000000   0.5773503   2.0936546  )
         9           Zn  tau(   9) = (   0.0000000   1.1547005   0.7597099  )
        10           Zn  tau(  10) = (  -0.5000000   1.4433757   0.0009615  )
        11           O   tau(  11) = (   0.0000000   1.1547005   1.3349062  )
        12           O   tau(  12) = (  -0.5000000   1.4433757   0.5761578  )
        13           Zn  tau(  13) = (   0.0000000   1.1547005   2.2772067  )
        14           Zn  tau(  14) = (  -0.5000000   1.4433757   1.5184583  )
        15           O   tau(  15) = (   0.0000000   1.1547005   2.8524030  )
        16           O   tau(  16) = (  -0.5000000   1.4433757   2.0936546  )
        17           Zn  tau(  17) = (  -0.5000000   2.0207259   0.7597099  )
        18           Zn  tau(  18) = (  -1.0000000   2.3094011   0.0009615  )
        19           O   tau(  19) = (  -0.5000000   2.0207259   1.3349062  )
        20           O   tau(  20) = (  -1.0000000   2.3094011   0.5761578  )
        21           Zn  tau(  21) = (  -0.5000000   2.0207259   2.2772067  )
        22           Zn  tau(  22) = (  -1.0000000   2.3094011   1.5184583  )
        23           O   tau(  23) = (  -0.5000000   2.0207259   2.8524030  )
        24           O   tau(  24) = (  -1.0000000   2.3094011   2.0936546  )

   Crystallographic axes

     site n.     atom                  positions (cryst. coord.)
         1           Zn  tau(   1) = (  0.6666667  0.1111111  0.2503168  )
         2           Zn  tau(   2) = (  0.3333333  0.2222222  0.0003168  )
         3           O   tau(   3) = (  0.6666667  0.1111111  0.4398382  )
         4           O   tau(   4) = (  0.3333333  0.2222222  0.1898382  )
         5           Zn  tau(   5) = (  0.6666667  0.1111111  0.7503168  )
         6           Zn  tau(   6) = (  0.3333333  0.2222222  0.5003168  )
         7           O   tau(   7) = (  0.6666667  0.1111111  0.9398382  )
         8           O   tau(   8) = (  0.3333333  0.2222222  0.6898382  )
         9           Zn  tau(   9) = (  0.6666667  0.4444444  0.2503168  )
        10           Zn  tau(  10) = (  0.3333333  0.5555556  0.0003168  )
        11           O   tau(  11) = (  0.6666667  0.4444444  0.4398382  )
        12           O   tau(  12) = (  0.3333333  0.5555556  0.1898382  )
        13           Zn  tau(  13) = (  0.6666667  0.4444444  0.7503168  )
        14           Zn  tau(  14) = (  0.3333333  0.5555556  0.5003168  )
        15           O   tau(  15) = (  0.6666667  0.4444444  0.9398382  )
        16           O   tau(  16) = (  0.3333333  0.5555556  0.6898382  )
        17           Zn  tau(  17) = (  0.6666667  0.7777778  0.2503168  )
        18           Zn  tau(  18) = (  0.3333333  0.8888889  0.0003168  )
        19           O   tau(  19) = (  0.6666667  0.7777778  0.4398382  )
        20           O   tau(  20) = (  0.3333333  0.8888889  0.1898382  )
        21           Zn  tau(  21) = (  0.6666667  0.7777778  0.7503168  )
        22           Zn  tau(  22) = (  0.3333333  0.8888889  0.5003168  )
        23           O   tau(  23) = (  0.6666667  0.7777778  0.9398382  )
        24           O   tau(  24) = (  0.3333333  0.8888889  0.6898382  )

     number of k points=    68
                       cart. coord. in units 2pi/alat
        k(    1) = (   0.0000000   0.0000000   0.0000000), wk =   0.0092593
        k(    2) = (   0.0000000   0.0000000   0.0549150), wk =   0.0185185
        k(    3) = (   0.0000000   0.0000000   0.1098300), wk =   0.0185185
        k(    4) = (   0.0000000   0.0000000  -0.1647450), wk =   0.0092593
        k(    5) = (   0.0000000   0.0641500   0.0000000), wk =   0.0185185
        k(    6) = (   0.0000000   0.0641500   0.0549150), wk =   0.0185185
        k(    7) = (   0.0000000   0.0641500   0.1098300), wk =   0.0185185
        k(    8) = (   0.0000000   0.0641500  -0.1647450), wk =   0.0185185
        k(    9) = (   0.0000000   0.1283001   0.0000000), wk =   0.0185185
        k(   10) = (   0.0000000   0.1283001   0.0549150), wk =   0.0185185
        k(   11) = (   0.0000000   0.1283001   0.1098300), wk =   0.0185185
        k(   12) = (   0.0000000   0.1283001  -0.1647450), wk =   0.0185185
        k(   13) = (   0.0000000  -0.1924501   0.0000000), wk =   0.0092593
        k(   14) = (   0.0000000  -0.1924501   0.0549150), wk =   0.0185185
        k(   15) = (   0.0000000  -0.1924501   0.1098300), wk =   0.0185185
        k(   16) = (   0.0000000  -0.1924501  -0.1647450), wk =   0.0092593
        k(   17) = (   0.1666667   0.0962250   0.0000000), wk =   0.0370370
        k(   18) = (   0.1666667   0.0962250   0.0549150), wk =   0.0370370
        k(   19) = (   0.1666667   0.0962250   0.1098300), wk =   0.0370370
        k(   20) = (   0.1666667   0.0962250  -0.1647450), wk =   0.0370370
        k(   21) = (   0.1666667   0.1603751   0.0000000), wk =   0.0370370
        k(   22) = (   0.1666667   0.1603751   0.0549150), wk =   0.0370370
        k(   23) = (   0.1666667   0.1603751   0.1098300), wk =   0.0370370
        k(   24) = (   0.1666667   0.1603751  -0.1647450), wk =   0.0370370
        k(   25) = (   0.1666667  -0.0320750   0.0000000), wk =   0.0370370
        k(   26) = (   0.1666667  -0.0320750   0.0549150), wk =   0.0370370
        k(   27) = (   0.1666667  -0.0320750   0.1098300), wk =   0.0370370
        k(   28) = (   0.1666667  -0.0320750  -0.1647450), wk =   0.0370370
        k(   29) = (   0.3333333   0.1924501   0.0000000), wk =   0.0185185
        k(   30) = (   0.3333333   0.1924501   0.0549150), wk =   0.0370370
        k(   31) = (   0.3333333   0.1924501   0.1098300), wk =   0.0370370
        k(   32) = (   0.3333333   0.1924501  -0.1647450), wk =   0.0185185
        k(   33) = (   0.3333333   0.2566001   0.0000000), wk =   0.0370370
        k(   34) = (   0.3333333   0.2566001   0.0549150), wk =   0.0370370
        k(   35) = (   0.3333333   0.2566001   0.1098300), wk =   0.0370370
        k(   36) = (   0.3333333   0.2566001  -0.1647450), wk =   0.0370370
        k(   37) = (   0.3333333   0.3207501   0.0000000), wk =   0.0370370
        k(   38) = (   0.3333333   0.3207501   0.0549150), wk =   0.0370370
        k(   39) = (   0.3333333   0.3207501   0.1098300), wk =   0.0370370
[...]

!    total energy              =   -2169.70901924 Ry
     estimated scf accuracy    <          3.9E-09 Ry

     The total energy is the sum of the following terms:
     one-electron contribution =   -1007.22959580 Ry
     hartree contribution      =     739.02148075 Ry
     xc contribution           =    -656.00780894 Ry
     ewald contribution        =   -1245.49309525 Ry

     convergence has been achieved in  42 iterations

     Forces acting on atoms (cartesian axes, Ry/au):

     atom    1 type  1   force =     0.00000000   -0.00000409   -0.01103741
     atom    2 type  1   force =     0.00000000    0.00000315   -0.01104044
     atom    3 type  2   force =     0.00000000    0.00000230    0.01103900
     atom    4 type  2   force =     0.00000000   -0.00000233    0.01103908
     atom    5 type  1   force =     0.00000000   -0.00000391   -0.01104043
     atom    6 type  1   force =     0.00000000    0.00000419   -0.01103778
     atom    7 type  2   force =     0.00000000    0.00000212    0.01103895
     atom    8 type  2   force =     0.00000000   -0.00000224    0.01103890
     atom    9 type  1   force =     0.00000000   -0.00000509   -0.01103668
     atom   10 type  1   force =     0.00000000    0.00000360   -0.01104135
     atom   11 type  2   force =     0.00000000    0.00000214    0.01103907
     atom   12 type  2   force =     0.00000000   -0.00000230    0.01103921
     atom   13 type  1   force =     0.00000000   -0.00000339   -0.01104080
     atom   14 type  1   force =     0.00000000    0.00000245   -0.01103685
     atom   15 type  2   force =     0.00000000    0.00000228    0.01103879
     atom   16 type  2   force =     0.00000000   -0.00000222    0.01103880
     atom   17 type  1   force =     0.00000000   -0.00000226   -0.01103832
     atom   18 type  1   force =     0.00000000    0.00000489   -0.01104046
     atom   19 type  2   force =     0.00000000    0.00000232    0.01103923
     atom   20 type  2   force =     0.00000000   -0.00000215    0.01103903
     atom   21 type  1   force =     0.00000000   -0.00000378   -0.01104019
     atom   22 type  1   force =     0.00000000    0.00000443   -0.01103717
     atom   23 type  2   force =     0.00000000    0.00000220    0.01103886
     atom   24 type  2   force =     0.00000000   -0.00000228    0.01103895
     The non-local contrib.  to forces
     atom    1 type  1   force =     0.00000000   -0.00000686   -0.17377771
     atom    2 type  1   force =     0.00000000    0.00000677   -0.17377895
     atom    3 type  2   force =     0.00000000    0.00021772   -0.14484862
     atom    4 type  2   force =     0.00000000   -0.00021783   -0.14484893
     atom    5 type  1   force =     0.00000000   -0.00000664   -0.17377863
     atom    6 type  1   force =     0.00000000    0.00000714   -0.17377778
     atom    7 type  2   force =     0.00000000    0.00021734   -0.14484871
     atom    8 type  2   force =     0.00000000   -0.00021754   -0.14484851
     atom    9 type  1   force =     0.00000000   -0.00000752   -0.17377763
     atom   10 type  1   force =     0.00000000    0.00000698   -0.17377896
     atom   11 type  2   force =     0.00000000    0.00021760   -0.14484812
     atom   12 type  2   force =     0.00000000   -0.00021764   -0.14484884
     atom   13 type  1   force =     0.00000000   -0.00000743   -0.17377855
     atom   14 type  1   force =     0.00000000    0.00000680   -0.17377787
     atom   15 type  2   force =     0.00000000    0.00021786   -0.14484928
     atom   16 type  2   force =     0.00000000   -0.00021729   -0.14484876
     atom   17 type  1   force =     0.00000000   -0.00000661   -0.17377767
     atom   18 type  1   force =     0.00000000    0.00000722   -0.17377889
     atom   19 type  2   force =     0.00000000    0.00021765   -0.14484822
     atom   20 type  2   force =     0.00000000   -0.00021735   -0.14484921
     atom   21 type  1   force =     0.00000000   -0.00000664   -0.17377844
     atom   22 type  1   force =     0.00000000    0.00000697   -0.17377789
     atom   23 type  2   force =     0.00000000    0.00021746   -0.14484899
     atom   24 type  2   force =     0.00000000   -0.00021765   -0.14484816
     The ionic contribution  to forces
     atom    1 type  1   force =    -0.00000000    0.00000001   -1.12322816
     atom    2 type  1   force =     0.00000000    0.00000001   -1.12322816
     atom    3 type  2   force =    -0.00000000    0.00000000    1.12322816
     atom    4 type  2   force =     0.00000000    0.00000000    1.12322816
     atom    5 type  1   force =    -0.00000000    0.00000001   -1.12322816
     atom    6 type  1   force =     0.00000000    0.00000001   -1.12322816
     atom    7 type  2   force =    -0.00000000    0.00000000    1.12322816
     atom    8 type  2   force =     0.00000000    0.00000000    1.12322816
     atom    9 type  1   force =    -0.00000001    0.00000001   -1.12322816
     atom   10 type  1   force =     0.00000001   -0.00000001   -1.12322816
     atom   11 type  2   force =    -0.00000001    0.00000000    1.12322816
     atom   12 type  2   force =     0.00000001   -0.00000000    1.12322816
     atom   13 type  1   force =    -0.00000001    0.00000001   -1.12322816
     atom   14 type  1   force =     0.00000001   -0.00000001   -1.12322816
     atom   15 type  2   force =    -0.00000001    0.00000000    1.12322816
     atom   16 type  2   force =     0.00000001   -0.00000000    1.12322816
     atom   17 type  1   force =    -0.00000000   -0.00000001   -1.12322816
     atom   18 type  1   force =     0.00000000   -0.00000001   -1.12322816
     atom   19 type  2   force =    -0.00000000   -0.00000000    1.12322816
     atom   20 type  2   force =     0.00000000   -0.00000000    1.12322816
     atom   21 type  1   force =    -0.00000000   -0.00000001   -1.12322816
     atom   22 type  1   force =     0.00000000   -0.00000001   -1.12322816
     atom   23 type  2   force =    -0.00000000   -0.00000000    1.12322816
     atom   24 type  2   force =     0.00000000   -0.00000000    1.12322816
     The local contribution  to forces
     atom    1 type  1   force =    -0.00000005   -0.00000243    1.27421769
     atom    2 type  1   force =     0.00000000    0.00000290    1.27422126
     atom    3 type  2   force =    -0.00000001   -0.00021383   -0.96851866
     atom    4 type  2   force =     0.00000000    0.00021419   -0.96851843
     atom    5 type  1   force =    -0.00000005   -0.00000279    1.27422107
     atom    6 type  1   force =     0.00000000    0.00000186    1.27421816
     atom    7 type  2   force =    -0.00000001   -0.00021232   -0.96851443
     atom    8 type  2   force =     0.00000000    0.00021296   -0.96851522
     atom    9 type  1   force =    -0.00000009   -0.00000094    1.27421720
     atom   10 type  1   force =     0.00000009    0.00000253    1.27422209
     atom   11 type  2   force =    -0.00000002   -0.00021170   -0.96852006
     atom   12 type  2   force =     0.00000002    0.00021335   -0.96851794
     atom   13 type  1   force =    -0.00000009   -0.00000180    1.27422098
     atom   14 type  1   force =     0.00000009    0.00000348    1.27421796
     atom   15 type  2   force =    -0.00000002   -0.00021341   -0.96851271
     atom   16 type  2   force =     0.00000002    0.00021315   -0.96851579
     atom   17 type  1   force =     0.00000000   -0.00000368    1.27421815
     atom   18 type  1   force =     0.00000005    0.00000150    1.27422135
     atom   19 type  2   force =     0.00000000   -0.00021429   -0.96851966
     atom   20 type  2   force =     0.00000001    0.00021188   -0.96851721
     atom   21 type  1   force =     0.00000000   -0.00000285    1.27422035
     atom   22 type  1   force =     0.00000005    0.00000191    1.27421816
     atom   23 type  2   force =     0.00000000   -0.00021374   -0.96851326
     atom   24 type  2   force =     0.00000001    0.00021342   -0.96851645
     The core correction contribution to forces
     atom    1 type  1   force =     0.00000010    0.00000508    0.01174331
     atom    2 type  1   force =     0.00000003   -0.00000527    0.01174335
     atom    3 type  2   force =     0.00000001   -0.00000247    0.00117447
     atom    4 type  2   force =    -0.00000001    0.00000250    0.00117448
     atom    5 type  1   force =     0.00000010    0.00000508    0.01174330
     atom    6 type  1   force =     0.00000003   -0.00000527    0.01174332
     atom    7 type  2   force =     0.00000001   -0.00000247    0.00117448
     atom    8 type  2   force =    -0.00000001    0.00000250    0.00117448
     atom    9 type  1   force =    -0.00000002    0.00000542    0.01174330
     atom   10 type  1   force =     0.00000002   -0.00000542    0.01174329
     atom   11 type  2   force =    -0.00000000   -0.00000243    0.00117446
     atom   12 type  2   force =     0.00000000    0.00000244    0.00117448
     atom   13 type  1   force =    -0.00000002    0.00000540    0.01174330
     atom   14 type  1   force =     0.00000002   -0.00000542    0.01174327
     atom   15 type  2   force =    -0.00000000   -0.00000244    0.00117449
     atom   16 type  2   force =     0.00000000    0.00000243    0.00117448
     atom   17 type  1   force =    -0.00000003    0.00000527    0.01174334
     atom   18 type  1   force =    -0.00000010   -0.00000508    0.01174331
     atom   19 type  2   force =     0.00000001   -0.00000250    0.00117447
     atom   20 type  2   force =    -0.00000001    0.00000247    0.00117448
     atom   21 type  1   force =    -0.00000003    0.00000528    0.01174334
     atom   22 type  1   force =    -0.00000010   -0.00000507    0.01174329
     atom   23 type  2   force =     0.00000001   -0.00000250    0.00117449
     atom   24 type  2   force =    -0.00000001    0.00000247    0.00117447
     The Hubbard contrib.    to forces
     atom    1 type  1   force =     0.00000000    0.00000000    0.00000000
     atom    2 type  1   force =     0.00000000    0.00000000    0.00000000
     atom    3 type  2   force =     0.00000000    0.00000000    0.00000000
     atom    4 type  2   force =     0.00000000    0.00000000    0.00000000
     atom    5 type  1   force =     0.00000000    0.00000000    0.00000000
     atom    6 type  1   force =     0.00000000    0.00000000    0.00000000
     atom    7 type  2   force =     0.00000000    0.00000000    0.00000000
     atom    8 type  2   force =     0.00000000    0.00000000    0.00000000
     atom    9 type  1   force =     0.00000000    0.00000000    0.00000000
     atom   10 type  1   force =     0.00000000    0.00000000    0.00000000
     atom   11 type  2   force =     0.00000000    0.00000000    0.00000000
     atom   12 type  2   force =     0.00000000    0.00000000    0.00000000
     atom   13 type  1   force =     0.00000000    0.00000000    0.00000000
     atom   14 type  1   force =     0.00000000    0.00000000    0.00000000
     atom   15 type  2   force =     0.00000000    0.00000000    0.00000000
     atom   16 type  2   force =     0.00000000    0.00000000    0.00000000
     atom   17 type  1   force =     0.00000000    0.00000000    0.00000000
     atom   18 type  1   force =     0.00000000    0.00000000    0.00000000
     atom   19 type  2   force =     0.00000000    0.00000000    0.00000000
     atom   20 type  2   force =     0.00000000    0.00000000    0.00000000
     atom   21 type  1   force =     0.00000000    0.00000000    0.00000000
     atom   22 type  1   force =     0.00000000    0.00000000    0.00000000
     atom   23 type  2   force =     0.00000000    0.00000000    0.00000000
     atom   24 type  2   force =     0.00000000    0.00000000    0.00000000
     The SCF correction term to forces
     atom    1 type  1   force =     0.00000000    0.00000013    0.00000653
     atom    2 type  1   force =     0.00000000   -0.00000125    0.00000114
     atom    3 type  2   force =    -0.00000000    0.00000088    0.00000273
     atom    4 type  2   force =    -0.00000000   -0.00000118    0.00000288
     atom    5 type  1   force =     0.00000000    0.00000045    0.00000108
     atom    6 type  1   force =     0.00000000    0.00000046    0.00000576
     atom    7 type  2   force =    -0.00000000   -0.00000043   -0.00000147
     atom    8 type  2   force =    -0.00000000   -0.00000014   -0.00000093
     atom    9 type  1   force =     0.00000000   -0.00000205    0.00000770
     atom   10 type  1   force =    -0.00000000   -0.00000048   -0.00000053
     atom   11 type  2   force =    -0.00000000   -0.00000132    0.00000371
     atom   12 type  2   force =     0.00000000   -0.00000043    0.00000243
     atom   13 type  1   force =     0.00000000    0.00000044    0.00000070
     atom   14 type  1   force =    -0.00000000   -0.00000239    0.00000703
     atom   15 type  2   force =    -0.00000000    0.00000029   -0.00000279
     atom   16 type  2   force =     0.00000000   -0.00000050   -0.00000021
     atom   17 type  1   force =    -0.00000000    0.00000278    0.00000510
     atom   18 type  1   force =     0.00000000    0.00000126    0.00000101
     atom   19 type  2   force =     0.00000000    0.00000148    0.00000356
     atom   20 type  2   force =     0.00000000    0.00000087    0.00000188
     atom   21 type  1   force =    -0.00000000    0.00000045    0.00000180
     atom   22 type  1   force =    -0.00000000    0.00000064    0.00000652
     atom   23 type  2   force =     0.00000000    0.00000098   -0.00000245
     atom   24 type  2   force =     0.00000000   -0.00000051    0.00000001

     Total force =     0.054080     Total SCF correction =     0.000019

     General routines

     Parallel routines

   This run was terminated on:  16:58: 9  31Aug2025

   JOB DONE.
Note: The following floating-point exceptions are signalling: IEEE_UNDERFLOW_FLAG IEEE_DENORMAL
Note: The following floating-point exceptions are signalling: IEEE_UNDERFLOW_FLAG IEEE_DENORMAL
Note: The following floating-point exceptions are signalling: IEEE_UNDERFLOW_FLAG IEEE_DENORMAL
Note: The following floating-point exceptions are signalling: IEEE_UNDERFLOW_FLAG IEEE_DENORMAL
Note: The following floating-point exceptions are signalling: IEEE_UNDERFLOW_FLAG IEEE_DENORMAL
Note: The following floating-point exceptions are signalling: IEEE_UNDERFLOW_FLAG IEEE_DENORMAL
Note: The following floating-point exceptions are signalling: IEEE_UNDERFLOW_FLAG IEEE_DENORMAL
Note: The following floating-point exceptions are signalling: IEEE_UNDERFLOW_FLAG IEEE_DENORMAL
Note: The following floating-point exceptions are signalling: IEEE_UNDERFLOW_FLAG IEEE_DENORMAL
Note: The following floating-point exceptions are signalling: IEEE_UNDERFLOW_FLAG IEEE_DENORMAL
Note: The following floating-point exceptions are signalling: IEEE_UNDERFLOW_FLAG IEEE_DENORMAL
Note: The following floating-point exceptions are signalling: IEEE_UNDERFLOW_FLAG IEEE_DENORMAL
Note: The following floating-point exceptions are signalling: IEEE_UNDERFLOW_FLAG IEEE_DENORMAL
Note: The following floating-point exceptions are signalling: IEEE_UNDERFLOW_FLAG IEEE_DENORMAL
Note: The following floating-point exceptions are signalling: IEEE_UNDERFLOW_FLAG IEEE_DENORMAL
Note: The following floating-point exceptions are signalling: IEEE_UNDERFLOW_FLAG IEEE_DENORMAL
Note: The following floating-point exceptions are signalling: IEEE_UNDERFLOW_FLAG IEEE_DENORMAL
Note: The following floating-point exceptions are signalling: IEEE_UNDERFLOW_FLAG IEEE_DENORMAL
Note: The following floating-point exceptions are signalling: IEEE_UNDERFLOW_FLAG IEEE_DENORMAL
Note: The following floating-point exceptions are signalling: IEEE_UNDERFLOW_FLAG IEEE_DENORMAL
Note: The following floating-point exceptions are signalling: IEEE_UNDERFLOW_FLAG IEEE_DENORMAL
Note: The following floating-point exceptions are signalling: IEEE_UNDERFLOW_FLAG IEEE_DENORMAL
Note: The following floating-point exceptions are signalling: IEEE_UNDERFLOW_FLAG IEEE_DENORMAL
Note: The following floating-point exceptions are signalling: IEEE_UNDERFLOW_FLAG IEEE_DENORMAL
Note: The following floating-point exceptions are signalling: IEEE_UNDERFLOW_FLAG IEEE_DENORMAL
Note: The following floating-point exceptions are signalling: IEEE_UNDERFLOW_FLAG IEEE_DENORMAL
Note: The following floating-point exceptions are signalling: IEEE_UNDERFLOW_FLAG IEEE_DENORMAL
Note: The following floating-point exceptions are signalling: IEEE_UNDERFLOW_FLAG IEEE_DENORMAL
Note: The following floating-point exceptions are signalling: IEEE_UNDERFLOW_FLAG IEEE_DENORMAL
Note: The following floating-point exceptions are signalling: IEEE_UNDERFLOW_FLAG IEEE_DENORMAL
Note: The following floating-point exceptions are signalling: IEEE_UNDERFLOW_FLAG IEEE_DENORMAL
Note: The following floating-point exceptions are signalling: IEEE_UNDERFLOW_FLAG IEEE_DENORMAL