     Program PWSCF v.7.0 starts on  1Sep2025 at  1:53:38

     K-points division:     npool     =       8
     R & G space division:  proc/nbgrp/npool/nimage =       4

     Reading input from /home/jvc/QEspresso7.2/ZnO_database/scripts/cell132.in/ZnO-3.53-1.61-132.in
Warning: card &CELL ignored
Warning: card / ignored
Warning: card &FCP ignored
Warning: card / ignored
Warning: card &RISM ignored
Warning: card / ignored

     Current dimensions of program PWSCF are:
     Max number of different atomic species (ntypx) = 10
     Max number of k-points (npk) =  40000
     Max angular momentum in pseudopotentials (lmaxx) =  4
     file Zn.upf: wavefunction(s)  3D renormalized
     Found identity + (  0.0000  0.0000  0.5000) symmetry
     This is a supercell, fractional translations are disabled
     Message from routine setup:
     using ibrav=0 with symmetry is DISCOURAGED, use correct ibrav instead

     Using Slab Decomposition

     bravais-lattice index     =            0
     lattice parameter (alat)  =       6.6732  a.u.
     unit-cell volume          =    2492.7395 (a.u.)^3
     number of atoms/cell      =           24
     number of atomic types    =            2
     number of electrons       =       216.00
     number of Kohn-Sham states=          108
     kinetic-energy cutoff     =      50.0000  Ry
     charge density cutoff     =     400.0000  Ry
     scf convergence threshold =      1.0E-08
     mixing beta               =       0.3000
     number of iterations used =            8  plain     mixing
     Exchange-correlation= PBE
                           (   1   4   3   4   0   0   0)

     celldm(1)=   6.673162  celldm(2)=   0.000000  celldm(3)=   0.000000
     celldm(4)=   0.000000  celldm(5)=   0.000000  celldm(6)=   0.000000

     crystal axes: (cart. coord. in units of alat)
               a(1) = (   1.000000   0.000000   0.000000 )
               a(2) = (  -1.500000   2.598076   0.000000 )
               a(3) = (   0.000000   0.000000   3.228717 )

     reciprocal axes: (cart. coord. in units 2 pi/alat)
               b(1) = (  1.000000  0.577350 -0.000000 )
               b(2) = (  0.000000  0.384900  0.000000 )
               b(3) = (  0.000000 -0.000000  0.309721 )

     PseudoPot. # 1 for Zn read from file:
     /home/jvc/QEspresso7.2/ZnO_database/pseudos/Zn.upf
     MD5 check sum: 7f56cabf9682ed8c977c2f7d0c5985c5
     Pseudo is Ultrasoft + core correction, Zval = 12.0
     Generated using &quot;atomic&quot; code by A. Dal Corso  v.6.2.2
     Using radial grid of 1201 points,  6 beta functions with:
                l(1) =   0
                l(2) =   0
                l(3) =   1
                l(4) =   1
                l(5) =   2
                l(6) =   2
     Q(r) pseudized with 0 coefficients

     PseudoPot. # 2 for O  read from file:
     /home/jvc/QEspresso7.2/ZnO_database/pseudos/O.upf
     MD5 check sum: 91400c9766925bcf19f520983a725ff0
     Pseudo is Ultrasoft + core correction, Zval =  6.0
     Generated using &quot;atomic&quot; code by A. Dal Corso  v.6.3MaX
     Using radial grid of 1095 points,  4 beta functions with:
                l(1) =   0
                l(2) =   0
                l(3) =   1
                l(4) =   1
     Q(r) pseudized with 0 coefficients

     atomic species   valence    mass     pseudopotential
        Zn            12.00    65.38000     Zn( 1.00)
        O              6.00    15.99900     O ( 1.00)

      2 Sym. Ops. (no inversion) found

                                    s                        frac. trans.

      isym =  1     identity

 cryst.   s( 1) = (     1          0          0      )
                  (     0          1          0      )
                  (     0          0          1      )

 cart.    s( 1) = (  1.0000000  0.0000000  0.0000000 )
                  (  0.0000000  1.0000000  0.0000000 )
                  (  0.0000000  0.0000000  1.0000000 )

      isym =  2     inv. 180 deg rotation - cart. axis [1,0,0]

 cryst.   s( 2) = (    -1          0          0      )
                  (     3          1          0      )
                  (     0          0          1      )

 cart.    s( 2) = ( -1.0000000  0.0000000  0.0000000 )
                  (  0.0000000  1.0000000  0.0000000 )
                  (  0.0000000  0.0000000  1.0000000 )

   Cartesian axes

     site n.     atom                  positions (alat units)
         1           Zn  tau(   1) = (   0.5000000   0.2886751   0.8082020  )
         2           Zn  tau(   2) = (   0.0000000   0.5773503   0.0010228  )
         3           O   tau(   3) = (   0.5000000   0.2886751   1.4201130  )
         4           O   tau(   4) = (   0.0000000   0.5773503   0.6129338  )
         5           Zn  tau(   5) = (   0.5000000   0.2886751   2.4225604  )
         6           Zn  tau(   6) = (   0.0000000   0.5773503   1.6153812  )
         7           O   tau(   7) = (   0.5000000   0.2886751   3.0344713  )
         8           O   tau(   8) = (   0.0000000   0.5773503   2.2272921  )
         9           Zn  tau(   9) = (   0.0000000   1.1547005   0.8082020  )
        10           Zn  tau(  10) = (  -0.5000000   1.4433757   0.0010228  )
        11           O   tau(  11) = (   0.0000000   1.1547005   1.4201130  )
        12           O   tau(  12) = (  -0.5000000   1.4433757   0.6129338  )
        13           Zn  tau(  13) = (   0.0000000   1.1547005   2.4225604  )
        14           Zn  tau(  14) = (  -0.5000000   1.4433757   1.6153812  )
        15           O   tau(  15) = (   0.0000000   1.1547005   3.0344713  )
        16           O   tau(  16) = (  -0.5000000   1.4433757   2.2272921  )
        17           Zn  tau(  17) = (  -0.5000000   2.0207259   0.8082020  )
        18           Zn  tau(  18) = (  -1.0000000   2.3094011   0.0010228  )
        19           O   tau(  19) = (  -0.5000000   2.0207259   1.4201130  )
        20           O   tau(  20) = (  -1.0000000   2.3094011   0.6129338  )
        21           Zn  tau(  21) = (  -0.5000000   2.0207259   2.4225604  )
        22           Zn  tau(  22) = (  -1.0000000   2.3094011   1.6153812  )
        23           O   tau(  23) = (  -0.5000000   2.0207259   3.0344713  )
        24           O   tau(  24) = (  -1.0000000   2.3094011   2.2272921  )

   Crystallographic axes

     site n.     atom                  positions (cryst. coord.)
         1           Zn  tau(   1) = (  0.6666667  0.1111111  0.2503168  )
         2           Zn  tau(   2) = (  0.3333333  0.2222222  0.0003168  )
         3           O   tau(   3) = (  0.6666667  0.1111111  0.4398382  )
         4           O   tau(   4) = (  0.3333333  0.2222222  0.1898382  )
         5           Zn  tau(   5) = (  0.6666667  0.1111111  0.7503168  )
         6           Zn  tau(   6) = (  0.3333333  0.2222222  0.5003168  )
         7           O   tau(   7) = (  0.6666667  0.1111111  0.9398382  )
         8           O   tau(   8) = (  0.3333333  0.2222222  0.6898382  )
         9           Zn  tau(   9) = (  0.6666667  0.4444444  0.2503168  )
        10           Zn  tau(  10) = (  0.3333333  0.5555556  0.0003168  )
        11           O   tau(  11) = (  0.6666667  0.4444444  0.4398382  )
        12           O   tau(  12) = (  0.3333333  0.5555556  0.1898382  )
        13           Zn  tau(  13) = (  0.6666667  0.4444444  0.7503168  )
        14           Zn  tau(  14) = (  0.3333333  0.5555556  0.5003168  )
        15           O   tau(  15) = (  0.6666667  0.4444444  0.9398382  )
        16           O   tau(  16) = (  0.3333333  0.5555556  0.6898382  )
        17           Zn  tau(  17) = (  0.6666667  0.7777778  0.2503168  )
        18           Zn  tau(  18) = (  0.3333333  0.8888889  0.0003168  )
        19           O   tau(  19) = (  0.6666667  0.7777778  0.4398382  )
        20           O   tau(  20) = (  0.3333333  0.8888889  0.1898382  )
        21           Zn  tau(  21) = (  0.6666667  0.7777778  0.7503168  )
        22           Zn  tau(  22) = (  0.3333333  0.8888889  0.5003168  )
        23           O   tau(  23) = (  0.6666667  0.7777778  0.9398382  )
        24           O   tau(  24) = (  0.3333333  0.8888889  0.6898382  )

     number of k points=    68
                       cart. coord. in units 2pi/alat
        k(    1) = (   0.0000000   0.0000000   0.0000000), wk =   0.0092593
        k(    2) = (   0.0000000   0.0000000   0.0516201), wk =   0.0185185
        k(    3) = (   0.0000000   0.0000000   0.1032402), wk =   0.0185185
        k(    4) = (   0.0000000   0.0000000  -0.1548603), wk =   0.0092593
        k(    5) = (   0.0000000   0.0641500   0.0000000), wk =   0.0185185
        k(    6) = (   0.0000000   0.0641500   0.0516201), wk =   0.0185185
        k(    7) = (   0.0000000   0.0641500   0.1032402), wk =   0.0185185
        k(    8) = (   0.0000000   0.0641500  -0.1548603), wk =   0.0185185
        k(    9) = (   0.0000000   0.1283001   0.0000000), wk =   0.0185185
        k(   10) = (   0.0000000   0.1283001   0.0516201), wk =   0.0185185
        k(   11) = (   0.0000000   0.1283001   0.1032402), wk =   0.0185185
        k(   12) = (   0.0000000   0.1283001  -0.1548603), wk =   0.0185185
        k(   13) = (   0.0000000  -0.1924501   0.0000000), wk =   0.0092593
        k(   14) = (   0.0000000  -0.1924501   0.0516201), wk =   0.0185185
        k(   15) = (   0.0000000  -0.1924501   0.1032402), wk =   0.0185185
        k(   16) = (   0.0000000  -0.1924501  -0.1548603), wk =   0.0092593
        k(   17) = (   0.1666667   0.0962250   0.0000000), wk =   0.0370370
        k(   18) = (   0.1666667   0.0962250   0.0516201), wk =   0.0370370
        k(   19) = (   0.1666667   0.0962250   0.1032402), wk =   0.0370370
        k(   20) = (   0.1666667   0.0962250  -0.1548603), wk =   0.0370370
        k(   21) = (   0.1666667   0.1603751   0.0000000), wk =   0.0370370
        k(   22) = (   0.1666667   0.1603751   0.0516201), wk =   0.0370370
        k(   23) = (   0.1666667   0.1603751   0.1032402), wk =   0.0370370
        k(   24) = (   0.1666667   0.1603751  -0.1548603), wk =   0.0370370
        k(   25) = (   0.1666667  -0.0320750   0.0000000), wk =   0.0370370
        k(   26) = (   0.1666667  -0.0320750   0.0516201), wk =   0.0370370
        k(   27) = (   0.1666667  -0.0320750   0.1032402), wk =   0.0370370
        k(   28) = (   0.1666667  -0.0320750  -0.1548603), wk =   0.0370370
        k(   29) = (   0.3333333   0.1924501   0.0000000), wk =   0.0185185
        k(   30) = (   0.3333333   0.1924501   0.0516201), wk =   0.0370370
        k(   31) = (   0.3333333   0.1924501   0.1032402), wk =   0.0370370
        k(   32) = (   0.3333333   0.1924501  -0.1548603), wk =   0.0185185
        k(   33) = (   0.3333333   0.2566001   0.0000000), wk =   0.0370370
        k(   34) = (   0.3333333   0.2566001   0.0516201), wk =   0.0370370
        k(   35) = (   0.3333333   0.2566001   0.1032402), wk =   0.0370370
        k(   36) = (   0.3333333   0.2566001  -0.1548603), wk =   0.0370370
        k(   37) = (   0.3333333   0.3207501   0.0000000), wk =   0.0370370
        k(   38) = (   0.3333333   0.3207501   0.0516201), wk =   0.0370370
        k(   39) = (   0.3333333   0.3207501   0.1032402), wk =   0.0370370
[...]
     estimated scf accuracy    <          1.2E-09 Ry

     The total energy is the sum of the following terms:
     one-electron contribution =   -1081.29224972 Ry
     hartree contribution      =     765.79659631 Ry
     xc contribution           =    -654.78089208 Ry
     ewald contribution        =   -1199.18672145 Ry

     convergence has been achieved in  37 iterations

     Forces acting on atoms (cartesian axes, Ry/au):

     atom    1 type  1   force =     0.00000000    0.00000358   -0.00011160
     atom    2 type  1   force =     0.00000000   -0.00000549   -0.00011425
     atom    3 type  2   force =     0.00000000    0.00000641    0.00011108
     atom    4 type  2   force =     0.00000000   -0.00000655    0.00011079
     atom    5 type  1   force =     0.00000000    0.00000794   -0.00010903
     atom    6 type  1   force =     0.00000000   -0.00000864   -0.00010906
     atom    7 type  2   force =     0.00000000    0.00000727    0.00011144
     atom    8 type  2   force =     0.00000000   -0.00000683    0.00011117
     atom    9 type  1   force =     0.00000000    0.00001270   -0.00011361
     atom   10 type  1   force =     0.00000000   -0.00000771   -0.00010387
     atom   11 type  2   force =     0.00000000    0.00000781    0.00011125
     atom   12 type  2   force =     0.00000000   -0.00000681    0.00011046
     atom   13 type  1   force =     0.00000000   -0.00000524   -0.00010416
     atom   14 type  1   force =     0.00000000   -0.00000933   -0.00012228
     atom   15 type  2   force =     0.00000000    0.00000838    0.00011034
     atom   16 type  2   force =     0.00000000   -0.00000617    0.00011051
     atom   17 type  1   force =     0.00000000    0.00000348   -0.00011561
     atom   18 type  1   force =     0.00000000   -0.00000482   -0.00010819
     atom   19 type  2   force =     0.00000000    0.00000700    0.00011221
     atom   20 type  2   force =     0.00000000   -0.00000775    0.00010976
     atom   21 type  1   force =     0.00000000    0.00001305   -0.00010317
     atom   22 type  1   force =     0.00000000   -0.00000180   -0.00011494
     atom   23 type  2   force =     0.00000000    0.00000742    0.00010994
     atom   24 type  2   force =     0.00000000   -0.00000790    0.00011082
     The non-local contrib.  to forces
     atom    1 type  1   force =     0.00000000   -0.00002700   -0.00455764
     atom    2 type  1   force =     0.00000000    0.00002997   -0.00455329
     atom    3 type  2   force =     0.00000000    0.00024555    0.00636913
     atom    4 type  2   force =     0.00000000   -0.00024616    0.00636858
     atom    5 type  1   force =     0.00000000   -0.00002083   -0.00455532
     atom    6 type  1   force =     0.00000000    0.00002410   -0.00455178
     atom    7 type  2   force =     0.00000000    0.00024449    0.00637054
     atom    8 type  2   force =     0.00000000   -0.00024563    0.00636712
     atom    9 type  1   force =     0.00000000   -0.00002484   -0.00455515
     atom   10 type  1   force =     0.00000000    0.00001998   -0.00454942
     atom   11 type  2   force =     0.00000000    0.00025145    0.00637115
     atom   12 type  2   force =     0.00000000   -0.00024890    0.00636765
     atom   13 type  1   force =     0.00000000   -0.00003569   -0.00454785
     atom   14 type  1   force =     0.00000000    0.00002352   -0.00456304
     atom   15 type  2   force =     0.00000000    0.00025141    0.00636559
     atom   16 type  2   force =     0.00000000   -0.00024286    0.00636489
     atom   17 type  1   force =     0.00000000   -0.00002167   -0.00455281
     atom   18 type  1   force =     0.00000000    0.00002514   -0.00454936
     atom   19 type  2   force =     0.00000000    0.00024569    0.00637583
     atom   20 type  2   force =     0.00000000   -0.00025019    0.00636387
     atom   21 type  1   force =     0.00000000   -0.00001871   -0.00455000
     atom   22 type  1   force =     0.00000000    0.00002613   -0.00456070
     atom   23 type  2   force =     0.00000000    0.00024891    0.00636173
     atom   24 type  2   force =     0.00000000   -0.00025849    0.00636825
     The ionic contribution  to forces
     atom    1 type  1   force =    -0.00000000    0.00000001    0.05376957
     atom    2 type  1   force =     0.00000000    0.00000001    0.05376957
     atom    3 type  2   force =    -0.00000000    0.00000000   -0.05376957
     atom    4 type  2   force =     0.00000000    0.00000000   -0.05376957
     atom    5 type  1   force =    -0.00000000    0.00000001    0.05376957
     atom    6 type  1   force =     0.00000000    0.00000001    0.05376957
     atom    7 type  2   force =    -0.00000000    0.00000000   -0.05376957
     atom    8 type  2   force =     0.00000000    0.00000000   -0.05376957
     atom    9 type  1   force =    -0.00000001    0.00000001    0.05376956
     atom   10 type  1   force =     0.00000001   -0.00000001    0.05376956
     atom   11 type  2   force =    -0.00000001    0.00000000   -0.05376956
     atom   12 type  2   force =     0.00000001   -0.00000000   -0.05376956
     atom   13 type  1   force =    -0.00000001    0.00000001    0.05376956
     atom   14 type  1   force =     0.00000001   -0.00000001    0.05376956
     atom   15 type  2   force =    -0.00000001    0.00000000   -0.05376956
     atom   16 type  2   force =     0.00000001   -0.00000000   -0.05376956
     atom   17 type  1   force =    -0.00000000   -0.00000001    0.05376957
     atom   18 type  1   force =     0.00000000   -0.00000001    0.05376957
     atom   19 type  2   force =    -0.00000000   -0.00000000   -0.05376957
     atom   20 type  2   force =     0.00000000   -0.00000000   -0.05376957
     atom   21 type  1   force =    -0.00000000   -0.00000001    0.05376957
     atom   22 type  1   force =     0.00000000   -0.00000001    0.05376957
     atom   23 type  2   force =    -0.00000000   -0.00000000   -0.05376957
     atom   24 type  2   force =     0.00000000   -0.00000000   -0.05376957
     The local contribution  to forces
     atom    1 type  1   force =    -0.00000005    0.00002618   -0.04959515
     atom    2 type  1   force =     0.00000000   -0.00003081   -0.04960678
     atom    3 type  2   force =    -0.00000001   -0.00023865    0.04758399
     atom    4 type  2   force =     0.00000000    0.00023500    0.04758568
     atom    5 type  1   force =    -0.00000005    0.00000911   -0.04959984
     atom    6 type  1   force =     0.00000000   -0.00001966   -0.04961496
     atom    7 type  2   force =    -0.00000001   -0.00023427    0.04758671
     atom    8 type  2   force =    -0.00000000    0.00023846    0.04758074
     atom    9 type  1   force =    -0.00000009    0.00001929   -0.04959790
     atom   10 type  1   force =     0.00000009   -0.00001113   -0.04961635
     atom   11 type  2   force =    -0.00000002   -0.00023877    0.04758758
     atom   12 type  2   force =     0.00000002    0.00023560    0.04758523
     atom   13 type  1   force =    -0.00000009    0.00005142   -0.04961824
     atom   14 type  1   force =     0.00000009   -0.00001908   -0.04958261
     atom   15 type  2   force =    -0.00000002   -0.00023835    0.04758380
     atom   16 type  2   force =     0.00000002    0.00023602    0.04758176
     atom   17 type  1   force =    -0.00000000    0.00001824   -0.04960168
     atom   18 type  1   force =     0.00000005   -0.00002294   -0.04961789
     atom   19 type  2   force =     0.00000000   -0.00023710    0.04758600
     atom   20 type  2   force =     0.00000001    0.00024177    0.04758870
     atom   21 type  1   force =    -0.00000000    0.00000608   -0.04961358
     atom   22 type  1   force =     0.00000005   -0.00002430   -0.04959188
     atom   23 type  2   force =    -0.00000000   -0.00024129    0.04758694
     atom   24 type  2   force =     0.00000001    0.00023993    0.04757832
     The core correction contribution to forces
     atom    1 type  1   force =     0.00000000    0.00000813    0.00027933
     atom    2 type  1   force =    -0.00000007   -0.00000792    0.00027991
     atom    3 type  2   force =     0.00000000   -0.00000275   -0.00007233
     atom    4 type  2   force =    -0.00000001    0.00000275   -0.00007231
     atom    5 type  1   force =     0.00000000    0.00000867    0.00027930
     atom    6 type  1   force =    -0.00000007   -0.00000801    0.00028023
     atom    7 type  2   force =     0.00000000   -0.00000273   -0.00007233
     atom    8 type  2   force =    -0.00000001    0.00000276   -0.00007230
     atom    9 type  1   force =     0.00000012    0.00000783    0.00027932
     atom   10 type  1   force =    -0.00000012   -0.00000819    0.00027974
     atom   11 type  2   force =    -0.00000001   -0.00000286   -0.00007235
     atom   12 type  2   force =     0.00000001    0.00000281   -0.00007231
     atom   13 type  1   force =     0.00000012    0.00000725    0.00027977
     atom   14 type  1   force =    -0.00000012   -0.00000778    0.00027938
     atom   15 type  2   force =    -0.00000001   -0.00000286   -0.00007228
     atom   16 type  2   force =     0.00000001    0.00000273   -0.00007228
     atom   17 type  1   force =     0.00000007    0.00000818    0.00027948
     atom   18 type  1   force =    -0.00000000   -0.00000800    0.00028012
     atom   19 type  2   force =     0.00000001   -0.00000275   -0.00007241
     atom   20 type  2   force =    -0.00000000    0.00000282   -0.00007225
     atom   21 type  1   force =     0.00000007    0.00000828    0.00027964
     atom   22 type  1   force =    -0.00000000   -0.00000821    0.00027960
     atom   23 type  2   force =     0.00000001   -0.00000280   -0.00007221
     atom   24 type  2   force =    -0.00000000    0.00000294   -0.00007232
     The Hubbard contrib.    to forces
     atom    1 type  1   force =     0.00000000    0.00000000    0.00000000
     atom    2 type  1   force =     0.00000000    0.00000000    0.00000000
     atom    3 type  2   force =     0.00000000    0.00000000    0.00000000
     atom    4 type  2   force =     0.00000000    0.00000000    0.00000000
     atom    5 type  1   force =     0.00000000    0.00000000    0.00000000
     atom    6 type  1   force =     0.00000000    0.00000000    0.00000000
     atom    7 type  2   force =     0.00000000    0.00000000    0.00000000
     atom    8 type  2   force =     0.00000000    0.00000000    0.00000000
     atom    9 type  1   force =     0.00000000    0.00000000    0.00000000
     atom   10 type  1   force =     0.00000000    0.00000000    0.00000000
     atom   11 type  2   force =     0.00000000    0.00000000    0.00000000
     atom   12 type  2   force =     0.00000000    0.00000000    0.00000000
     atom   13 type  1   force =     0.00000000    0.00000000    0.00000000
     atom   14 type  1   force =     0.00000000    0.00000000    0.00000000
     atom   15 type  2   force =     0.00000000    0.00000000    0.00000000
     atom   16 type  2   force =     0.00000000    0.00000000    0.00000000
     atom   17 type  1   force =     0.00000000    0.00000000    0.00000000
     atom   18 type  1   force =     0.00000000    0.00000000    0.00000000
     atom   19 type  2   force =     0.00000000    0.00000000    0.00000000
     atom   20 type  2   force =     0.00000000    0.00000000    0.00000000
     atom   21 type  1   force =     0.00000000    0.00000000    0.00000000
     atom   22 type  1   force =     0.00000000    0.00000000    0.00000000
     atom   23 type  2   force =     0.00000000    0.00000000    0.00000000
     atom   24 type  2   force =     0.00000000    0.00000000    0.00000000
     The SCF correction term to forces
     atom    1 type  1   force =     0.00000000   -0.00000410   -0.00000895
     atom    2 type  1   force =    -0.00000000    0.00000290   -0.00000490
     atom    3 type  2   force =     0.00000000    0.00000190   -0.00000137
     atom    4 type  2   force =     0.00000000    0.00000150   -0.00000283
     atom    5 type  1   force =     0.00000000    0.00001062   -0.00000396
     atom    6 type  1   force =     0.00000000   -0.00000545    0.00000665
     atom    7 type  2   force =     0.00000000   -0.00000058   -0.00000514
     atom    8 type  2   force =    -0.00000000   -0.00000277    0.00000395
     atom    9 type  1   force =     0.00000000    0.00001005   -0.00001067
     atom   10 type  1   force =    -0.00000000   -0.00000873    0.00001137
     atom   11 type  2   force =     0.00000000   -0.00000237   -0.00000680
     atom   12 type  2   force =    -0.00000000    0.00000332   -0.00000179
     atom   13 type  1   force =     0.00000000   -0.00002859    0.00001137
     atom   14 type  1   force =    -0.00000000   -0.00000635   -0.00002680
     atom   15 type  2   force =     0.00000000   -0.00000218    0.00000157
     atom   16 type  2   force =    -0.00000000   -0.00000241    0.00000447
     atom   17 type  1   force =    -0.00000000   -0.00000161   -0.00001139
     atom   18 type  1   force =    -0.00000000    0.00000063    0.00000814
     atom   19 type  2   force =    -0.00000000    0.00000080   -0.00000887
     atom   20 type  2   force =    -0.00000000   -0.00000252   -0.00000222
     atom   21 type  1   force =    -0.00000000    0.00001705    0.00000997
     atom   22 type  1   force =    -0.00000000    0.00000423   -0.00001275
     atom   23 type  2   force =    -0.00000000    0.00000224    0.00000181
     atom   24 type  2   force =    -0.00000000    0.00000737    0.00000492

     Total force =     0.000544     Total SCF correction =     0.000060
     SCF correction compared to forces is large: reduce conv_thr to get better values

     General routines

     Parallel routines

   This run was terminated on:   2:36:24   1Sep2025

   JOB DONE.
Note: The following floating-point exceptions are signalling: IEEE_UNDERFLOW_FLAG IEEE_DENORMAL
Note: The following floating-point exceptions are signalling: IEEE_UNDERFLOW_FLAG IEEE_DENORMAL
Note: The following floating-point exceptions are signalling: IEEE_UNDERFLOW_FLAG IEEE_DENORMAL
Note: The following floating-point exceptions are signalling: IEEE_UNDERFLOW_FLAG IEEE_DENORMAL
Note: The following floating-point exceptions are signalling: IEEE_UNDERFLOW_FLAG IEEE_DENORMAL
Note: The following floating-point exceptions are signalling: IEEE_UNDERFLOW_FLAG IEEE_DENORMAL
Note: The following floating-point exceptions are signalling: IEEE_UNDERFLOW_FLAG IEEE_DENORMAL
Note: The following floating-point exceptions are signalling: IEEE_UNDERFLOW_FLAG IEEE_DENORMAL
Note: The following floating-point exceptions are signalling: IEEE_UNDERFLOW_FLAG IEEE_DENORMAL
Note: The following floating-point exceptions are signalling: IEEE_UNDERFLOW_FLAG IEEE_DENORMAL
Note: The following floating-point exceptions are signalling: IEEE_UNDERFLOW_FLAG IEEE_DENORMAL
Note: The following floating-point exceptions are signalling: IEEE_UNDERFLOW_FLAG IEEE_DENORMAL
Note: The following floating-point exceptions are signalling: IEEE_UNDERFLOW_FLAG IEEE_DENORMAL
Note: The following floating-point exceptions are signalling: IEEE_UNDERFLOW_FLAG IEEE_DENORMAL
Note: The following floating-point exceptions are signalling: IEEE_UNDERFLOW_FLAG IEEE_DENORMAL
Note: The following floating-point exceptions are signalling: IEEE_UNDERFLOW_FLAG IEEE_DENORMAL
Note: The following floating-point exceptions are signalling: IEEE_UNDERFLOW_FLAG IEEE_DENORMAL
Note: The following floating-point exceptions are signalling: IEEE_UNDERFLOW_FLAG IEEE_DENORMAL
Note: The following floating-point exceptions are signalling: IEEE_UNDERFLOW_FLAG IEEE_DENORMAL
Note: The following floating-point exceptions are signalling: IEEE_UNDERFLOW_FLAG IEEE_DENORMAL
Note: The following floating-point exceptions are signalling: IEEE_UNDERFLOW_FLAG IEEE_DENORMAL
Note: The following floating-point exceptions are signalling: IEEE_UNDERFLOW_FLAG IEEE_DENORMAL
Note: The following floating-point exceptions are signalling: IEEE_UNDERFLOW_FLAG IEEE_DENORMAL
Note: The following floating-point exceptions are signalling: IEEE_UNDERFLOW_FLAG IEEE_DENORMAL
Note: The following floating-point exceptions are signalling: IEEE_UNDERFLOW_FLAG IEEE_DENORMAL
Note: The following floating-point exceptions are signalling: IEEE_UNDERFLOW_FLAG IEEE_DENORMAL
Note: The following floating-point exceptions are signalling: IEEE_UNDERFLOW_FLAG IEEE_DENORMAL
Note: The following floating-point exceptions are signalling: IEEE_UNDERFLOW_FLAG IEEE_DENORMAL
Note: The following floating-point exceptions are signalling: IEEE_UNDERFLOW_FLAG IEEE_DENORMAL
Note: The following floating-point exceptions are signalling: IEEE_UNDERFLOW_FLAG IEEE_DENORMAL
Note: The following floating-point exceptions are signalling: IEEE_UNDERFLOW_FLAG IEEE_DENORMAL
Note: The following floating-point exceptions are signalling: IEEE_UNDERFLOW_FLAG IEEE_DENORMAL