     Program PWSCF v.7.0 starts on 31Aug2025 at  4:40:44

     K-points division:     npool     =       8
     R & G space division:  proc/nbgrp/npool/nimage =       4

     Reading input from /home/jvc/QEspresso7.2/ZnO_database/scripts/cell132.in/ZnO-3.34-1.61-132.in
Warning: card &CELL ignored
Warning: card / ignored
Warning: card &FCP ignored
Warning: card / ignored
Warning: card &RISM ignored
Warning: card / ignored

     Current dimensions of program PWSCF are:
     Max number of different atomic species (ntypx) = 10
     Max number of k-points (npk) =  40000
     Max angular momentum in pseudopotentials (lmaxx) =  4
     file Zn.upf: wavefunction(s)  3D renormalized
     Found identity + (  0.0000  0.0000  0.5000) symmetry
     This is a supercell, fractional translations are disabled
     Message from routine setup:
     using ibrav=0 with symmetry is DISCOURAGED, use correct ibrav instead

     Using Slab Decomposition

     bravais-lattice index     =            0
     lattice parameter (alat)  =       6.3024  a.u.
     unit-cell volume          =    2099.9364 (a.u.)^3
     number of atoms/cell      =           24
     number of atomic types    =            2
     number of electrons       =       216.00
     number of Kohn-Sham states=          108
     kinetic-energy cutoff     =      50.0000  Ry
     charge density cutoff     =     400.0000  Ry
     scf convergence threshold =      1.0E-08
     mixing beta               =       0.3000
     number of iterations used =            8  plain     mixing
     Exchange-correlation= PBE
                           (   1   4   3   4   0   0   0)

     celldm(1)=   6.302431  celldm(2)=   0.000000  celldm(3)=   0.000000
     celldm(4)=   0.000000  celldm(5)=   0.000000  celldm(6)=   0.000000

     crystal axes: (cart. coord. in units of alat)
               a(1) = (   1.000000   0.000000   0.000000 )
               a(2) = (  -1.500000   2.598076   0.000000 )
               a(3) = (   0.000000   0.000000   3.228717 )

     reciprocal axes: (cart. coord. in units 2 pi/alat)
               b(1) = (  1.000000  0.577350 -0.000000 )
               b(2) = (  0.000000  0.384900  0.000000 )
               b(3) = (  0.000000 -0.000000  0.309721 )

     PseudoPot. # 1 for Zn read from file:
     /home/jvc/QEspresso7.2/ZnO_database/pseudos/Zn.upf
     MD5 check sum: 7f56cabf9682ed8c977c2f7d0c5985c5
     Pseudo is Ultrasoft + core correction, Zval = 12.0
     Generated using &quot;atomic&quot; code by A. Dal Corso  v.6.2.2
     Using radial grid of 1201 points,  6 beta functions with:
                l(1) =   0
                l(2) =   0
                l(3) =   1
                l(4) =   1
                l(5) =   2
                l(6) =   2
     Q(r) pseudized with 0 coefficients

     PseudoPot. # 2 for O  read from file:
     /home/jvc/QEspresso7.2/ZnO_database/pseudos/O.upf
     MD5 check sum: 91400c9766925bcf19f520983a725ff0
     Pseudo is Ultrasoft + core correction, Zval =  6.0
     Generated using &quot;atomic&quot; code by A. Dal Corso  v.6.3MaX
     Using radial grid of 1095 points,  4 beta functions with:
                l(1) =   0
                l(2) =   0
                l(3) =   1
                l(4) =   1
     Q(r) pseudized with 0 coefficients

     atomic species   valence    mass     pseudopotential
        Zn            12.00    65.38000     Zn( 1.00)
        O              6.00    15.99900     O ( 1.00)

      2 Sym. Ops. (no inversion) found

                                    s                        frac. trans.

      isym =  1     identity

 cryst.   s( 1) = (     1          0          0      )
                  (     0          1          0      )
                  (     0          0          1      )

 cart.    s( 1) = (  1.0000000  0.0000000  0.0000000 )
                  (  0.0000000  1.0000000  0.0000000 )
                  (  0.0000000  0.0000000  1.0000000 )

      isym =  2     inv. 180 deg rotation - cart. axis [1,0,0]

 cryst.   s( 2) = (    -1          0          0      )
                  (     3          1          0      )
                  (     0          0          1      )

 cart.    s( 2) = ( -1.0000000  0.0000000  0.0000000 )
                  (  0.0000000  1.0000000  0.0000000 )
                  (  0.0000000  0.0000000  1.0000000 )

   Cartesian axes

     site n.     atom                  positions (alat units)
         1           Zn  tau(   1) = (   0.5000000   0.2886751   0.8082020  )
         2           Zn  tau(   2) = (   0.0000000   0.5773503   0.0010228  )
         3           O   tau(   3) = (   0.5000000   0.2886751   1.4201130  )
         4           O   tau(   4) = (   0.0000000   0.5773503   0.6129338  )
         5           Zn  tau(   5) = (   0.5000000   0.2886751   2.4225604  )
         6           Zn  tau(   6) = (   0.0000000   0.5773503   1.6153812  )
         7           O   tau(   7) = (   0.5000000   0.2886751   3.0344713  )
         8           O   tau(   8) = (   0.0000000   0.5773503   2.2272921  )
         9           Zn  tau(   9) = (   0.0000000   1.1547005   0.8082020  )
        10           Zn  tau(  10) = (  -0.5000000   1.4433757   0.0010228  )
        11           O   tau(  11) = (   0.0000000   1.1547005   1.4201130  )
        12           O   tau(  12) = (  -0.5000000   1.4433757   0.6129338  )
        13           Zn  tau(  13) = (   0.0000000   1.1547005   2.4225604  )
        14           Zn  tau(  14) = (  -0.5000000   1.4433757   1.6153812  )
        15           O   tau(  15) = (   0.0000000   1.1547005   3.0344713  )
        16           O   tau(  16) = (  -0.5000000   1.4433757   2.2272921  )
        17           Zn  tau(  17) = (  -0.5000000   2.0207259   0.8082020  )
        18           Zn  tau(  18) = (  -1.0000000   2.3094011   0.0010228  )
        19           O   tau(  19) = (  -0.5000000   2.0207259   1.4201130  )
        20           O   tau(  20) = (  -1.0000000   2.3094011   0.6129338  )
        21           Zn  tau(  21) = (  -0.5000000   2.0207259   2.4225604  )
        22           Zn  tau(  22) = (  -1.0000000   2.3094011   1.6153812  )
        23           O   tau(  23) = (  -0.5000000   2.0207259   3.0344713  )
        24           O   tau(  24) = (  -1.0000000   2.3094011   2.2272921  )

   Crystallographic axes

     site n.     atom                  positions (cryst. coord.)
         1           Zn  tau(   1) = (  0.6666667  0.1111111  0.2503168  )
         2           Zn  tau(   2) = (  0.3333333  0.2222222  0.0003168  )
         3           O   tau(   3) = (  0.6666667  0.1111111  0.4398382  )
         4           O   tau(   4) = (  0.3333333  0.2222222  0.1898382  )
         5           Zn  tau(   5) = (  0.6666667  0.1111111  0.7503168  )
         6           Zn  tau(   6) = (  0.3333333  0.2222222  0.5003168  )
         7           O   tau(   7) = (  0.6666667  0.1111111  0.9398382  )
         8           O   tau(   8) = (  0.3333333  0.2222222  0.6898382  )
         9           Zn  tau(   9) = (  0.6666667  0.4444444  0.2503168  )
        10           Zn  tau(  10) = (  0.3333333  0.5555556  0.0003168  )
        11           O   tau(  11) = (  0.6666667  0.4444444  0.4398382  )
        12           O   tau(  12) = (  0.3333333  0.5555556  0.1898382  )
        13           Zn  tau(  13) = (  0.6666667  0.4444444  0.7503168  )
        14           Zn  tau(  14) = (  0.3333333  0.5555556  0.5003168  )
        15           O   tau(  15) = (  0.6666667  0.4444444  0.9398382  )
        16           O   tau(  16) = (  0.3333333  0.5555556  0.6898382  )
        17           Zn  tau(  17) = (  0.6666667  0.7777778  0.2503168  )
        18           Zn  tau(  18) = (  0.3333333  0.8888889  0.0003168  )
        19           O   tau(  19) = (  0.6666667  0.7777778  0.4398382  )
        20           O   tau(  20) = (  0.3333333  0.8888889  0.1898382  )
        21           Zn  tau(  21) = (  0.6666667  0.7777778  0.7503168  )
        22           Zn  tau(  22) = (  0.3333333  0.8888889  0.5003168  )
        23           O   tau(  23) = (  0.6666667  0.7777778  0.9398382  )
        24           O   tau(  24) = (  0.3333333  0.8888889  0.6898382  )

     number of k points=    68
                       cart. coord. in units 2pi/alat
        k(    1) = (   0.0000000   0.0000000   0.0000000), wk =   0.0092593
        k(    2) = (   0.0000000   0.0000000   0.0516201), wk =   0.0185185
        k(    3) = (   0.0000000   0.0000000   0.1032402), wk =   0.0185185
        k(    4) = (   0.0000000   0.0000000  -0.1548603), wk =   0.0092593
        k(    5) = (   0.0000000   0.0641500   0.0000000), wk =   0.0185185
        k(    6) = (   0.0000000   0.0641500   0.0516201), wk =   0.0185185
        k(    7) = (   0.0000000   0.0641500   0.1032402), wk =   0.0185185
        k(    8) = (   0.0000000   0.0641500  -0.1548603), wk =   0.0185185
        k(    9) = (   0.0000000   0.1283001   0.0000000), wk =   0.0185185
        k(   10) = (   0.0000000   0.1283001   0.0516201), wk =   0.0185185
        k(   11) = (   0.0000000   0.1283001   0.1032402), wk =   0.0185185
        k(   12) = (   0.0000000   0.1283001  -0.1548603), wk =   0.0185185
        k(   13) = (   0.0000000  -0.1924501   0.0000000), wk =   0.0092593
        k(   14) = (   0.0000000  -0.1924501   0.0516201), wk =   0.0185185
        k(   15) = (   0.0000000  -0.1924501   0.1032402), wk =   0.0185185
        k(   16) = (   0.0000000  -0.1924501  -0.1548603), wk =   0.0092593
        k(   17) = (   0.1666667   0.0962250   0.0000000), wk =   0.0370370
        k(   18) = (   0.1666667   0.0962250   0.0516201), wk =   0.0370370
        k(   19) = (   0.1666667   0.0962250   0.1032402), wk =   0.0370370
        k(   20) = (   0.1666667   0.0962250  -0.1548603), wk =   0.0370370
        k(   21) = (   0.1666667   0.1603751   0.0000000), wk =   0.0370370
        k(   22) = (   0.1666667   0.1603751   0.0516201), wk =   0.0370370
        k(   23) = (   0.1666667   0.1603751   0.1032402), wk =   0.0370370
        k(   24) = (   0.1666667   0.1603751  -0.1548603), wk =   0.0370370
        k(   25) = (   0.1666667  -0.0320750   0.0000000), wk =   0.0370370
        k(   26) = (   0.1666667  -0.0320750   0.0516201), wk =   0.0370370
        k(   27) = (   0.1666667  -0.0320750   0.1032402), wk =   0.0370370
        k(   28) = (   0.1666667  -0.0320750  -0.1548603), wk =   0.0370370
        k(   29) = (   0.3333333   0.1924501   0.0000000), wk =   0.0185185
        k(   30) = (   0.3333333   0.1924501   0.0516201), wk =   0.0370370
        k(   31) = (   0.3333333   0.1924501   0.1032402), wk =   0.0370370
        k(   32) = (   0.3333333   0.1924501  -0.1548603), wk =   0.0185185
        k(   33) = (   0.3333333   0.2566001   0.0000000), wk =   0.0370370
        k(   34) = (   0.3333333   0.2566001   0.0516201), wk =   0.0370370
        k(   35) = (   0.3333333   0.2566001   0.1032402), wk =   0.0370370
        k(   36) = (   0.3333333   0.2566001  -0.1548603), wk =   0.0370370
        k(   37) = (   0.3333333   0.3207501   0.0000000), wk =   0.0370370
        k(   38) = (   0.3333333   0.3207501   0.0516201), wk =   0.0370370
        k(   39) = (   0.3333333   0.3207501   0.1032402), wk =   0.0370370
[...]
     estimated scf accuracy    <          6.6E-09 Ry

     The total energy is the sum of the following terms:
     one-electron contribution =    -967.73372076 Ry
     hartree contribution      =     724.22751767 Ry
     xc contribution           =    -656.56853572 Ry
     ewald contribution        =   -1269.72711683 Ry

     convergence has been achieved in  27 iterations

     Forces acting on atoms (cartesian axes, Ry/au):

     atom    1 type  1   force =     0.00000000   -0.00000566   -0.00004560
     atom    2 type  1   force =     0.00000000    0.00001268   -0.00004552
     atom    3 type  2   force =     0.00000000    0.00000305    0.00004925
     atom    4 type  2   force =     0.00000000   -0.00000383    0.00004663
     atom    5 type  1   force =     0.00000000   -0.00000024   -0.00004979
     atom    6 type  1   force =     0.00000000    0.00001382   -0.00004898
     atom    7 type  2   force =     0.00000000    0.00000296    0.00004514
     atom    8 type  2   force =     0.00000000   -0.00000396    0.00004808
     atom    9 type  1   force =     0.00000000   -0.00000731   -0.00003728
     atom   10 type  1   force =     0.00000000    0.00000355   -0.00004314
     atom   11 type  2   force =     0.00000000    0.00000286    0.00004887
     atom   12 type  2   force =     0.00000000   -0.00000376    0.00004651
     atom   13 type  1   force =     0.00000000   -0.00000932   -0.00005339
     atom   14 type  1   force =     0.00000000    0.00000073   -0.00005434
     atom   15 type  2   force =     0.00000000    0.00000318    0.00004556
     atom   16 type  2   force =     0.00000000   -0.00000343    0.00004827
     atom   17 type  1   force =     0.00000000   -0.00000562   -0.00004224
     atom   18 type  1   force =     0.00000000    0.00000651   -0.00003970
     atom   19 type  2   force =     0.00000000    0.00000347    0.00004900
     atom   20 type  2   force =     0.00000000   -0.00000381    0.00004586
     atom   21 type  1   force =     0.00000000   -0.00000816   -0.00005346
     atom   22 type  1   force =     0.00000000    0.00000353   -0.00005258
     atom   23 type  2   force =     0.00000000    0.00000285    0.00004513
     atom   24 type  2   force =     0.00000000   -0.00000407    0.00004775
     The non-local contrib.  to forces
     atom    1 type  1   force =     0.00000000    0.00000668   -0.00462938
     atom    2 type  1   force =     0.00000000   -0.00000472   -0.00462501
     atom    3 type  2   force =     0.00000000    0.00022716    0.00595031
     atom    4 type  2   force =     0.00000000   -0.00022990    0.00594706
     atom    5 type  1   force =     0.00000000    0.00001037   -0.00463211
     atom    6 type  1   force =     0.00000000   -0.00000205   -0.00463633
     atom    7 type  2   force =     0.00000000    0.00022484    0.00594441
     atom    8 type  2   force =     0.00000000   -0.00023055    0.00594947
     atom    9 type  1   force =     0.00000000    0.00000615   -0.00462483
     atom   10 type  1   force =     0.00000000   -0.00000792   -0.00462527
     atom   11 type  2   force =     0.00000000    0.00022501    0.00595055
     atom   12 type  2   force =     0.00000000   -0.00022645    0.00594318
     atom   13 type  1   force =     0.00000000    0.00000376   -0.00463575
     atom   14 type  1   force =     0.00000000   -0.00000841   -0.00463849
     atom   15 type  2   force =     0.00000000    0.00022981    0.00594651
     atom   16 type  2   force =     0.00000000   -0.00022327    0.00595206
     atom   17 type  1   force =     0.00000000    0.00000633   -0.00462624
     atom   18 type  1   force =     0.00000000   -0.00000604   -0.00462228
     atom   19 type  2   force =     0.00000000    0.00023107    0.00595139
     atom   20 type  2   force =     0.00000000   -0.00022610    0.00594219
     atom   21 type  1   force =     0.00000000    0.00000473   -0.00463408
     atom   22 type  1   force =     0.00000000   -0.00000808   -0.00463799
     atom   23 type  2   force =     0.00000000    0.00022864    0.00594380
     atom   24 type  2   force =     0.00000000   -0.00022798    0.00595081
     The ionic contribution  to forces
     atom    1 type  1   force =    -0.00000000    0.00000001    0.06028145
     atom    2 type  1   force =     0.00000000    0.00000001    0.06028145
     atom    3 type  2   force =    -0.00000000    0.00000000   -0.06028145
     atom    4 type  2   force =     0.00000000    0.00000000   -0.06028145
     atom    5 type  1   force =    -0.00000000    0.00000001    0.06028145
     atom    6 type  1   force =     0.00000000    0.00000001    0.06028145
     atom    7 type  2   force =    -0.00000000    0.00000000   -0.06028145
     atom    8 type  2   force =     0.00000000    0.00000000   -0.06028145
     atom    9 type  1   force =    -0.00000001    0.00000001    0.06028145
     atom   10 type  1   force =     0.00000001   -0.00000001    0.06028145
     atom   11 type  2   force =    -0.00000001    0.00000000   -0.06028145
     atom   12 type  2   force =     0.00000001   -0.00000000   -0.06028145
     atom   13 type  1   force =    -0.00000001    0.00000001    0.06028145
     atom   14 type  1   force =     0.00000001   -0.00000001    0.06028145
     atom   15 type  2   force =    -0.00000001    0.00000000   -0.06028145
     atom   16 type  2   force =     0.00000001   -0.00000000   -0.06028145
     atom   17 type  1   force =    -0.00000000   -0.00000001    0.06028145
     atom   18 type  1   force =     0.00000000   -0.00000001    0.06028145
     atom   19 type  2   force =    -0.00000000   -0.00000000   -0.06028145
     atom   20 type  2   force =     0.00000000   -0.00000000   -0.06028145
     atom   21 type  1   force =    -0.00000000   -0.00000001    0.06028145
     atom   22 type  1   force =     0.00000000   -0.00000001    0.06028145
     atom   23 type  2   force =    -0.00000000   -0.00000000   -0.06028145
     atom   24 type  2   force =     0.00000000   -0.00000000   -0.06028145
     The local contribution  to forces
     atom    1 type  1   force =    -0.00000004   -0.00001619   -0.05609315
     atom    2 type  1   force =     0.00000000    0.00001470   -0.05610396
     atom    3 type  2   force =    -0.00000001   -0.00022120    0.05444647
     atom    4 type  2   force =    -0.00000000    0.00021581    0.05444846
     atom    5 type  1   force =    -0.00000004   -0.00002684   -0.05610031
     atom    6 type  1   force =     0.00000000    0.00000359   -0.05608979
     atom    7 type  2   force =    -0.00000001   -0.00022390    0.05445176
     atom    8 type  2   force =    -0.00000000    0.00022020    0.05444666
     atom    9 type  1   force =    -0.00000009   -0.00001492   -0.05610956
     atom   10 type  1   force =     0.00000009    0.00001997   -0.05610413
     atom   11 type  2   force =    -0.00000002   -0.00022280    0.05444955
     atom   12 type  2   force =     0.00000002    0.00022316    0.05444665
     atom   13 type  1   force =    -0.00000009   -0.00001499   -0.05608954
     atom   14 type  1   force =     0.00000009    0.00002668   -0.05608477
     atom   15 type  2   force =    -0.00000002   -0.00022023    0.05445138
     atom   16 type  2   force =     0.00000002    0.00022201    0.05444883
     atom   17 type  1   force =     0.00000000   -0.00002214   -0.05610008
     atom   18 type  1   force =     0.00000004    0.00001576   -0.05611231
     atom   19 type  2   force =     0.00000000   -0.00022103    0.05445024
     atom   20 type  2   force =     0.00000001    0.00022206    0.05445139
     atom   21 type  1   force =     0.00000000   -0.00001168   -0.05609505
     atom   22 type  1   force =     0.00000004    0.00002237   -0.05608569
     atom   23 type  2   force =    -0.00000000   -0.00021994    0.05445447
     atom   24 type  2   force =     0.00000001    0.00021869    0.05444984
     The core correction contribution to forces
     atom    1 type  1   force =    -0.00000006    0.00000689    0.00040418
     atom    2 type  1   force =     0.00000003   -0.00000723    0.00040134
     atom    3 type  2   force =    -0.00000000   -0.00000256   -0.00006738
     atom    4 type  2   force =    -0.00000000    0.00000260   -0.00006630
     atom    5 type  1   force =    -0.00000006    0.00000713    0.00040266
     atom    6 type  1   force =     0.00000002   -0.00000665    0.00040557
     atom    7 type  2   force =    -0.00000000   -0.00000253   -0.00006716
     atom    8 type  2   force =    -0.00000000    0.00000262   -0.00006826
     atom    9 type  1   force =     0.00000001    0.00000679    0.00040465
     atom   10 type  1   force =    -0.00000001   -0.00000684    0.00040131
     atom   11 type  2   force =     0.00000000   -0.00000257   -0.00006737
     atom   12 type  2   force =    -0.00000000    0.00000258   -0.00006625
     atom   13 type  1   force =     0.00000001    0.00000701    0.00040238
     atom   14 type  1   force =    -0.00000001   -0.00000713    0.00040557
     atom   15 type  2   force =     0.00000000   -0.00000263   -0.00006718
     atom   16 type  2   force =    -0.00000000    0.00000253   -0.00006829
     atom   17 type  1   force =    -0.00000002    0.00000721    0.00040428
     atom   18 type  1   force =     0.00000006   -0.00000695    0.00040147
     atom   19 type  2   force =     0.00000000   -0.00000263   -0.00006738
     atom   20 type  2   force =     0.00000000    0.00000255   -0.00006623
     atom   21 type  1   force =    -0.00000003    0.00000675    0.00040257
     atom   22 type  1   force =     0.00000006   -0.00000713    0.00040555
     atom   23 type  2   force =     0.00000000   -0.00000259   -0.00006714
     atom   24 type  2   force =     0.00000000    0.00000257   -0.00006827
     The Hubbard contrib.    to forces
     atom    1 type  1   force =     0.00000000    0.00000000    0.00000000
     atom    2 type  1   force =     0.00000000    0.00000000    0.00000000
     atom    3 type  2   force =     0.00000000    0.00000000    0.00000000
     atom    4 type  2   force =     0.00000000    0.00000000    0.00000000
     atom    5 type  1   force =     0.00000000    0.00000000    0.00000000
     atom    6 type  1   force =     0.00000000    0.00000000    0.00000000
     atom    7 type  2   force =     0.00000000    0.00000000    0.00000000
     atom    8 type  2   force =     0.00000000    0.00000000    0.00000000
     atom    9 type  1   force =     0.00000000    0.00000000    0.00000000
     atom   10 type  1   force =     0.00000000    0.00000000    0.00000000
     atom   11 type  2   force =     0.00000000    0.00000000    0.00000000
     atom   12 type  2   force =     0.00000000    0.00000000    0.00000000
     atom   13 type  1   force =     0.00000000    0.00000000    0.00000000
     atom   14 type  1   force =     0.00000000    0.00000000    0.00000000
     atom   15 type  2   force =     0.00000000    0.00000000    0.00000000
     atom   16 type  2   force =     0.00000000    0.00000000    0.00000000
     atom   17 type  1   force =     0.00000000    0.00000000    0.00000000
     atom   18 type  1   force =     0.00000000    0.00000000    0.00000000
     atom   19 type  2   force =     0.00000000    0.00000000    0.00000000
     atom   20 type  2   force =     0.00000000    0.00000000    0.00000000
     atom   21 type  1   force =     0.00000000    0.00000000    0.00000000
     atom   22 type  1   force =     0.00000000    0.00000000    0.00000000
     atom   23 type  2   force =     0.00000000    0.00000000    0.00000000
     atom   24 type  2   force =     0.00000000    0.00000000    0.00000000
     The SCF correction term to forces
     atom    1 type  1   force =     0.00000000   -0.00000262   -0.00001081
     atom    2 type  1   force =    -0.00000000    0.00001037   -0.00000146
     atom    3 type  2   force =     0.00000000    0.00000008   -0.00000082
     atom    4 type  2   force =     0.00000000    0.00000810   -0.00000325
     atom    5 type  1   force =     0.00000000    0.00000952   -0.00000361
     atom    6 type  1   force =    -0.00000000    0.00001935   -0.00001201
     atom    7 type  2   force =     0.00000000    0.00000499   -0.00000454
     atom    8 type  2   force =     0.00000000    0.00000420   -0.00000046
     atom    9 type  1   force =     0.00000000   -0.00000491    0.00000890
     atom   10 type  1   force =    -0.00000000   -0.00000122    0.00000137
     atom   11 type  2   force =     0.00000000    0.00000365   -0.00000454
     atom   12 type  2   force =    -0.00000000   -0.00000260    0.00000226
     atom   13 type  1   force =     0.00000000   -0.00000467   -0.00001406
     atom   14 type  1   force =    -0.00000000   -0.00000997   -0.00002022
     atom   15 type  2   force =     0.00000000   -0.00000335   -0.00000582
     atom   16 type  2   force =    -0.00000000   -0.00000427   -0.00000500
     atom   17 type  1   force =     0.00000000    0.00000343   -0.00000377
     atom   18 type  1   force =    -0.00000000    0.00000419    0.00000984
     atom   19 type  2   force =    -0.00000000   -0.00000350   -0.00000593
     atom   20 type  2   force =    -0.00000000   -0.00000189   -0.00000216
     atom   21 type  1   force =     0.00000000   -0.00000751   -0.00001046
     atom   22 type  1   force =    -0.00000000   -0.00000318   -0.00001803
     atom   23 type  2   force =    -0.00000000   -0.00000281   -0.00000668
     atom   24 type  2   force =    -0.00000000    0.00000310   -0.00000530

     Total force =     0.000234     Total SCF correction =     0.000052
     SCF correction compared to forces is large: reduce conv_thr to get better values

     General routines

     Parallel routines

   This run was terminated on:   5: 7:22  31Aug2025

   JOB DONE.
Note: The following floating-point exceptions are signalling: IEEE_UNDERFLOW_FLAG IEEE_DENORMAL
Note: The following floating-point exceptions are signalling: IEEE_UNDERFLOW_FLAG IEEE_DENORMAL
Note: The following floating-point exceptions are signalling: IEEE_UNDERFLOW_FLAG IEEE_DENORMAL
Note: The following floating-point exceptions are signalling: IEEE_UNDERFLOW_FLAG IEEE_DENORMAL
Note: The following floating-point exceptions are signalling: IEEE_UNDERFLOW_FLAG IEEE_DENORMAL
Note: The following floating-point exceptions are signalling: IEEE_UNDERFLOW_FLAG IEEE_DENORMAL
Note: The following floating-point exceptions are signalling: IEEE_UNDERFLOW_FLAG IEEE_DENORMAL
Note: The following floating-point exceptions are signalling: IEEE_UNDERFLOW_FLAG IEEE_DENORMAL
Note: The following floating-point exceptions are signalling: IEEE_UNDERFLOW_FLAG IEEE_DENORMAL
Note: The following floating-point exceptions are signalling: IEEE_UNDERFLOW_FLAG IEEE_DENORMAL
Note: The following floating-point exceptions are signalling: IEEE_UNDERFLOW_FLAG IEEE_DENORMAL
Note: The following floating-point exceptions are signalling: IEEE_UNDERFLOW_FLAG IEEE_DENORMAL
Note: The following floating-point exceptions are signalling: IEEE_UNDERFLOW_FLAG IEEE_DENORMAL
Note: The following floating-point exceptions are signalling: IEEE_UNDERFLOW_FLAG IEEE_DENORMAL
Note: The following floating-point exceptions are signalling: IEEE_UNDERFLOW_FLAG IEEE_DENORMAL
Note: The following floating-point exceptions are signalling: IEEE_UNDERFLOW_FLAG IEEE_DENORMAL
Note: The following floating-point exceptions are signalling: IEEE_UNDERFLOW_FLAG IEEE_DENORMAL
Note: The following floating-point exceptions are signalling: IEEE_UNDERFLOW_FLAG IEEE_DENORMAL
Note: The following floating-point exceptions are signalling: IEEE_UNDERFLOW_FLAG IEEE_DENORMAL
Note: The following floating-point exceptions are signalling: IEEE_UNDERFLOW_FLAG IEEE_DENORMAL
Note: The following floating-point exceptions are signalling: IEEE_UNDERFLOW_FLAG IEEE_DENORMAL
Note: The following floating-point exceptions are signalling: IEEE_UNDERFLOW_FLAG IEEE_DENORMAL
Note: The following floating-point exceptions are signalling: IEEE_UNDERFLOW_FLAG IEEE_DENORMAL
Note: The following floating-point exceptions are signalling: IEEE_UNDERFLOW_FLAG IEEE_DENORMAL
Note: The following floating-point exceptions are signalling: IEEE_UNDERFLOW_FLAG IEEE_DENORMAL
Note: The following floating-point exceptions are signalling: IEEE_UNDERFLOW_FLAG IEEE_DENORMAL
Note: The following floating-point exceptions are signalling: IEEE_UNDERFLOW_FLAG IEEE_DENORMAL
Note: The following floating-point exceptions are signalling: IEEE_UNDERFLOW_FLAG IEEE_DENORMAL
Note: The following floating-point exceptions are signalling: IEEE_UNDERFLOW_FLAG IEEE_DENORMAL
Note: The following floating-point exceptions are signalling: IEEE_UNDERFLOW_FLAG IEEE_DENORMAL
Note: The following floating-point exceptions are signalling: IEEE_UNDERFLOW_FLAG IEEE_DENORMAL
Note: The following floating-point exceptions are signalling: IEEE_UNDERFLOW_FLAG IEEE_DENORMAL