     Program PWSCF v.7.0 starts on 30Aug2025 at 22:25:29

     K-points division:     npool     =       8
     R & G space division:  proc/nbgrp/npool/nimage =       4

     Reading input from /home/jvc/QEspresso7.2/ZnO_database/scripts/cell132.in/ZnO-3.27-1.61-132.in
Warning: card &CELL ignored
Warning: card / ignored
Warning: card &FCP ignored
Warning: card / ignored
Warning: card &RISM ignored
Warning: card / ignored

     Current dimensions of program PWSCF are:
     Max number of different atomic species (ntypx) = 10
     Max number of k-points (npk) =  40000
     Max angular momentum in pseudopotentials (lmaxx) =  4
     file Zn.upf: wavefunction(s)  3D renormalized
     Found identity + (  0.0000  0.0000 -0.5000) symmetry
     This is a supercell, fractional translations are disabled
     Message from routine setup:
     using ibrav=0 with symmetry is DISCOURAGED, use correct ibrav instead

     Using Slab Decomposition

     bravais-lattice index     =            0
     lattice parameter (alat)  =       6.1789  a.u.
     unit-cell volume          =    1978.8170 (a.u.)^3
     number of atoms/cell      =           24
     number of atomic types    =            2
     number of electrons       =       216.00
     number of Kohn-Sham states=          108
     kinetic-energy cutoff     =      50.0000  Ry
     charge density cutoff     =     400.0000  Ry
     scf convergence threshold =      1.0E-08
     mixing beta               =       0.3000
     number of iterations used =            8  plain     mixing
     Exchange-correlation= PBE
                           (   1   4   3   4   0   0   0)

     celldm(1)=   6.178854  celldm(2)=   0.000000  celldm(3)=   0.000000
     celldm(4)=   0.000000  celldm(5)=   0.000000  celldm(6)=   0.000000

     crystal axes: (cart. coord. in units of alat)
               a(1) = (   1.000000   0.000000   0.000000 )
               a(2) = (  -1.500000   2.598076   0.000000 )
               a(3) = (   0.000000   0.000000   3.228717 )

     reciprocal axes: (cart. coord. in units 2 pi/alat)
               b(1) = (  1.000000  0.577350 -0.000000 )
               b(2) = (  0.000000  0.384900  0.000000 )
               b(3) = (  0.000000 -0.000000  0.309721 )

     PseudoPot. # 1 for Zn read from file:
     /home/jvc/QEspresso7.2/ZnO_database/pseudos/Zn.upf
     MD5 check sum: 7f56cabf9682ed8c977c2f7d0c5985c5
     Pseudo is Ultrasoft + core correction, Zval = 12.0
     Generated using &quot;atomic&quot; code by A. Dal Corso  v.6.2.2
     Using radial grid of 1201 points,  6 beta functions with:
                l(1) =   0
                l(2) =   0
                l(3) =   1
                l(4) =   1
                l(5) =   2
                l(6) =   2
     Q(r) pseudized with 0 coefficients

     PseudoPot. # 2 for O  read from file:
     /home/jvc/QEspresso7.2/ZnO_database/pseudos/O.upf
     MD5 check sum: 91400c9766925bcf19f520983a725ff0
     Pseudo is Ultrasoft + core correction, Zval =  6.0
     Generated using &quot;atomic&quot; code by A. Dal Corso  v.6.3MaX
     Using radial grid of 1095 points,  4 beta functions with:
                l(1) =   0
                l(2) =   0
                l(3) =   1
                l(4) =   1
     Q(r) pseudized with 0 coefficients

     atomic species   valence    mass     pseudopotential
        Zn            12.00    65.38000     Zn( 1.00)
        O              6.00    15.99900     O ( 1.00)

      2 Sym. Ops. (no inversion) found

                                    s                        frac. trans.

      isym =  1     identity

 cryst.   s( 1) = (     1          0          0      )
                  (     0          1          0      )
                  (     0          0          1      )

 cart.    s( 1) = (  1.0000000  0.0000000  0.0000000 )
                  (  0.0000000  1.0000000  0.0000000 )
                  (  0.0000000  0.0000000  1.0000000 )

      isym =  2     inv. 180 deg rotation - cart. axis [1,0,0]

 cryst.   s( 2) = (    -1          0          0      )
                  (     3          1          0      )
                  (     0          0          1      )

 cart.    s( 2) = ( -1.0000000  0.0000000  0.0000000 )
                  (  0.0000000  1.0000000  0.0000000 )
                  (  0.0000000  0.0000000  1.0000000 )

   Cartesian axes

     site n.     atom                  positions (alat units)
         1           Zn  tau(   1) = (   0.5000000   0.2886751   0.8082020  )
         2           Zn  tau(   2) = (  -0.0000000   0.5773503   0.0010228  )
         3           O   tau(   3) = (   0.5000000   0.2886751   1.4201130  )
         4           O   tau(   4) = (  -0.0000000   0.5773503   0.6129338  )
         5           Zn  tau(   5) = (   0.5000000   0.2886751   2.4225604  )
         6           Zn  tau(   6) = (  -0.0000000   0.5773503   1.6153812  )
         7           O   tau(   7) = (   0.5000000   0.2886751   3.0344713  )
         8           O   tau(   8) = (  -0.0000000   0.5773503   2.2272921  )
         9           Zn  tau(   9) = (   0.0000000   1.1547005   0.8082020  )
        10           Zn  tau(  10) = (  -0.5000000   1.4433757   0.0010228  )
        11           O   tau(  11) = (   0.0000000   1.1547005   1.4201130  )
        12           O   tau(  12) = (  -0.5000000   1.4433757   0.6129338  )
        13           Zn  tau(  13) = (   0.0000000   1.1547005   2.4225604  )
        14           Zn  tau(  14) = (  -0.5000000   1.4433757   1.6153812  )
        15           O   tau(  15) = (   0.0000000   1.1547005   3.0344713  )
        16           O   tau(  16) = (  -0.5000000   1.4433757   2.2272921  )
        17           Zn  tau(  17) = (  -0.5000000   2.0207259   0.8082020  )
        18           Zn  tau(  18) = (  -1.0000000   2.3094011   0.0010228  )
        19           O   tau(  19) = (  -0.5000000   2.0207259   1.4201130  )
        20           O   tau(  20) = (  -1.0000000   2.3094011   0.6129338  )
        21           Zn  tau(  21) = (  -0.5000000   2.0207259   2.4225604  )
        22           Zn  tau(  22) = (  -1.0000000   2.3094011   1.6153812  )
        23           O   tau(  23) = (  -0.5000000   2.0207259   3.0344713  )
        24           O   tau(  24) = (  -1.0000000   2.3094011   2.2272921  )

   Crystallographic axes

     site n.     atom                  positions (cryst. coord.)
         1           Zn  tau(   1) = (  0.6666667  0.1111111  0.2503168  )
         2           Zn  tau(   2) = (  0.3333333  0.2222222  0.0003168  )
         3           O   tau(   3) = (  0.6666667  0.1111111  0.4398382  )
         4           O   tau(   4) = (  0.3333333  0.2222222  0.1898382  )
         5           Zn  tau(   5) = (  0.6666667  0.1111111  0.7503168  )
         6           Zn  tau(   6) = (  0.3333333  0.2222222  0.5003168  )
         7           O   tau(   7) = (  0.6666667  0.1111111  0.9398382  )
         8           O   tau(   8) = (  0.3333333  0.2222222  0.6898382  )
         9           Zn  tau(   9) = (  0.6666667  0.4444444  0.2503168  )
        10           Zn  tau(  10) = (  0.3333333  0.5555556  0.0003168  )
        11           O   tau(  11) = (  0.6666667  0.4444444  0.4398382  )
        12           O   tau(  12) = (  0.3333333  0.5555556  0.1898382  )
        13           Zn  tau(  13) = (  0.6666667  0.4444444  0.7503168  )
        14           Zn  tau(  14) = (  0.3333333  0.5555556  0.5003168  )
        15           O   tau(  15) = (  0.6666667  0.4444444  0.9398382  )
        16           O   tau(  16) = (  0.3333333  0.5555556  0.6898382  )
        17           Zn  tau(  17) = (  0.6666667  0.7777778  0.2503168  )
        18           Zn  tau(  18) = (  0.3333333  0.8888889  0.0003168  )
        19           O   tau(  19) = (  0.6666667  0.7777778  0.4398382  )
        20           O   tau(  20) = (  0.3333333  0.8888889  0.1898382  )
        21           Zn  tau(  21) = (  0.6666667  0.7777778  0.7503168  )
        22           Zn  tau(  22) = (  0.3333333  0.8888889  0.5003168  )
        23           O   tau(  23) = (  0.6666667  0.7777778  0.9398382  )
        24           O   tau(  24) = (  0.3333333  0.8888889  0.6898382  )

     number of k points=    68
                       cart. coord. in units 2pi/alat
        k(    1) = (   0.0000000   0.0000000   0.0000000), wk =   0.0092593
        k(    2) = (   0.0000000   0.0000000   0.0516201), wk =   0.0185185
        k(    3) = (   0.0000000   0.0000000   0.1032402), wk =   0.0185185
        k(    4) = (   0.0000000   0.0000000  -0.1548603), wk =   0.0092593
        k(    5) = (   0.0000000   0.0641500   0.0000000), wk =   0.0185185
        k(    6) = (   0.0000000   0.0641500   0.0516201), wk =   0.0185185
        k(    7) = (   0.0000000   0.0641500   0.1032402), wk =   0.0185185
        k(    8) = (   0.0000000   0.0641500  -0.1548603), wk =   0.0185185
        k(    9) = (   0.0000000   0.1283001   0.0000000), wk =   0.0185185
        k(   10) = (   0.0000000   0.1283001   0.0516201), wk =   0.0185185
        k(   11) = (   0.0000000   0.1283001   0.1032402), wk =   0.0185185
        k(   12) = (   0.0000000   0.1283001  -0.1548603), wk =   0.0185185
        k(   13) = (   0.0000000  -0.1924501   0.0000000), wk =   0.0092593
        k(   14) = (   0.0000000  -0.1924501   0.0516201), wk =   0.0185185
        k(   15) = (   0.0000000  -0.1924501   0.1032402), wk =   0.0185185
        k(   16) = (   0.0000000  -0.1924501  -0.1548603), wk =   0.0092593
        k(   17) = (   0.1666667   0.0962250   0.0000000), wk =   0.0370370
        k(   18) = (   0.1666667   0.0962250   0.0516201), wk =   0.0370370
        k(   19) = (   0.1666667   0.0962250   0.1032402), wk =   0.0370370
        k(   20) = (   0.1666667   0.0962250  -0.1548603), wk =   0.0370370
        k(   21) = (   0.1666667   0.1603751   0.0000000), wk =   0.0370370
        k(   22) = (   0.1666667   0.1603751   0.0516201), wk =   0.0370370
        k(   23) = (   0.1666667   0.1603751   0.1032402), wk =   0.0370370
        k(   24) = (   0.1666667   0.1603751  -0.1548603), wk =   0.0370370
        k(   25) = (   0.1666667  -0.0320750   0.0000000), wk =   0.0370370
        k(   26) = (   0.1666667  -0.0320750   0.0516201), wk =   0.0370370
        k(   27) = (   0.1666667  -0.0320750   0.1032402), wk =   0.0370370
        k(   28) = (   0.1666667  -0.0320750  -0.1548603), wk =   0.0370370
        k(   29) = (   0.3333333   0.1924501   0.0000000), wk =   0.0185185
        k(   30) = (   0.3333333   0.1924501   0.0516201), wk =   0.0370370
        k(   31) = (   0.3333333   0.1924501   0.1032402), wk =   0.0370370
        k(   32) = (   0.3333333   0.1924501  -0.1548603), wk =   0.0185185
        k(   33) = (   0.3333333   0.2566001   0.0000000), wk =   0.0370370
        k(   34) = (   0.3333333   0.2566001   0.0516201), wk =   0.0370370
        k(   35) = (   0.3333333   0.2566001   0.1032402), wk =   0.0370370
        k(   36) = (   0.3333333   0.2566001  -0.1548603), wk =   0.0370370
        k(   37) = (   0.3333333   0.3207501   0.0000000), wk =   0.0370370
        k(   38) = (   0.3333333   0.3207501   0.0516201), wk =   0.0370370
        k(   39) = (   0.3333333   0.3207501   0.1032402), wk =   0.0370370
[...]
     estimated scf accuracy    <          2.6E-09 Ry

     The total energy is the sum of the following terms:
     one-electron contribution =    -927.14917339 Ry
     hartree contribution      =     709.72165156 Ry
     xc contribution           =    -657.27273641 Ry
     ewald contribution        =   -1295.12165916 Ry

     convergence has been achieved in  31 iterations

     Forces acting on atoms (cartesian axes, Ry/au):

     atom    1 type  1   force =     0.00000000   -0.00000107    0.00005449
     atom    2 type  1   force =     0.00000000    0.00001223    0.00005466
     atom    3 type  2   force =     0.00000000    0.00000326   -0.00005462
     atom    4 type  2   force =     0.00000000   -0.00000253   -0.00005467
     atom    5 type  1   force =     0.00000000   -0.00000439    0.00005394
     atom    6 type  1   force =     0.00000000    0.00001225    0.00005500
     atom    7 type  2   force =     0.00000000    0.00000311   -0.00005474
     atom    8 type  2   force =     0.00000000   -0.00000276   -0.00005457
     atom    9 type  1   force =     0.00000000   -0.00000901    0.00005414
     atom   10 type  1   force =     0.00000000    0.00000533    0.00005388
     atom   11 type  2   force =     0.00000000    0.00000259   -0.00005467
     atom   12 type  2   force =     0.00000000   -0.00000294   -0.00005457
     atom   13 type  1   force =     0.00000000   -0.00000816    0.00005541
     atom   14 type  1   force =     0.00000000    0.00000175    0.00005421
     atom   15 type  2   force =     0.00000000    0.00000285   -0.00005455
     atom   16 type  2   force =     0.00000000   -0.00000311   -0.00005472
     atom   17 type  1   force =     0.00000000   -0.00001126    0.00005201
     atom   18 type  1   force =     0.00000000    0.00000399    0.00005296
     atom   19 type  2   force =     0.00000000    0.00000263   -0.00005446
     atom   20 type  2   force =     0.00000000   -0.00000311   -0.00005488
     atom   21 type  1   force =     0.00000000   -0.00000878    0.00005702
     atom   22 type  1   force =     0.00000000    0.00000740    0.00005792
     atom   23 type  2   force =     0.00000000    0.00000270   -0.00005465
     atom   24 type  2   force =     0.00000000   -0.00000296   -0.00005455
     The non-local contrib.  to forces
     atom    1 type  1   force =     0.00000000    0.00001653   -0.00477969
     atom    2 type  1   force =     0.00000000   -0.00001179   -0.00477985
     atom    3 type  2   force =     0.00000000    0.00021921    0.00551429
     atom    4 type  2   force =     0.00000000   -0.00021976    0.00551449
     atom    5 type  1   force =     0.00000000    0.00001506   -0.00477972
     atom    6 type  1   force =     0.00000000   -0.00001175   -0.00477950
     atom    7 type  2   force =     0.00000000    0.00021944    0.00551470
     atom    8 type  2   force =     0.00000000   -0.00022001    0.00551470
     atom    9 type  1   force =     0.00000000    0.00001257   -0.00478032
     atom   10 type  1   force =     0.00000000   -0.00001447   -0.00478008
     atom   11 type  2   force =     0.00000000    0.00021960    0.00551436
     atom   12 type  2   force =     0.00000000   -0.00021924    0.00551494
     atom   13 type  1   force =     0.00000000    0.00001331   -0.00477946
     atom   14 type  1   force =     0.00000000   -0.00001571   -0.00477994
     atom   15 type  2   force =     0.00000000    0.00021960    0.00551473
     atom   16 type  2   force =     0.00000000   -0.00021959    0.00551410
     atom   17 type  1   force =     0.00000000    0.00001254   -0.00478049
     atom   18 type  1   force =     0.00000000   -0.00001521   -0.00478002
     atom   19 type  2   force =     0.00000000    0.00021975    0.00551440
     atom   20 type  2   force =     0.00000000   -0.00021963    0.00551450
     atom   21 type  1   force =     0.00000000    0.00001313   -0.00477845
     atom   22 type  1   force =     0.00000000   -0.00001413   -0.00477823
     atom   23 type  2   force =     0.00000000    0.00021983    0.00551486
     atom   24 type  2   force =     0.00000000   -0.00021957    0.00551448
     The ionic contribution  to forces
     atom    1 type  1   force =    -0.00000000    0.00000001    0.06271682
     atom    2 type  1   force =     0.00000000    0.00000001    0.06271682
     atom    3 type  2   force =    -0.00000000    0.00000000   -0.06271682
     atom    4 type  2   force =     0.00000000    0.00000000   -0.06271682
     atom    5 type  1   force =    -0.00000000    0.00000001    0.06271682
     atom    6 type  1   force =     0.00000000    0.00000001    0.06271682
     atom    7 type  2   force =    -0.00000000    0.00000000   -0.06271682
     atom    8 type  2   force =     0.00000000    0.00000000   -0.06271682
     atom    9 type  1   force =    -0.00000001    0.00000001    0.06271682
     atom   10 type  1   force =     0.00000001   -0.00000001    0.06271682
     atom   11 type  2   force =    -0.00000001    0.00000000   -0.06271682
     atom   12 type  2   force =     0.00000001   -0.00000000   -0.06271682
     atom   13 type  1   force =    -0.00000001    0.00000001    0.06271682
     atom   14 type  1   force =     0.00000001   -0.00000001    0.06271682
     atom   15 type  2   force =    -0.00000001    0.00000000   -0.06271682
     atom   16 type  2   force =     0.00000001   -0.00000000   -0.06271682
     atom   17 type  1   force =    -0.00000000   -0.00000001    0.06271682
     atom   18 type  1   force =     0.00000000   -0.00000001    0.06271682
     atom   19 type  2   force =    -0.00000000   -0.00000000   -0.06271682
     atom   20 type  2   force =     0.00000000   -0.00000000   -0.06271682
     atom   21 type  1   force =    -0.00000000   -0.00000001    0.06271682
     atom   22 type  1   force =     0.00000000   -0.00000001    0.06271682
     atom   23 type  2   force =    -0.00000000   -0.00000000   -0.06271682
     atom   24 type  2   force =     0.00000000   -0.00000000   -0.06271682
     The local contribution  to forces
     atom    1 type  1   force =    -0.00000004   -0.00003578   -0.05835334
     atom    2 type  1   force =    -0.00000000    0.00002110   -0.05835404
     atom    3 type  2   force =    -0.00000001   -0.00021864    0.05720719
     atom    4 type  2   force =     0.00000000    0.00020996    0.05720771
     atom    5 type  1   force =    -0.00000004   -0.00003141   -0.05835253
     atom    6 type  1   force =     0.00000000    0.00002107   -0.05835447
     atom    7 type  2   force =    -0.00000001   -0.00021655    0.05720917
     atom    8 type  2   force =     0.00000000    0.00021204    0.05720842
     atom    9 type  1   force =    -0.00000009   -0.00002530   -0.05835302
     atom   10 type  1   force =     0.00000009    0.00003003   -0.05835287
     atom   11 type  2   force =    -0.00000002   -0.00021189    0.05720824
     atom   12 type  2   force =     0.00000002    0.00021715    0.05720865
     atom   13 type  1   force =    -0.00000009   -0.00002619   -0.05835502
     atom   14 type  1   force =     0.00000009    0.00003513   -0.05835300
     atom   15 type  2   force =    -0.00000002   -0.00021443    0.05720815
     atom   16 type  2   force =     0.00000002    0.00021631    0.05720699
     atom   17 type  1   force =    -0.00000000   -0.00002256   -0.05835032
     atom   18 type  1   force =     0.00000004    0.00003219   -0.05835161
     atom   19 type  2   force =     0.00000000   -0.00021185    0.05720736
     atom   20 type  2   force =     0.00000001    0.00021577    0.05721004
     atom   21 type  1   force =     0.00000000   -0.00002589   -0.05835691
     atom   22 type  1   force =     0.00000004    0.00002726   -0.05835817
     atom   23 type  2   force =    -0.00000000   -0.00021161    0.05720928
     atom   24 type  2   force =     0.00000001    0.00021486    0.05720705
     The core correction contribution to forces
     atom    1 type  1   force =    -0.00000001    0.00000664    0.00047010
     atom    2 type  1   force =     0.00000000   -0.00000653    0.00047015
     atom    3 type  2   force =     0.00000000   -0.00000249   -0.00006228
     atom    4 type  2   force =     0.00000000    0.00000248   -0.00006228
     atom    5 type  1   force =    -0.00000001    0.00000661    0.00047007
     atom    6 type  1   force =     0.00000000   -0.00000653    0.00047013
     atom    7 type  2   force =     0.00000000   -0.00000249   -0.00006228
     atom    8 type  2   force =     0.00000000    0.00000249   -0.00006228
     atom    9 type  1   force =    -0.00000001    0.00000661    0.00047016
     atom   10 type  1   force =     0.00000001   -0.00000661    0.00047013
     atom   11 type  2   force =     0.00000000   -0.00000248   -0.00006228
     atom   12 type  2   force =    -0.00000000    0.00000249   -0.00006229
     atom   13 type  1   force =    -0.00000001    0.00000657    0.00047015
     atom   14 type  1   force =     0.00000001   -0.00000670    0.00047011
     atom   15 type  2   force =     0.00000000   -0.00000249   -0.00006228
     atom   16 type  2   force =    -0.00000000    0.00000249   -0.00006228
     atom   17 type  1   force =    -0.00000000    0.00000651    0.00047007
     atom   18 type  1   force =     0.00000001   -0.00000663    0.00047007
     atom   19 type  2   force =    -0.00000000   -0.00000248   -0.00006228
     atom   20 type  2   force =    -0.00000000    0.00000249   -0.00006228
     atom   21 type  1   force =    -0.00000000    0.00000659    0.00047013
     atom   22 type  1   force =     0.00000001   -0.00000654    0.00047016
     atom   23 type  2   force =    -0.00000000   -0.00000249   -0.00006228
     atom   24 type  2   force =    -0.00000000    0.00000249   -0.00006228
     The Hubbard contrib.    to forces
     atom    1 type  1   force =     0.00000000    0.00000000    0.00000000
     atom    2 type  1   force =     0.00000000    0.00000000    0.00000000
     atom    3 type  2   force =     0.00000000    0.00000000    0.00000000
     atom    4 type  2   force =     0.00000000    0.00000000    0.00000000
     atom    5 type  1   force =     0.00000000    0.00000000    0.00000000
     atom    6 type  1   force =     0.00000000    0.00000000    0.00000000
     atom    7 type  2   force =     0.00000000    0.00000000    0.00000000
     atom    8 type  2   force =     0.00000000    0.00000000    0.00000000
     atom    9 type  1   force =     0.00000000    0.00000000    0.00000000
     atom   10 type  1   force =     0.00000000    0.00000000    0.00000000
     atom   11 type  2   force =     0.00000000    0.00000000    0.00000000
     atom   12 type  2   force =     0.00000000    0.00000000    0.00000000
     atom   13 type  1   force =     0.00000000    0.00000000    0.00000000
     atom   14 type  1   force =     0.00000000    0.00000000    0.00000000
     atom   15 type  2   force =     0.00000000    0.00000000    0.00000000
     atom   16 type  2   force =     0.00000000    0.00000000    0.00000000
     atom   17 type  1   force =     0.00000000    0.00000000    0.00000000
     atom   18 type  1   force =     0.00000000    0.00000000    0.00000000
     atom   19 type  2   force =     0.00000000    0.00000000    0.00000000
     atom   20 type  2   force =     0.00000000    0.00000000    0.00000000
     atom   21 type  1   force =     0.00000000    0.00000000    0.00000000
     atom   22 type  1   force =     0.00000000    0.00000000    0.00000000
     atom   23 type  2   force =     0.00000000    0.00000000    0.00000000
     atom   24 type  2   force =     0.00000000    0.00000000    0.00000000
     The SCF correction term to forces
     atom    1 type  1   force =    -0.00000000    0.00001157   -0.00000107
     atom    2 type  1   force =    -0.00000000    0.00000946   -0.00000010
     atom    3 type  2   force =    -0.00000000    0.00000520    0.00000132
     atom    4 type  2   force =     0.00000000    0.00000481    0.00000057
     atom    5 type  1   force =    -0.00000000    0.00000537   -0.00000238
     atom    6 type  1   force =     0.00000000    0.00000948    0.00000035
     atom    7 type  2   force =    -0.00000000    0.00000273   -0.00000117
     atom    8 type  2   force =     0.00000000    0.00000275   -0.00000026
     atom    9 type  1   force =    -0.00000000   -0.00000287   -0.00000118
     atom   10 type  1   force =     0.00000000   -0.00000359   -0.00000179
     atom   11 type  2   force =    -0.00000000   -0.00000261    0.00000016
     atom   12 type  2   force =     0.00000000   -0.00000331   -0.00000074
     atom   13 type  1   force =    -0.00000000   -0.00000183    0.00000124
     atom   14 type  1   force =     0.00000000   -0.00001092   -0.00000146
     atom   15 type  2   force =    -0.00000000    0.00000019   -0.00000001
     atom   16 type  2   force =     0.00000000   -0.00000228    0.00000161
     atom   17 type  1   force =    -0.00000000   -0.00000772   -0.00000575
     atom   18 type  1   force =     0.00000000   -0.00000633   -0.00000398
     atom   19 type  2   force =    -0.00000000   -0.00000275    0.00000120
     atom   20 type  2   force =     0.00000000   -0.00000170   -0.00000199
     atom   21 type  1   force =    -0.00000000   -0.00000257    0.00000375
     atom   22 type  1   force =     0.00000000    0.00000084    0.00000566
     atom   23 type  2   force =    -0.00000000   -0.00000300   -0.00000136
     atom   24 type  2   force =     0.00000000   -0.00000071    0.00000134

     Total force =     0.000269     Total SCF correction =     0.000029
     SCF correction compared to forces is large: reduce conv_thr to get better values

     General routines

     Parallel routines

   This run was terminated on:  22:58: 3  30Aug2025

   JOB DONE.
Note: The following floating-point exceptions are signalling: IEEE_UNDERFLOW_FLAG IEEE_DENORMAL
Note: The following floating-point exceptions are signalling: IEEE_UNDERFLOW_FLAG IEEE_DENORMAL
Note: The following floating-point exceptions are signalling: IEEE_UNDERFLOW_FLAG IEEE_DENORMAL
Note: The following floating-point exceptions are signalling: IEEE_UNDERFLOW_FLAG IEEE_DENORMAL
Note: The following floating-point exceptions are signalling: IEEE_UNDERFLOW_FLAG IEEE_DENORMAL
Note: The following floating-point exceptions are signalling: IEEE_UNDERFLOW_FLAG IEEE_DENORMAL
Note: The following floating-point exceptions are signalling: IEEE_UNDERFLOW_FLAG IEEE_DENORMAL
Note: The following floating-point exceptions are signalling: IEEE_UNDERFLOW_FLAG IEEE_DENORMAL
Note: The following floating-point exceptions are signalling: IEEE_UNDERFLOW_FLAG IEEE_DENORMAL
Note: The following floating-point exceptions are signalling: IEEE_UNDERFLOW_FLAG IEEE_DENORMAL
Note: The following floating-point exceptions are signalling: IEEE_UNDERFLOW_FLAG IEEE_DENORMAL
Note: The following floating-point exceptions are signalling: IEEE_UNDERFLOW_FLAG IEEE_DENORMAL
Note: The following floating-point exceptions are signalling: IEEE_UNDERFLOW_FLAG IEEE_DENORMAL
Note: The following floating-point exceptions are signalling: IEEE_UNDERFLOW_FLAG IEEE_DENORMAL
Note: The following floating-point exceptions are signalling: IEEE_UNDERFLOW_FLAG IEEE_DENORMAL
Note: The following floating-point exceptions are signalling: IEEE_UNDERFLOW_FLAG IEEE_DENORMAL
Note: The following floating-point exceptions are signalling: IEEE_UNDERFLOW_FLAG IEEE_DENORMAL
Note: The following floating-point exceptions are signalling: IEEE_UNDERFLOW_FLAG IEEE_DENORMAL
Note: The following floating-point exceptions are signalling: IEEE_UNDERFLOW_FLAG IEEE_DENORMAL
Note: The following floating-point exceptions are signalling: IEEE_UNDERFLOW_FLAG IEEE_DENORMAL
Note: The following floating-point exceptions are signalling: IEEE_UNDERFLOW_FLAG IEEE_DENORMAL
Note: The following floating-point exceptions are signalling: IEEE_UNDERFLOW_FLAG IEEE_DENORMAL
Note: The following floating-point exceptions are signalling: IEEE_UNDERFLOW_FLAG IEEE_DENORMAL
Note: The following floating-point exceptions are signalling: IEEE_UNDERFLOW_FLAG IEEE_DENORMAL
Note: The following floating-point exceptions are signalling: IEEE_UNDERFLOW_FLAG IEEE_DENORMAL
Note: The following floating-point exceptions are signalling: IEEE_UNDERFLOW_FLAG IEEE_DENORMAL
Note: The following floating-point exceptions are signalling: IEEE_UNDERFLOW_FLAG IEEE_DENORMAL
Note: The following floating-point exceptions are signalling: IEEE_UNDERFLOW_FLAG IEEE_DENORMAL
Note: The following floating-point exceptions are signalling: IEEE_UNDERFLOW_FLAG IEEE_DENORMAL
Note: The following floating-point exceptions are signalling: IEEE_UNDERFLOW_FLAG IEEE_DENORMAL
Note: The following floating-point exceptions are signalling: IEEE_UNDERFLOW_FLAG IEEE_DENORMAL
Note: The following floating-point exceptions are signalling: IEEE_UNDERFLOW_FLAG IEEE_DENORMAL