     Program PWSCF v.7.0 starts on  1Sep2025 at  0:18:33

     K-points division:     npool     =       8
     R & G space division:  proc/nbgrp/npool/nimage =       4

     Reading input from /home/jvc/QEspresso7.2/ZnO_database/scripts/cell132.in/ZnO-3.53-1.55-132.in
Warning: card &CELL ignored
Warning: card / ignored
Warning: card &FCP ignored
Warning: card / ignored
Warning: card &RISM ignored
Warning: card / ignored

     Current dimensions of program PWSCF are:
     Max number of different atomic species (ntypx) = 10
     Max number of k-points (npk) =  40000
     Max angular momentum in pseudopotentials (lmaxx) =  4
     file Zn.upf: wavefunction(s)  3D renormalized
     Found identity + (  0.0000  0.0000  0.5000) symmetry
     This is a supercell, fractional translations are disabled
     Message from routine setup:
     using ibrav=0 with symmetry is DISCOURAGED, use correct ibrav instead

     Using Slab Decomposition

     bravais-lattice index     =            0
     lattice parameter (alat)  =       6.6732  a.u.
     unit-cell volume          =    2393.0299 (a.u.)^3
     number of atoms/cell      =           24
     number of atomic types    =            2
     number of electrons       =       216.00
     number of Kohn-Sham states=          108
     kinetic-energy cutoff     =      50.0000  Ry
     charge density cutoff     =     400.0000  Ry
     scf convergence threshold =      1.0E-08
     mixing beta               =       0.3000
     number of iterations used =            8  plain     mixing
     Exchange-correlation= PBE
                           (   1   4   3   4   0   0   0)

     celldm(1)=   6.673162  celldm(2)=   0.000000  celldm(3)=   0.000000
     celldm(4)=   0.000000  celldm(5)=   0.000000  celldm(6)=   0.000000

     crystal axes: (cart. coord. in units of alat)
               a(1) = (   1.000000   0.000000   0.000000 )
               a(2) = (  -1.500000   2.598076   0.000000 )
               a(3) = (   0.000000   0.000000   3.099568 )

     reciprocal axes: (cart. coord. in units 2 pi/alat)
               b(1) = (  1.000000  0.577350 -0.000000 )
               b(2) = (  0.000000  0.384900  0.000000 )
               b(3) = (  0.000000 -0.000000  0.322626 )

     PseudoPot. # 1 for Zn read from file:
     /home/jvc/QEspresso7.2/ZnO_database/pseudos/Zn.upf
     MD5 check sum: 7f56cabf9682ed8c977c2f7d0c5985c5
     Pseudo is Ultrasoft + core correction, Zval = 12.0
     Generated using &quot;atomic&quot; code by A. Dal Corso  v.6.2.2
     Using radial grid of 1201 points,  6 beta functions with:
                l(1) =   0
                l(2) =   0
                l(3) =   1
                l(4) =   1
                l(5) =   2
                l(6) =   2
     Q(r) pseudized with 0 coefficients

     PseudoPot. # 2 for O  read from file:
     /home/jvc/QEspresso7.2/ZnO_database/pseudos/O.upf
     MD5 check sum: 91400c9766925bcf19f520983a725ff0
     Pseudo is Ultrasoft + core correction, Zval =  6.0
     Generated using &quot;atomic&quot; code by A. Dal Corso  v.6.3MaX
     Using radial grid of 1095 points,  4 beta functions with:
                l(1) =   0
                l(2) =   0
                l(3) =   1
                l(4) =   1
     Q(r) pseudized with 0 coefficients

     atomic species   valence    mass     pseudopotential
        Zn            12.00    65.38000     Zn( 1.00)
        O              6.00    15.99900     O ( 1.00)

      2 Sym. Ops. (no inversion) found

                                    s                        frac. trans.

      isym =  1     identity

 cryst.   s( 1) = (     1          0          0      )
                  (     0          1          0      )
                  (     0          0          1      )

 cart.    s( 1) = (  1.0000000 -0.0000000  0.0000000 )
                  (  0.0000000  1.0000000  0.0000000 )
                  (  0.0000000  0.0000000  1.0000000 )

      isym =  2     inv. 180 deg rotation - cart. axis [1,0,0]

 cryst.   s( 2) = (    -1          0          0      )
                  (     3          1          0      )
                  (     0          0          1      )

 cart.    s( 2) = ( -1.0000000  0.0000000  0.0000000 )
                  (  0.0000000  1.0000000  0.0000000 )
                  (  0.0000000  0.0000000  1.0000000 )

   Cartesian axes

     site n.     atom                  positions (alat units)
         1           Zn  tau(   1) = (   0.5000000   0.2886751   0.7758739  )
         2           Zn  tau(   2) = (   0.0000000   0.5773503   0.0009819  )
         3           O   tau(   3) = (   0.5000000   0.2886751   1.3633085  )
         4           O   tau(   4) = (   0.0000000   0.5773503   0.5884164  )
         5           Zn  tau(   5) = (   0.5000000   0.2886751   2.3256580  )
         6           Zn  tau(   6) = (   0.0000000   0.5773503   1.5507659  )
         7           O   tau(   7) = (   0.5000000   0.2886751   2.9130925  )
         8           O   tau(   8) = (   0.0000000   0.5773503   2.1382005  )
         9           Zn  tau(   9) = (   0.0000000   1.1547005   0.7758739  )
        10           Zn  tau(  10) = (  -0.5000000   1.4433757   0.0009819  )
        11           O   tau(  11) = (   0.0000000   1.1547005   1.3633085  )
        12           O   tau(  12) = (  -0.5000000   1.4433757   0.5884164  )
        13           Zn  tau(  13) = (   0.0000000   1.1547005   2.3256580  )
        14           Zn  tau(  14) = (  -0.5000000   1.4433757   1.5507659  )
        15           O   tau(  15) = (   0.0000000   1.1547005   2.9130925  )
        16           O   tau(  16) = (  -0.5000000   1.4433757   2.1382005  )
        17           Zn  tau(  17) = (  -0.5000000   2.0207259   0.7758739  )
        18           Zn  tau(  18) = (  -1.0000000   2.3094011   0.0009819  )
        19           O   tau(  19) = (  -0.5000000   2.0207259   1.3633085  )
        20           O   tau(  20) = (  -1.0000000   2.3094011   0.5884164  )
        21           Zn  tau(  21) = (  -0.5000000   2.0207259   2.3256580  )
        22           Zn  tau(  22) = (  -1.0000000   2.3094011   1.5507659  )
        23           O   tau(  23) = (  -0.5000000   2.0207259   2.9130925  )
        24           O   tau(  24) = (  -1.0000000   2.3094011   2.1382005  )

   Crystallographic axes

     site n.     atom                  positions (cryst. coord.)
         1           Zn  tau(   1) = (  0.6666667  0.1111111  0.2503168  )
         2           Zn  tau(   2) = (  0.3333333  0.2222222  0.0003168  )
         3           O   tau(   3) = (  0.6666667  0.1111111  0.4398382  )
         4           O   tau(   4) = (  0.3333333  0.2222222  0.1898382  )
         5           Zn  tau(   5) = (  0.6666667  0.1111111  0.7503168  )
         6           Zn  tau(   6) = (  0.3333333  0.2222222  0.5003168  )
         7           O   tau(   7) = (  0.6666667  0.1111111  0.9398382  )
         8           O   tau(   8) = (  0.3333333  0.2222222  0.6898382  )
         9           Zn  tau(   9) = (  0.6666667  0.4444444  0.2503168  )
        10           Zn  tau(  10) = (  0.3333333  0.5555556  0.0003168  )
        11           O   tau(  11) = (  0.6666667  0.4444444  0.4398382  )
        12           O   tau(  12) = (  0.3333333  0.5555556  0.1898382  )
        13           Zn  tau(  13) = (  0.6666667  0.4444444  0.7503168  )
        14           Zn  tau(  14) = (  0.3333333  0.5555556  0.5003168  )
        15           O   tau(  15) = (  0.6666667  0.4444444  0.9398382  )
        16           O   tau(  16) = (  0.3333333  0.5555556  0.6898382  )
        17           Zn  tau(  17) = (  0.6666667  0.7777778  0.2503168  )
        18           Zn  tau(  18) = (  0.3333333  0.8888889  0.0003168  )
        19           O   tau(  19) = (  0.6666667  0.7777778  0.4398382  )
        20           O   tau(  20) = (  0.3333333  0.8888889  0.1898382  )
        21           Zn  tau(  21) = (  0.6666667  0.7777778  0.7503168  )
        22           Zn  tau(  22) = (  0.3333333  0.8888889  0.5003168  )
        23           O   tau(  23) = (  0.6666667  0.7777778  0.9398382  )
        24           O   tau(  24) = (  0.3333333  0.8888889  0.6898382  )

     number of k points=    68
                       cart. coord. in units 2pi/alat
        k(    1) = (   0.0000000   0.0000000   0.0000000), wk =   0.0092593
        k(    2) = (   0.0000000   0.0000000   0.0537709), wk =   0.0185185
        k(    3) = (   0.0000000   0.0000000   0.1075419), wk =   0.0185185
        k(    4) = (   0.0000000   0.0000000  -0.1613128), wk =   0.0092593
        k(    5) = (   0.0000000   0.0641500   0.0000000), wk =   0.0185185
        k(    6) = (   0.0000000   0.0641500   0.0537709), wk =   0.0185185
        k(    7) = (   0.0000000   0.0641500   0.1075419), wk =   0.0185185
        k(    8) = (   0.0000000   0.0641500  -0.1613128), wk =   0.0185185
        k(    9) = (   0.0000000   0.1283001   0.0000000), wk =   0.0185185
        k(   10) = (   0.0000000   0.1283001   0.0537709), wk =   0.0185185
        k(   11) = (   0.0000000   0.1283001   0.1075419), wk =   0.0185185
        k(   12) = (   0.0000000   0.1283001  -0.1613128), wk =   0.0185185
        k(   13) = (   0.0000000  -0.1924501   0.0000000), wk =   0.0092593
        k(   14) = (   0.0000000  -0.1924501   0.0537709), wk =   0.0185185
        k(   15) = (   0.0000000  -0.1924501   0.1075419), wk =   0.0185185
        k(   16) = (   0.0000000  -0.1924501  -0.1613128), wk =   0.0092593
        k(   17) = (   0.1666667   0.0962250   0.0000000), wk =   0.0370370
        k(   18) = (   0.1666667   0.0962250   0.0537709), wk =   0.0370370
        k(   19) = (   0.1666667   0.0962250   0.1075419), wk =   0.0370370
        k(   20) = (   0.1666667   0.0962250  -0.1613128), wk =   0.0370370
        k(   21) = (   0.1666667   0.1603751   0.0000000), wk =   0.0370370
        k(   22) = (   0.1666667   0.1603751   0.0537709), wk =   0.0370370
        k(   23) = (   0.1666667   0.1603751   0.1075419), wk =   0.0370370
        k(   24) = (   0.1666667   0.1603751  -0.1613128), wk =   0.0370370
        k(   25) = (   0.1666667  -0.0320750   0.0000000), wk =   0.0370370
        k(   26) = (   0.1666667  -0.0320750   0.0537709), wk =   0.0370370
        k(   27) = (   0.1666667  -0.0320750   0.1075419), wk =   0.0370370
        k(   28) = (   0.1666667  -0.0320750  -0.1613128), wk =   0.0370370
        k(   29) = (   0.3333333   0.1924501   0.0000000), wk =   0.0185185
        k(   30) = (   0.3333333   0.1924501   0.0537709), wk =   0.0370370
        k(   31) = (   0.3333333   0.1924501   0.1075419), wk =   0.0370370
        k(   32) = (   0.3333333   0.1924501  -0.1613128), wk =   0.0185185
        k(   33) = (   0.3333333   0.2566001   0.0000000), wk =   0.0370370
        k(   34) = (   0.3333333   0.2566001   0.0537709), wk =   0.0370370
        k(   35) = (   0.3333333   0.2566001   0.1075419), wk =   0.0370370
        k(   36) = (   0.3333333   0.2566001  -0.1613128), wk =   0.0370370
        k(   37) = (   0.3333333   0.3207501   0.0000000), wk =   0.0370370
        k(   38) = (   0.3333333   0.3207501   0.0537709), wk =   0.0370370
        k(   39) = (   0.3333333   0.3207501   0.1075419), wk =   0.0370370
[...]

!    total energy              =   -2169.56602905 Ry
     estimated scf accuracy    <          2.9E-09 Ry

     The total energy is the sum of the following terms:
     one-electron contribution =   -1056.46191780 Ry
     hartree contribution      =     756.82983473 Ry
     xc contribution           =    -655.19070968 Ry
     ewald contribution        =   -1214.74323630 Ry

     convergence has been achieved in  45 iterations

     Forces acting on atoms (cartesian axes, Ry/au):

     atom    1 type  1   force =     0.00000000    0.00000243   -0.00190464
     atom    2 type  1   force =     0.00000000   -0.00000807   -0.00191953
     atom    3 type  2   force =     0.00000000    0.00000406    0.00192122
     atom    4 type  2   force =     0.00000000   -0.00000457    0.00191972
     atom    5 type  1   force =     0.00000000   -0.00000209   -0.00192729
     atom    6 type  1   force =     0.00000000   -0.00000077   -0.00192813
     atom    7 type  2   force =     0.00000000    0.00000428    0.00191856
     atom    8 type  2   force =     0.00000000   -0.00000449    0.00191951
     atom    9 type  1   force =     0.00000000   -0.00000696   -0.00190293
     atom   10 type  1   force =     0.00000000   -0.00000472   -0.00191471
     atom   11 type  2   force =     0.00000000    0.00000441    0.00192127
     atom   12 type  2   force =     0.00000000   -0.00000437    0.00191926
     atom   13 type  1   force =     0.00000000   -0.00000533   -0.00193079
     atom   14 type  1   force =     0.00000000   -0.00001066   -0.00192721
     atom   15 type  2   force =     0.00000000    0.00000443    0.00191856
     atom   16 type  2   force =     0.00000000   -0.00000461    0.00191987
     atom   17 type  1   force =     0.00000000    0.00000429   -0.00190890
     atom   18 type  1   force =     0.00000000    0.00001086   -0.00191931
     atom   19 type  2   force =     0.00000000    0.00000447    0.00192118
     atom   20 type  2   force =     0.00000000   -0.00000439    0.00191966
     atom   21 type  1   force =     0.00000000    0.00001071   -0.00193251
     atom   22 type  1   force =     0.00000000    0.00001186   -0.00192076
     atom   23 type  2   force =     0.00000000    0.00000342    0.00191895
     atom   24 type  2   force =     0.00000000   -0.00000421    0.00191893
     The non-local contrib.  to forces
     atom    1 type  1   force =     0.00000000   -0.00001801   -0.11100398
     atom    2 type  1   force =     0.00000000    0.00001648   -0.11100511
     atom    3 type  2   force =     0.00000000    0.00023106   -0.09651087
     atom    4 type  2   force =     0.00000000   -0.00023176   -0.09651087
     atom    5 type  1   force =     0.00000000   -0.00002120   -0.11101056
     atom    6 type  1   force =     0.00000000    0.00001775   -0.11101298
     atom    7 type  2   force =     0.00000000    0.00023265   -0.09650979
     atom    8 type  2   force =     0.00000000   -0.00023003   -0.09650816
     atom    9 type  1   force =     0.00000000   -0.00002158   -0.11100228
     atom   10 type  1   force =     0.00000000    0.00001703   -0.11100237
     atom   11 type  2   force =     0.00000000    0.00023644   -0.09651086
     atom   12 type  2   force =     0.00000000   -0.00023187   -0.09651274
     atom   13 type  1   force =     0.00000000   -0.00002094   -0.11101139
     atom   14 type  1   force =     0.00000000    0.00001444   -0.11101115
     atom   15 type  2   force =     0.00000000    0.00023589   -0.09651148
     atom   16 type  2   force =     0.00000000   -0.00023343   -0.09650849
     atom   17 type  1   force =     0.00000000   -0.00001600   -0.11100505
     atom   18 type  1   force =     0.00000000    0.00002312   -0.11100566
     atom   19 type  2   force =     0.00000000    0.00023209   -0.09651135
     atom   20 type  2   force =     0.00000000   -0.00023546   -0.09651052
     atom   21 type  1   force =     0.00000000   -0.00001286   -0.11100831
     atom   22 type  1   force =     0.00000000    0.00002359   -0.11100970
     atom   23 type  2   force =     0.00000000    0.00022946   -0.09651041
     atom   24 type  2   force =     0.00000000   -0.00023481   -0.09651171
     The ionic contribution  to forces
     atom    1 type  1   force =    -0.00000000    0.00000001   -0.68525367
     atom    2 type  1   force =     0.00000000    0.00000001   -0.68525367
     atom    3 type  2   force =    -0.00000000    0.00000000    0.68525367
     atom    4 type  2   force =     0.00000000    0.00000000    0.68525367
     atom    5 type  1   force =    -0.00000000    0.00000001   -0.68525367
     atom    6 type  1   force =     0.00000000    0.00000001   -0.68525367
     atom    7 type  2   force =    -0.00000000    0.00000000    0.68525367
     atom    8 type  2   force =     0.00000000    0.00000000    0.68525367
     atom    9 type  1   force =    -0.00000001    0.00000001   -0.68525368
     atom   10 type  1   force =     0.00000001   -0.00000001   -0.68525368
     atom   11 type  2   force =    -0.00000001    0.00000000    0.68525368
     atom   12 type  2   force =     0.00000001   -0.00000000    0.68525368
     atom   13 type  1   force =    -0.00000001    0.00000001   -0.68525368
     atom   14 type  1   force =     0.00000001   -0.00000001   -0.68525368
     atom   15 type  2   force =    -0.00000001    0.00000000    0.68525368
     atom   16 type  2   force =     0.00000001   -0.00000000    0.68525368
     atom   17 type  1   force =    -0.00000000   -0.00000001   -0.68525367
     atom   18 type  1   force =     0.00000000   -0.00000001   -0.68525367
     atom   19 type  2   force =    -0.00000000   -0.00000000    0.68525367
     atom   20 type  2   force =     0.00000000   -0.00000000    0.68525367
     atom   21 type  1   force =    -0.00000000   -0.00000001   -0.68525367
     atom   22 type  1   force =     0.00000000   -0.00000001   -0.68525367
     atom   23 type  2   force =    -0.00000000   -0.00000000    0.68525367
     atom   24 type  2   force =     0.00000000   -0.00000000    0.68525367
     The local contribution  to forces
     atom    1 type  1   force =    -0.00000005    0.00001000    0.78737484
     atom    2 type  1   force =     0.00000000   -0.00000306    0.78739142
     atom    3 type  2   force =    -0.00000001   -0.00022663   -0.58764652
     atom    4 type  2   force =     0.00000000    0.00022727   -0.58764774
     atom    5 type  1   force =    -0.00000005    0.00001826    0.78739511
     atom    6 type  1   force =     0.00000000   -0.00001063    0.78739903
     atom    7 type  2   force =    -0.00000001   -0.00022689   -0.58764446
     atom    8 type  2   force =     0.00000000    0.00023015   -0.58763792
     atom    9 type  1   force =    -0.00000009    0.00002184    0.78737184
     atom   10 type  1   force =     0.00000009   -0.00000957    0.78738554
     atom   11 type  2   force =    -0.00000002   -0.00022323   -0.58764732
     atom   12 type  2   force =     0.00000002    0.00022687   -0.58764568
     atom   13 type  1   force =    -0.00000009    0.00002042    0.78740036
     atom   14 type  1   force =     0.00000009    0.00000051    0.78739701
     atom   15 type  2   force =    -0.00000002   -0.00022293   -0.58764356
     atom   16 type  2   force =     0.00000002    0.00022660   -0.58764050
     atom   17 type  1   force =     0.00000000    0.00000689    0.78738117
     atom   18 type  1   force =     0.00000005   -0.00002653    0.78739268
     atom   19 type  2   force =    -0.00000000   -0.00022935   -0.58764678
     atom   20 type  2   force =     0.00000001    0.00022348   -0.58764701
     atom   21 type  1   force =     0.00000000   -0.00000192    0.78739715
     atom   22 type  1   force =     0.00000005   -0.00002869    0.78738845
     atom   23 type  2   force =     0.00000000   -0.00022325   -0.58764334
     atom   24 type  2   force =     0.00000001    0.00021832   -0.58763561
     The core correction contribution to forces
     atom    1 type  1   force =     0.00000001    0.00000659    0.00695685
     atom    2 type  1   force =    -0.00000008   -0.00000675    0.00695384
     atom    3 type  2   force =     0.00000000   -0.00000261    0.00081947
     atom    4 type  2   force =    -0.00000000    0.00000260    0.00081918
     atom    5 type  1   force =     0.00000001    0.00000649    0.00695383
     atom    6 type  1   force =    -0.00000008   -0.00000655    0.00695622
     atom    7 type  2   force =     0.00000000   -0.00000264    0.00081757
     atom    8 type  2   force =    -0.00000000    0.00000259    0.00081787
     atom    9 type  1   force =     0.00000014    0.00000621    0.00695684
     atom   10 type  1   force =    -0.00000015   -0.00000626    0.00695383
     atom   11 type  2   force =    -0.00000000   -0.00000269    0.00081947
     atom   12 type  2   force =     0.00000000    0.00000263    0.00081921
     atom   13 type  1   force =     0.00000015    0.00000617    0.00695367
     atom   14 type  1   force =    -0.00000015   -0.00000652    0.00695613
     atom   15 type  2   force =     0.00000000   -0.00000269    0.00081759
     atom   16 type  2   force =     0.00000000    0.00000265    0.00081785
     atom   17 type  1   force =     0.00000008    0.00000651    0.00695666
     atom   18 type  1   force =    -0.00000001   -0.00000631    0.00695384
     atom   19 type  2   force =     0.00000000   -0.00000261    0.00081948
     atom   20 type  2   force =    -0.00000000    0.00000267    0.00081918
     atom   21 type  1   force =     0.00000008    0.00000661    0.00695361
     atom   22 type  1   force =    -0.00000000   -0.00000628    0.00695642
     atom   23 type  2   force =     0.00000000   -0.00000254    0.00081758
     atom   24 type  2   force =    -0.00000000    0.00000265    0.00081792
     The Hubbard contrib.    to forces
     atom    1 type  1   force =     0.00000000    0.00000000    0.00000000
     atom    2 type  1   force =     0.00000000    0.00000000    0.00000000
     atom    3 type  2   force =     0.00000000    0.00000000    0.00000000
     atom    4 type  2   force =     0.00000000    0.00000000    0.00000000
     atom    5 type  1   force =     0.00000000    0.00000000    0.00000000
     atom    6 type  1   force =     0.00000000    0.00000000    0.00000000
     atom    7 type  2   force =     0.00000000    0.00000000    0.00000000
     atom    8 type  2   force =     0.00000000    0.00000000    0.00000000
     atom    9 type  1   force =     0.00000000    0.00000000    0.00000000
     atom   10 type  1   force =     0.00000000    0.00000000    0.00000000
     atom   11 type  2   force =     0.00000000    0.00000000    0.00000000
     atom   12 type  2   force =     0.00000000    0.00000000    0.00000000
     atom   13 type  1   force =     0.00000000    0.00000000    0.00000000
     atom   14 type  1   force =     0.00000000    0.00000000    0.00000000
     atom   15 type  2   force =     0.00000000    0.00000000    0.00000000
     atom   16 type  2   force =     0.00000000    0.00000000    0.00000000
     atom   17 type  1   force =     0.00000000    0.00000000    0.00000000
     atom   18 type  1   force =     0.00000000    0.00000000    0.00000000
     atom   19 type  2   force =     0.00000000    0.00000000    0.00000000
     atom   20 type  2   force =     0.00000000    0.00000000    0.00000000
     atom   21 type  1   force =     0.00000000    0.00000000    0.00000000
     atom   22 type  1   force =     0.00000000    0.00000000    0.00000000
     atom   23 type  2   force =     0.00000000    0.00000000    0.00000000
     atom   24 type  2   force =     0.00000000    0.00000000    0.00000000
     The SCF correction term to forces
     atom    1 type  1   force =    -0.00000000    0.00000398    0.00001874
     atom    2 type  1   force =    -0.00000000   -0.00001461   -0.00000859
     atom    3 type  2   force =    -0.00000000    0.00000239    0.00000288
     atom    4 type  2   force =     0.00000000   -0.00000256    0.00000290
     atom    5 type  1   force =    -0.00000000   -0.00000552   -0.00001458
     atom    6 type  1   force =    -0.00000000   -0.00000122   -0.00001930
     atom    7 type  2   force =    -0.00000000    0.00000129   -0.00000101
     atom    8 type  2   force =     0.00000000   -0.00000706   -0.00000854
     atom    9 type  1   force =    -0.00000000   -0.00001329    0.00002176
     atom   10 type  1   force =     0.00000000   -0.00000578   -0.00000062
     atom   11 type  2   force =     0.00000000   -0.00000598    0.00000372
     atom   12 type  2   force =    -0.00000000   -0.00000185    0.00000221
     atom   13 type  1   force =     0.00000000   -0.00001084   -0.00002233
     atom   14 type  1   force =    -0.00000000   -0.00001894   -0.00001810
     atom   15 type  2   force =     0.00000000   -0.00000571   -0.00000025
     atom   16 type  2   force =    -0.00000000   -0.00000029   -0.00000525
     atom   17 type  1   force =     0.00000000    0.00000703    0.00000941
     atom   18 type  1   force =     0.00000000    0.00002072   -0.00000908
     atom   19 type  2   force =     0.00000000    0.00000448    0.00000358
     atom   20 type  2   force =     0.00000000    0.00000505    0.00000176
     atom   21 type  1   force =     0.00000000    0.00001903   -0.00002387
     atom   22 type  1   force =     0.00000000    0.00002339   -0.00000484
     atom   23 type  2   force =     0.00000000   -0.00000012   -0.00000113
     atom   24 type  2   force =     0.00000000    0.00000977   -0.00000793

     Total force =     0.009405     Total SCF correction =     0.000077

     General routines

     Parallel routines

   This run was terminated on:   1: 2:38   1Sep2025

   JOB DONE.
Note: The following floating-point exceptions are signalling: IEEE_UNDERFLOW_FLAG IEEE_DENORMAL
Note: The following floating-point exceptions are signalling: IEEE_UNDERFLOW_FLAG IEEE_DENORMAL
Note: The following floating-point exceptions are signalling: IEEE_UNDERFLOW_FLAG IEEE_DENORMAL
Note: The following floating-point exceptions are signalling: IEEE_UNDERFLOW_FLAG IEEE_DENORMAL
Note: The following floating-point exceptions are signalling: IEEE_UNDERFLOW_FLAG IEEE_DENORMAL
Note: The following floating-point exceptions are signalling: IEEE_UNDERFLOW_FLAG IEEE_DENORMAL
Note: The following floating-point exceptions are signalling: IEEE_UNDERFLOW_FLAG IEEE_DENORMAL
Note: The following floating-point exceptions are signalling: IEEE_UNDERFLOW_FLAG IEEE_DENORMAL
Note: The following floating-point exceptions are signalling: IEEE_UNDERFLOW_FLAG IEEE_DENORMAL
Note: The following floating-point exceptions are signalling: IEEE_UNDERFLOW_FLAG IEEE_DENORMAL
Note: The following floating-point exceptions are signalling: IEEE_UNDERFLOW_FLAG IEEE_DENORMAL
Note: The following floating-point exceptions are signalling: IEEE_UNDERFLOW_FLAG IEEE_DENORMAL
Note: The following floating-point exceptions are signalling: IEEE_UNDERFLOW_FLAG IEEE_DENORMAL
Note: The following floating-point exceptions are signalling: IEEE_UNDERFLOW_FLAG IEEE_DENORMAL
Note: The following floating-point exceptions are signalling: IEEE_UNDERFLOW_FLAG IEEE_DENORMAL
Note: The following floating-point exceptions are signalling: IEEE_UNDERFLOW_FLAG IEEE_DENORMAL
Note: The following floating-point exceptions are signalling: IEEE_UNDERFLOW_FLAG IEEE_DENORMAL
Note: The following floating-point exceptions are signalling: IEEE_UNDERFLOW_FLAG IEEE_DENORMAL
Note: The following floating-point exceptions are signalling: IEEE_UNDERFLOW_FLAG IEEE_DENORMAL
Note: The following floating-point exceptions are signalling: IEEE_UNDERFLOW_FLAG IEEE_DENORMAL
Note: The following floating-point exceptions are signalling: IEEE_UNDERFLOW_FLAG IEEE_DENORMAL
Note: The following floating-point exceptions are signalling: IEEE_UNDERFLOW_FLAG IEEE_DENORMAL
Note: The following floating-point exceptions are signalling: IEEE_UNDERFLOW_FLAG IEEE_DENORMAL
Note: The following floating-point exceptions are signalling: IEEE_UNDERFLOW_FLAG IEEE_DENORMAL
Note: The following floating-point exceptions are signalling: IEEE_UNDERFLOW_FLAG IEEE_DENORMAL
Note: The following floating-point exceptions are signalling: IEEE_UNDERFLOW_FLAG IEEE_DENORMAL
Note: The following floating-point exceptions are signalling: IEEE_UNDERFLOW_FLAG IEEE_DENORMAL
Note: The following floating-point exceptions are signalling: IEEE_UNDERFLOW_FLAG IEEE_DENORMAL
Note: The following floating-point exceptions are signalling: IEEE_UNDERFLOW_FLAG IEEE_DENORMAL
Note: The following floating-point exceptions are signalling: IEEE_UNDERFLOW_FLAG IEEE_DENORMAL
Note: The following floating-point exceptions are signalling: IEEE_UNDERFLOW_FLAG IEEE_DENORMAL
Note: The following floating-point exceptions are signalling: IEEE_UNDERFLOW_FLAG IEEE_DENORMAL