     Program PWSCF v.7.0 starts on 31Aug2025 at 23:43: 6

     K-points division:     npool     =       8
     R & G space division:  proc/nbgrp/npool/nimage =       4

     Reading input from /home/jvc/QEspresso7.2/ZnO_database/scripts/cell132.in/ZnO-3.53-1.52-132.in
Warning: card &CELL ignored
Warning: card / ignored
Warning: card &FCP ignored
Warning: card / ignored
Warning: card &RISM ignored
Warning: card / ignored

     Current dimensions of program PWSCF are:
     Max number of different atomic species (ntypx) = 10
     Max number of k-points (npk) =  40000
     Max angular momentum in pseudopotentials (lmaxx) =  4
     file Zn.upf: wavefunction(s)  3D renormalized
     Found identity + (  0.0000  0.0000  0.5000) symmetry
     This is a supercell, fractional translations are disabled
     Message from routine setup:
     using ibrav=0 with symmetry is DISCOURAGED, use correct ibrav instead

     Using Slab Decomposition

     bravais-lattice index     =            0
     lattice parameter (alat)  =       6.6732  a.u.
     unit-cell volume          =    2343.1751 (a.u.)^3
     number of atoms/cell      =           24
     number of atomic types    =            2
     number of electrons       =       216.00
     number of Kohn-Sham states=          108
     kinetic-energy cutoff     =      50.0000  Ry
     charge density cutoff     =     400.0000  Ry
     scf convergence threshold =      1.0E-08
     mixing beta               =       0.3000
     number of iterations used =            8  plain     mixing
     Exchange-correlation= PBE
                           (   1   4   3   4   0   0   0)

     celldm(1)=   6.673162  celldm(2)=   0.000000  celldm(3)=   0.000000
     celldm(4)=   0.000000  celldm(5)=   0.000000  celldm(6)=   0.000000

     crystal axes: (cart. coord. in units of alat)
               a(1) = (   1.000000   0.000000   0.000000 )
               a(2) = (  -1.500000   2.598076   0.000000 )
               a(3) = (   0.000000   0.000000   3.034994 )

     reciprocal axes: (cart. coord. in units 2 pi/alat)
               b(1) = (  1.000000  0.577350 -0.000000 )
               b(2) = (  0.000000  0.384900  0.000000 )
               b(3) = (  0.000000 -0.000000  0.329490 )

     PseudoPot. # 1 for Zn read from file:
     /home/jvc/QEspresso7.2/ZnO_database/pseudos/Zn.upf
     MD5 check sum: 7f56cabf9682ed8c977c2f7d0c5985c5
     Pseudo is Ultrasoft + core correction, Zval = 12.0
     Generated using &quot;atomic&quot; code by A. Dal Corso  v.6.2.2
     Using radial grid of 1201 points,  6 beta functions with:
                l(1) =   0
                l(2) =   0
                l(3) =   1
                l(4) =   1
                l(5) =   2
                l(6) =   2
     Q(r) pseudized with 0 coefficients

     PseudoPot. # 2 for O  read from file:
     /home/jvc/QEspresso7.2/ZnO_database/pseudos/O.upf
     MD5 check sum: 91400c9766925bcf19f520983a725ff0
     Pseudo is Ultrasoft + core correction, Zval =  6.0
     Generated using &quot;atomic&quot; code by A. Dal Corso  v.6.3MaX
     Using radial grid of 1095 points,  4 beta functions with:
                l(1) =   0
                l(2) =   0
                l(3) =   1
                l(4) =   1
     Q(r) pseudized with 0 coefficients

     atomic species   valence    mass     pseudopotential
        Zn            12.00    65.38000     Zn( 1.00)
        O              6.00    15.99900     O ( 1.00)

      2 Sym. Ops. (no inversion) found

                                    s                        frac. trans.

      isym =  1     identity

 cryst.   s( 1) = (     1          0          0      )
                  (     0          1          0      )
                  (     0          0          1      )

 cart.    s( 1) = (  1.0000000  0.0000000  0.0000000 )
                  (  0.0000000  1.0000000  0.0000000 )
                  (  0.0000000  0.0000000  1.0000000 )

      isym =  2     inv. 180 deg rotation - cart. axis [1,0,0]

 cryst.   s( 2) = (    -1          0          0      )
                  (     3          1          0      )
                  (     0          0          1      )

 cart.    s( 2) = ( -1.0000000  0.0000000  0.0000000 )
                  (  0.0000000  1.0000000  0.0000000 )
                  (  0.0000000  0.0000000  1.0000000 )

   Cartesian axes

     site n.     atom                  positions (alat units)
         1           Zn  tau(   1) = (   0.5000000   0.2886751   0.7597099  )
         2           Zn  tau(   2) = (   0.0000000   0.5773503   0.0009615  )
         3           O   tau(   3) = (   0.5000000   0.2886751   1.3349062  )
         4           O   tau(   4) = (   0.0000000   0.5773503   0.5761578  )
         5           Zn  tau(   5) = (   0.5000000   0.2886751   2.2772067  )
         6           Zn  tau(   6) = (   0.0000000   0.5773503   1.5184583  )
         7           O   tau(   7) = (   0.5000000   0.2886751   2.8524030  )
         8           O   tau(   8) = (   0.0000000   0.5773503   2.0936546  )
         9           Zn  tau(   9) = (   0.0000000   1.1547005   0.7597099  )
        10           Zn  tau(  10) = (  -0.5000000   1.4433757   0.0009615  )
        11           O   tau(  11) = (   0.0000000   1.1547005   1.3349062  )
        12           O   tau(  12) = (  -0.5000000   1.4433757   0.5761578  )
        13           Zn  tau(  13) = (   0.0000000   1.1547005   2.2772067  )
        14           Zn  tau(  14) = (  -0.5000000   1.4433757   1.5184583  )
        15           O   tau(  15) = (   0.0000000   1.1547005   2.8524030  )
        16           O   tau(  16) = (  -0.5000000   1.4433757   2.0936546  )
        17           Zn  tau(  17) = (  -0.5000000   2.0207259   0.7597099  )
        18           Zn  tau(  18) = (  -1.0000000   2.3094011   0.0009615  )
        19           O   tau(  19) = (  -0.5000000   2.0207259   1.3349062  )
        20           O   tau(  20) = (  -1.0000000   2.3094011   0.5761578  )
        21           Zn  tau(  21) = (  -0.5000000   2.0207259   2.2772067  )
        22           Zn  tau(  22) = (  -1.0000000   2.3094011   1.5184583  )
        23           O   tau(  23) = (  -0.5000000   2.0207259   2.8524030  )
        24           O   tau(  24) = (  -1.0000000   2.3094011   2.0936546  )

   Crystallographic axes

     site n.     atom                  positions (cryst. coord.)
         1           Zn  tau(   1) = (  0.6666667  0.1111111  0.2503168  )
         2           Zn  tau(   2) = (  0.3333333  0.2222222  0.0003168  )
         3           O   tau(   3) = (  0.6666667  0.1111111  0.4398382  )
         4           O   tau(   4) = (  0.3333333  0.2222222  0.1898382  )
         5           Zn  tau(   5) = (  0.6666667  0.1111111  0.7503168  )
         6           Zn  tau(   6) = (  0.3333333  0.2222222  0.5003168  )
         7           O   tau(   7) = (  0.6666667  0.1111111  0.9398382  )
         8           O   tau(   8) = (  0.3333333  0.2222222  0.6898382  )
         9           Zn  tau(   9) = (  0.6666667  0.4444444  0.2503168  )
        10           Zn  tau(  10) = (  0.3333333  0.5555556  0.0003168  )
        11           O   tau(  11) = (  0.6666667  0.4444444  0.4398382  )
        12           O   tau(  12) = (  0.3333333  0.5555556  0.1898382  )
        13           Zn  tau(  13) = (  0.6666667  0.4444444  0.7503168  )
        14           Zn  tau(  14) = (  0.3333333  0.5555556  0.5003168  )
        15           O   tau(  15) = (  0.6666667  0.4444444  0.9398382  )
        16           O   tau(  16) = (  0.3333333  0.5555556  0.6898382  )
        17           Zn  tau(  17) = (  0.6666667  0.7777778  0.2503168  )
        18           Zn  tau(  18) = (  0.3333333  0.8888889  0.0003168  )
        19           O   tau(  19) = (  0.6666667  0.7777778  0.4398382  )
        20           O   tau(  20) = (  0.3333333  0.8888889  0.1898382  )
        21           Zn  tau(  21) = (  0.6666667  0.7777778  0.7503168  )
        22           Zn  tau(  22) = (  0.3333333  0.8888889  0.5003168  )
        23           O   tau(  23) = (  0.6666667  0.7777778  0.9398382  )
        24           O   tau(  24) = (  0.3333333  0.8888889  0.6898382  )

     number of k points=    68
                       cart. coord. in units 2pi/alat
        k(    1) = (   0.0000000   0.0000000   0.0000000), wk =   0.0092593
        k(    2) = (   0.0000000   0.0000000   0.0549150), wk =   0.0185185
        k(    3) = (   0.0000000   0.0000000   0.1098300), wk =   0.0185185
        k(    4) = (   0.0000000   0.0000000  -0.1647450), wk =   0.0092593
        k(    5) = (   0.0000000   0.0641500   0.0000000), wk =   0.0185185
        k(    6) = (   0.0000000   0.0641500   0.0549150), wk =   0.0185185
        k(    7) = (   0.0000000   0.0641500   0.1098300), wk =   0.0185185
        k(    8) = (   0.0000000   0.0641500  -0.1647450), wk =   0.0185185
        k(    9) = (   0.0000000   0.1283001   0.0000000), wk =   0.0185185
        k(   10) = (   0.0000000   0.1283001   0.0549150), wk =   0.0185185
        k(   11) = (   0.0000000   0.1283001   0.1098300), wk =   0.0185185
        k(   12) = (   0.0000000   0.1283001  -0.1647450), wk =   0.0185185
        k(   13) = (   0.0000000  -0.1924501   0.0000000), wk =   0.0092593
        k(   14) = (   0.0000000  -0.1924501   0.0549150), wk =   0.0185185
        k(   15) = (   0.0000000  -0.1924501   0.1098300), wk =   0.0185185
        k(   16) = (   0.0000000  -0.1924501  -0.1647450), wk =   0.0092593
        k(   17) = (   0.1666667   0.0962250   0.0000000), wk =   0.0370370
        k(   18) = (   0.1666667   0.0962250   0.0549150), wk =   0.0370370
        k(   19) = (   0.1666667   0.0962250   0.1098300), wk =   0.0370370
        k(   20) = (   0.1666667   0.0962250  -0.1647450), wk =   0.0370370
        k(   21) = (   0.1666667   0.1603751   0.0000000), wk =   0.0370370
        k(   22) = (   0.1666667   0.1603751   0.0549150), wk =   0.0370370
        k(   23) = (   0.1666667   0.1603751   0.1098300), wk =   0.0370370
        k(   24) = (   0.1666667   0.1603751  -0.1647450), wk =   0.0370370
        k(   25) = (   0.1666667  -0.0320750   0.0000000), wk =   0.0370370
        k(   26) = (   0.1666667  -0.0320750   0.0549150), wk =   0.0370370
        k(   27) = (   0.1666667  -0.0320750   0.1098300), wk =   0.0370370
        k(   28) = (   0.1666667  -0.0320750  -0.1647450), wk =   0.0370370
        k(   29) = (   0.3333333   0.1924501   0.0000000), wk =   0.0185185
        k(   30) = (   0.3333333   0.1924501   0.0549150), wk =   0.0370370
        k(   31) = (   0.3333333   0.1924501   0.1098300), wk =   0.0370370
        k(   32) = (   0.3333333   0.1924501  -0.1647450), wk =   0.0185185
        k(   33) = (   0.3333333   0.2566001   0.0000000), wk =   0.0370370
        k(   34) = (   0.3333333   0.2566001   0.0549150), wk =   0.0370370
        k(   35) = (   0.3333333   0.2566001   0.1098300), wk =   0.0370370
        k(   36) = (   0.3333333   0.2566001  -0.1647450), wk =   0.0370370
        k(   37) = (   0.3333333   0.3207501   0.0000000), wk =   0.0370370
        k(   38) = (   0.3333333   0.3207501   0.0549150), wk =   0.0370370
        k(   39) = (   0.3333333   0.3207501   0.1098300), wk =   0.0370370
[...]

!    total energy              =   -2169.60335851 Ry
     estimated scf accuracy    <          1.1E-09 Ry

     The total energy is the sum of the following terms:
     one-electron contribution =   -1044.34679586 Ry
     hartree contribution      =     752.59049602 Ry
     xc contribution           =    -655.41865037 Ry
     ewald contribution        =   -1222.42840830 Ry

     convergence has been achieved in  32 iterations

     Forces acting on atoms (cartesian axes, Ry/au):

     atom    1 type  1   force =     0.00000000    0.00001491   -0.00587426
     atom    2 type  1   force =     0.00000000    0.00001091   -0.00587147
     atom    3 type  2   force =     0.00000000    0.00000191    0.00587825
     atom    4 type  2   force =     0.00000000   -0.00000474    0.00587563
     atom    5 type  1   force =     0.00000000    0.00001367   -0.00588243
     atom    6 type  1   force =     0.00000000    0.00002379   -0.00587481
     atom    7 type  2   force =     0.00000000    0.00000178    0.00587565
     atom    8 type  2   force =     0.00000000   -0.00000399    0.00587637
     atom    9 type  1   force =     0.00000000   -0.00000114   -0.00586794
     atom   10 type  1   force =     0.00000000    0.00000435   -0.00587837
     atom   11 type  2   force =     0.00000000    0.00000199    0.00587773
     atom   12 type  2   force =     0.00000000   -0.00000414    0.00587633
     atom   13 type  1   force =     0.00000000   -0.00000289   -0.00588942
     atom   14 type  1   force =     0.00000000   -0.00000357   -0.00587975
     atom   15 type  2   force =     0.00000000    0.00000186    0.00587525
     atom   16 type  2   force =     0.00000000   -0.00000486    0.00587695
     atom   17 type  1   force =     0.00000000   -0.00001315   -0.00586603
     atom   18 type  1   force =     0.00000000   -0.00000722   -0.00587889
     atom   19 type  2   force =     0.00000000    0.00000131    0.00587800
     atom   20 type  2   force =     0.00000000   -0.00000474    0.00587651
     atom   21 type  1   force =     0.00000000   -0.00001282   -0.00587808
     atom   22 type  1   force =     0.00000000   -0.00001031   -0.00587790
     atom   23 type  2   force =     0.00000000    0.00000154    0.00587488
     atom   24 type  2   force =     0.00000000   -0.00000444    0.00587779
     The non-local contrib.  to forces
     atom    1 type  1   force =     0.00000000   -0.00000924   -0.16882158
     atom    2 type  1   force =     0.00000000    0.00002011   -0.16881929
     atom    3 type  2   force =     0.00000000    0.00022287   -0.14729873
     atom    4 type  2   force =     0.00000000   -0.00022624   -0.14730286
     atom    5 type  1   force =     0.00000000   -0.00000892   -0.16882639
     atom    6 type  1   force =     0.00000000    0.00002551   -0.16882708
     atom    7 type  2   force =     0.00000000    0.00022378   -0.14730016
     atom    8 type  2   force =     0.00000000   -0.00022368   -0.14730093
     atom    9 type  1   force =     0.00000000   -0.00001728   -0.16882044
     atom   10 type  1   force =     0.00000000    0.00001778   -0.16882272
     atom   11 type  2   force =     0.00000000    0.00022422   -0.14730074
     atom   12 type  2   force =     0.00000000   -0.00022232   -0.14730114
     atom   13 type  1   force =     0.00000000   -0.00001760   -0.16883117
     atom   14 type  1   force =     0.00000000    0.00001561   -0.16882806
     atom   15 type  2   force =     0.00000000    0.00022410   -0.14730205
     atom   16 type  2   force =     0.00000000   -0.00022410   -0.14729822
     atom   17 type  1   force =     0.00000000   -0.00002184   -0.16881994
     atom   18 type  1   force =     0.00000000    0.00001237   -0.16882058
     atom   19 type  2   force =     0.00000000    0.00022599   -0.14729882
     atom   20 type  2   force =     0.00000000   -0.00022347   -0.14730036
     atom   21 type  1   force =     0.00000000   -0.00002176   -0.16882529
     atom   22 type  1   force =     0.00000000    0.00000968   -0.16882747
     atom   23 type  2   force =     0.00000000    0.00022507   -0.14730220
     atom   24 type  2   force =     0.00000000   -0.00022151   -0.14729765
     The ionic contribution  to forces
     atom    1 type  1   force =    -0.00000000    0.00000001   -1.08201231
     atom    2 type  1   force =     0.00000000    0.00000001   -1.08201231
     atom    3 type  2   force =    -0.00000000    0.00000000    1.08201231
     atom    4 type  2   force =     0.00000000    0.00000000    1.08201231
     atom    5 type  1   force =    -0.00000000    0.00000001   -1.08201231
     atom    6 type  1   force =     0.00000000    0.00000001   -1.08201231
     atom    7 type  2   force =    -0.00000000    0.00000000    1.08201231
     atom    8 type  2   force =     0.00000000    0.00000000    1.08201231
     atom    9 type  1   force =    -0.00000001    0.00000001   -1.08201231
     atom   10 type  1   force =     0.00000001   -0.00000001   -1.08201231
     atom   11 type  2   force =    -0.00000001    0.00000000    1.08201231
     atom   12 type  2   force =     0.00000001   -0.00000000    1.08201231
     atom   13 type  1   force =    -0.00000001    0.00000001   -1.08201231
     atom   14 type  1   force =     0.00000001   -0.00000001   -1.08201231
     atom   15 type  2   force =    -0.00000001    0.00000000    1.08201231
     atom   16 type  2   force =     0.00000001   -0.00000000    1.08201231
     atom   17 type  1   force =    -0.00000000   -0.00000001   -1.08201231
     atom   18 type  1   force =     0.00000000   -0.00000001   -1.08201231
     atom   19 type  2   force =    -0.00000000   -0.00000000    1.08201231
     atom   20 type  2   force =     0.00000000   -0.00000000    1.08201231
     atom   21 type  1   force =    -0.00000000   -0.00000001   -1.08201231
     atom   22 type  1   force =     0.00000000   -0.00000001   -1.08201231
     atom   23 type  2   force =    -0.00000000   -0.00000000    1.08201231
     atom   24 type  2   force =     0.00000000   -0.00000000    1.08201231
     The local contribution  to forces
     atom    1 type  1   force =    -0.00000005   -0.00000966    1.23413193
     atom    2 type  1   force =     0.00000000   -0.00001937    1.23412362
     atom    3 type  2   force =    -0.00000001   -0.00023172   -0.93007848
     atom    4 type  2   force =    -0.00000000    0.00021241   -0.93007781
     atom    5 type  1   force =    -0.00000005   -0.00001009    1.23413452
     atom    6 type  1   force =     0.00000000   -0.00003525    1.23412838
     atom    7 type  2   force =    -0.00000001   -0.00022154   -0.93008174
     atom    8 type  2   force =     0.00000000    0.00020118   -0.93007187
     atom    9 type  1   force =    -0.00000009    0.00001031    1.23412319
     atom   10 type  1   force =     0.00000009   -0.00001416    1.23413245
     atom   11 type  2   force =    -0.00000002   -0.00022415   -0.93007946
     atom   12 type  2   force =     0.00000002    0.00021880   -0.93008516
     atom   13 type  1   force =    -0.00000009    0.00001109    1.23414433
     atom   14 type  1   force =     0.00000009   -0.00000485    1.23413359
     atom   15 type  2   force =    -0.00000002   -0.00022458   -0.93007742
     atom   16 type  2   force =     0.00000002    0.00022374   -0.93007360
     atom   17 type  1   force =    -0.00000000    0.00002381    1.23412296
     atom   18 type  1   force =     0.00000005    0.00000104    1.23413224
     atom   19 type  2   force =    -0.00000000   -0.00020836   -0.93007855
     atom   20 type  2   force =     0.00000001    0.00022357   -0.93007626
     atom   21 type  1   force =    -0.00000000    0.00002375    1.23412806
     atom   22 type  1   force =     0.00000005    0.00000702    1.23413353
     atom   23 type  2   force =    -0.00000000   -0.00021194   -0.93007471
     atom   24 type  2   force =     0.00000001    0.00022243   -0.93008006
     The core correction contribution to forces
     atom    1 type  1   force =    -0.00000001    0.00000568    0.01083430
     atom    2 type  1   force =    -0.00000005   -0.00000578    0.01083182
     atom    3 type  2   force =     0.00000001   -0.00000255    0.00123665
     atom    4 type  2   force =    -0.00000001    0.00000253    0.00123789
     atom    5 type  1   force =    -0.00000001    0.00000574    0.01083257
     atom    6 type  1   force =    -0.00000004   -0.00000565    0.01083541
     atom    7 type  2   force =     0.00000001   -0.00000254    0.00123707
     atom    8 type  2   force =    -0.00000001    0.00000247    0.00123592
     atom    9 type  1   force =     0.00000013    0.00000546    0.01083450
     atom   10 type  1   force =    -0.00000013   -0.00000545    0.01083175
     atom   11 type  2   force =    -0.00000001   -0.00000258    0.00123666
     atom   12 type  2   force =     0.00000001    0.00000253    0.00123784
     atom   13 type  1   force =     0.00000013    0.00000550    0.01083257
     atom   14 type  1   force =    -0.00000013   -0.00000560    0.01083531
     atom   15 type  2   force =    -0.00000001   -0.00000257    0.00123710
     atom   16 type  2   force =     0.00000001    0.00000257    0.00123587
     atom   17 type  1   force =     0.00000005    0.00000567    0.01083445
     atom   18 type  1   force =     0.00000001   -0.00000573    0.01083163
     atom   19 type  2   force =     0.00000001   -0.00000253    0.00123665
     atom   20 type  2   force =    -0.00000001    0.00000254    0.00123786
     atom   21 type  1   force =     0.00000005    0.00000563    0.01083273
     atom   22 type  1   force =     0.00000000   -0.00000576    0.01083525
     atom   23 type  2   force =     0.00000001   -0.00000252    0.00123711
     atom   24 type  2   force =    -0.00000001    0.00000250    0.00123586
     The Hubbard contrib.    to forces
     atom    1 type  1   force =     0.00000000    0.00000000    0.00000000
     atom    2 type  1   force =     0.00000000    0.00000000    0.00000000
     atom    3 type  2   force =     0.00000000    0.00000000    0.00000000
     atom    4 type  2   force =     0.00000000    0.00000000    0.00000000
     atom    5 type  1   force =     0.00000000    0.00000000    0.00000000
     atom    6 type  1   force =     0.00000000    0.00000000    0.00000000
     atom    7 type  2   force =     0.00000000    0.00000000    0.00000000
     atom    8 type  2   force =     0.00000000    0.00000000    0.00000000
     atom    9 type  1   force =     0.00000000    0.00000000    0.00000000
     atom   10 type  1   force =     0.00000000    0.00000000    0.00000000
     atom   11 type  2   force =     0.00000000    0.00000000    0.00000000
     atom   12 type  2   force =     0.00000000    0.00000000    0.00000000
     atom   13 type  1   force =     0.00000000    0.00000000    0.00000000
     atom   14 type  1   force =     0.00000000    0.00000000    0.00000000
     atom   15 type  2   force =     0.00000000    0.00000000    0.00000000
     atom   16 type  2   force =     0.00000000    0.00000000    0.00000000
     atom   17 type  1   force =     0.00000000    0.00000000    0.00000000
     atom   18 type  1   force =     0.00000000    0.00000000    0.00000000
     atom   19 type  2   force =     0.00000000    0.00000000    0.00000000
     atom   20 type  2   force =     0.00000000    0.00000000    0.00000000
     atom   21 type  1   force =     0.00000000    0.00000000    0.00000000
     atom   22 type  1   force =     0.00000000    0.00000000    0.00000000
     atom   23 type  2   force =     0.00000000    0.00000000    0.00000000
     atom   24 type  2   force =     0.00000000    0.00000000    0.00000000
     The SCF correction term to forces
     atom    1 type  1   force =     0.00000000    0.00002957   -0.00000926
     atom    2 type  1   force =    -0.00000000    0.00001737    0.00000203
     atom    3 type  2   force =    -0.00000000    0.00001476    0.00000384
     atom    4 type  2   force =     0.00000000    0.00000800    0.00000344
     atom    5 type  1   force =     0.00000000    0.00002838   -0.00001348
     atom    6 type  1   force =    -0.00000000    0.00004061   -0.00000187
     atom    7 type  2   force =    -0.00000000    0.00000351    0.00000552
     atom    8 type  2   force =     0.00000000    0.00001748   -0.00000171
     atom    9 type  1   force =     0.00000000    0.00000181    0.00000446
     atom   10 type  1   force =    -0.00000000    0.00000763   -0.00001019
     atom   11 type  2   force =     0.00000000    0.00000594    0.00000630
     atom   12 type  2   force =    -0.00000000   -0.00000172    0.00000981
     atom   13 type  1   force =     0.00000000   -0.00000044   -0.00002549
     atom   14 type  1   force =    -0.00000000   -0.00000728   -0.00001094
     atom   15 type  2   force =     0.00000000    0.00000635    0.00000265
     atom   16 type  2   force =    -0.00000000   -0.00000563   -0.00000207
     atom   17 type  1   force =     0.00000000   -0.00001934    0.00000616
     atom   18 type  1   force =    -0.00000000   -0.00001344   -0.00001253
     atom   19 type  2   force =    -0.00000000   -0.00001234    0.00000375
     atom   20 type  2   force =     0.00000000   -0.00000592    0.00000030
     atom   21 type  1   force =     0.00000000   -0.00001900   -0.00000393
     atom   22 type  1   force =    -0.00000000   -0.00001979   -0.00000955
     atom   23 type  2   force =    -0.00000000   -0.00000763   -0.00000030
     atom   24 type  2   force =     0.00000000   -0.00000641    0.00000467

     Total force =     0.028789     Total SCF correction =     0.000088

     General routines

     Parallel routines

   This run was terminated on:   0:18:31   1Sep2025

   JOB DONE.
Note: The following floating-point exceptions are signalling: IEEE_UNDERFLOW_FLAG IEEE_DENORMAL
Note: The following floating-point exceptions are signalling: IEEE_UNDERFLOW_FLAG IEEE_DENORMAL
Note: The following floating-point exceptions are signalling: IEEE_UNDERFLOW_FLAG IEEE_DENORMAL
Note: The following floating-point exceptions are signalling: IEEE_UNDERFLOW_FLAG IEEE_DENORMAL
Note: The following floating-point exceptions are signalling: IEEE_UNDERFLOW_FLAG IEEE_DENORMAL
Note: The following floating-point exceptions are signalling: IEEE_UNDERFLOW_FLAG IEEE_DENORMAL
Note: The following floating-point exceptions are signalling: IEEE_UNDERFLOW_FLAG IEEE_DENORMAL
Note: The following floating-point exceptions are signalling: IEEE_UNDERFLOW_FLAG IEEE_DENORMAL
Note: The following floating-point exceptions are signalling: IEEE_UNDERFLOW_FLAG IEEE_DENORMAL
Note: The following floating-point exceptions are signalling: IEEE_UNDERFLOW_FLAG IEEE_DENORMAL
Note: The following floating-point exceptions are signalling: IEEE_UNDERFLOW_FLAG IEEE_DENORMAL
Note: The following floating-point exceptions are signalling: IEEE_UNDERFLOW_FLAG IEEE_DENORMAL
Note: The following floating-point exceptions are signalling: IEEE_UNDERFLOW_FLAG IEEE_DENORMAL
Note: The following floating-point exceptions are signalling: IEEE_UNDERFLOW_FLAG IEEE_DENORMAL
Note: The following floating-point exceptions are signalling: IEEE_UNDERFLOW_FLAG IEEE_DENORMAL
Note: The following floating-point exceptions are signalling: IEEE_UNDERFLOW_FLAG IEEE_DENORMAL
Note: The following floating-point exceptions are signalling: IEEE_UNDERFLOW_FLAG IEEE_DENORMAL
Note: The following floating-point exceptions are signalling: IEEE_UNDERFLOW_FLAG IEEE_DENORMAL
Note: The following floating-point exceptions are signalling: IEEE_UNDERFLOW_FLAG IEEE_DENORMAL
Note: The following floating-point exceptions are signalling: IEEE_UNDERFLOW_FLAG IEEE_DENORMAL
Note: The following floating-point exceptions are signalling: IEEE_UNDERFLOW_FLAG IEEE_DENORMAL
Note: The following floating-point exceptions are signalling: IEEE_UNDERFLOW_FLAG IEEE_DENORMAL
Note: The following floating-point exceptions are signalling: IEEE_UNDERFLOW_FLAG IEEE_DENORMAL
Note: The following floating-point exceptions are signalling: IEEE_UNDERFLOW_FLAG IEEE_DENORMAL
Note: The following floating-point exceptions are signalling: IEEE_UNDERFLOW_FLAG IEEE_DENORMAL
Note: The following floating-point exceptions are signalling: IEEE_UNDERFLOW_FLAG IEEE_DENORMAL
Note: The following floating-point exceptions are signalling: IEEE_UNDERFLOW_FLAG IEEE_DENORMAL
Note: The following floating-point exceptions are signalling: IEEE_UNDERFLOW_FLAG IEEE_DENORMAL
Note: The following floating-point exceptions are signalling: IEEE_UNDERFLOW_FLAG IEEE_DENORMAL
Note: The following floating-point exceptions are signalling: IEEE_UNDERFLOW_FLAG IEEE_DENORMAL
Note: The following floating-point exceptions are signalling: IEEE_UNDERFLOW_FLAG IEEE_DENORMAL
Note: The following floating-point exceptions are signalling: IEEE_UNDERFLOW_FLAG IEEE_DENORMAL