     Program PWSCF v.7.0 starts on 31Aug2025 at 10:54:38

     K-points division:     npool     =       8
     R & G space division:  proc/nbgrp/npool/nimage =       4

     Reading input from /home/jvc/QEspresso7.2/ZnO_database/scripts/cell132.in/ZnO-3.40-1.61-132.in
Warning: card &CELL ignored
Warning: card / ignored
Warning: card &FCP ignored
Warning: card / ignored
Warning: card &RISM ignored
Warning: card / ignored

     Current dimensions of program PWSCF are:
     Max number of different atomic species (ntypx) = 10
     Max number of k-points (npk) =  40000
     Max angular momentum in pseudopotentials (lmaxx) =  4
     file Zn.upf: wavefunction(s)  3D renormalized
     Found identity + (  0.0000  0.0000  0.5000) symmetry
     This is a supercell, fractional translations are disabled
     Message from routine setup:
     using ibrav=0 with symmetry is DISCOURAGED, use correct ibrav instead

     Using Slab Decomposition

     bravais-lattice index     =            0
     lattice parameter (alat)  =       6.4260  a.u.
     unit-cell volume          =    2225.9000 (a.u.)^3
     number of atoms/cell      =           24
     number of atomic types    =            2
     number of electrons       =       216.00
     number of Kohn-Sham states=          108
     kinetic-energy cutoff     =      50.0000  Ry
     charge density cutoff     =     400.0000  Ry
     scf convergence threshold =      1.0E-08
     mixing beta               =       0.3000
     number of iterations used =            8  plain     mixing
     Exchange-correlation= PBE
                           (   1   4   3   4   0   0   0)

     celldm(1)=   6.426008  celldm(2)=   0.000000  celldm(3)=   0.000000
     celldm(4)=   0.000000  celldm(5)=   0.000000  celldm(6)=   0.000000

     crystal axes: (cart. coord. in units of alat)
               a(1) = (   1.000000   0.000000   0.000000 )
               a(2) = (  -1.500000   2.598076   0.000000 )
               a(3) = (   0.000000   0.000000   3.228717 )

     reciprocal axes: (cart. coord. in units 2 pi/alat)
               b(1) = (  1.000000  0.577350 -0.000000 )
               b(2) = (  0.000000  0.384900  0.000000 )
               b(3) = (  0.000000 -0.000000  0.309721 )

     PseudoPot. # 1 for Zn read from file:
     /home/jvc/QEspresso7.2/ZnO_database/pseudos/Zn.upf
     MD5 check sum: 7f56cabf9682ed8c977c2f7d0c5985c5
     Pseudo is Ultrasoft + core correction, Zval = 12.0
     Generated using &quot;atomic&quot; code by A. Dal Corso  v.6.2.2
     Using radial grid of 1201 points,  6 beta functions with:
                l(1) =   0
                l(2) =   0
                l(3) =   1
                l(4) =   1
                l(5) =   2
                l(6) =   2
     Q(r) pseudized with 0 coefficients

     PseudoPot. # 2 for O  read from file:
     /home/jvc/QEspresso7.2/ZnO_database/pseudos/O.upf
     MD5 check sum: 91400c9766925bcf19f520983a725ff0
     Pseudo is Ultrasoft + core correction, Zval =  6.0
     Generated using &quot;atomic&quot; code by A. Dal Corso  v.6.3MaX
     Using radial grid of 1095 points,  4 beta functions with:
                l(1) =   0
                l(2) =   0
                l(3) =   1
                l(4) =   1
     Q(r) pseudized with 0 coefficients

     atomic species   valence    mass     pseudopotential
        Zn            12.00    65.38000     Zn( 1.00)
        O              6.00    15.99900     O ( 1.00)

      2 Sym. Ops. (no inversion) found

                                    s                        frac. trans.

      isym =  1     identity

 cryst.   s( 1) = (     1          0          0      )
                  (     0          1          0      )
                  (     0          0          1      )

 cart.    s( 1) = (  1.0000000  0.0000000  0.0000000 )
                  (  0.0000000  1.0000000  0.0000000 )
                  (  0.0000000  0.0000000  1.0000000 )

      isym =  2     inv. 180 deg rotation - cart. axis [1,0,0]

 cryst.   s( 2) = (    -1          0          0      )
                  (     3          1          0      )
                  (     0          0          1      )

 cart.    s( 2) = ( -1.0000000  0.0000000  0.0000000 )
                  (  0.0000000  1.0000000  0.0000000 )
                  (  0.0000000  0.0000000  1.0000000 )

   Cartesian axes

     site n.     atom                  positions (alat units)
         1           Zn  tau(   1) = (   0.5000000   0.2886751   0.8082020  )
         2           Zn  tau(   2) = (   0.0000000   0.5773503   0.0010228  )
         3           O   tau(   3) = (   0.5000000   0.2886751   1.4201130  )
         4           O   tau(   4) = (   0.0000000   0.5773503   0.6129338  )
         5           Zn  tau(   5) = (   0.5000000   0.2886751   2.4225604  )
         6           Zn  tau(   6) = (   0.0000000   0.5773503   1.6153812  )
         7           O   tau(   7) = (   0.5000000   0.2886751   3.0344713  )
         8           O   tau(   8) = (   0.0000000   0.5773503   2.2272921  )
         9           Zn  tau(   9) = (   0.0000000   1.1547005   0.8082020  )
        10           Zn  tau(  10) = (  -0.5000000   1.4433757   0.0010228  )
        11           O   tau(  11) = (   0.0000000   1.1547005   1.4201130  )
        12           O   tau(  12) = (  -0.5000000   1.4433757   0.6129338  )
        13           Zn  tau(  13) = (   0.0000000   1.1547005   2.4225604  )
        14           Zn  tau(  14) = (  -0.5000000   1.4433757   1.6153812  )
        15           O   tau(  15) = (   0.0000000   1.1547005   3.0344713  )
        16           O   tau(  16) = (  -0.5000000   1.4433757   2.2272921  )
        17           Zn  tau(  17) = (  -0.5000000   2.0207259   0.8082020  )
        18           Zn  tau(  18) = (  -1.0000000   2.3094011   0.0010228  )
        19           O   tau(  19) = (  -0.5000000   2.0207259   1.4201130  )
        20           O   tau(  20) = (  -1.0000000   2.3094011   0.6129338  )
        21           Zn  tau(  21) = (  -0.5000000   2.0207259   2.4225604  )
        22           Zn  tau(  22) = (  -1.0000000   2.3094011   1.6153812  )
        23           O   tau(  23) = (  -0.5000000   2.0207259   3.0344713  )
        24           O   tau(  24) = (  -1.0000000   2.3094011   2.2272921  )

   Crystallographic axes

     site n.     atom                  positions (cryst. coord.)
         1           Zn  tau(   1) = (  0.6666667  0.1111111  0.2503168  )
         2           Zn  tau(   2) = (  0.3333333  0.2222222  0.0003168  )
         3           O   tau(   3) = (  0.6666667  0.1111111  0.4398382  )
         4           O   tau(   4) = (  0.3333333  0.2222222  0.1898382  )
         5           Zn  tau(   5) = (  0.6666667  0.1111111  0.7503168  )
         6           Zn  tau(   6) = (  0.3333333  0.2222222  0.5003168  )
         7           O   tau(   7) = (  0.6666667  0.1111111  0.9398382  )
         8           O   tau(   8) = (  0.3333333  0.2222222  0.6898382  )
         9           Zn  tau(   9) = (  0.6666667  0.4444444  0.2503168  )
        10           Zn  tau(  10) = (  0.3333333  0.5555556  0.0003168  )
        11           O   tau(  11) = (  0.6666667  0.4444444  0.4398382  )
        12           O   tau(  12) = (  0.3333333  0.5555556  0.1898382  )
        13           Zn  tau(  13) = (  0.6666667  0.4444444  0.7503168  )
        14           Zn  tau(  14) = (  0.3333333  0.5555556  0.5003168  )
        15           O   tau(  15) = (  0.6666667  0.4444444  0.9398382  )
        16           O   tau(  16) = (  0.3333333  0.5555556  0.6898382  )
        17           Zn  tau(  17) = (  0.6666667  0.7777778  0.2503168  )
        18           Zn  tau(  18) = (  0.3333333  0.8888889  0.0003168  )
        19           O   tau(  19) = (  0.6666667  0.7777778  0.4398382  )
        20           O   tau(  20) = (  0.3333333  0.8888889  0.1898382  )
        21           Zn  tau(  21) = (  0.6666667  0.7777778  0.7503168  )
        22           Zn  tau(  22) = (  0.3333333  0.8888889  0.5003168  )
        23           O   tau(  23) = (  0.6666667  0.7777778  0.9398382  )
        24           O   tau(  24) = (  0.3333333  0.8888889  0.6898382  )

     number of k points=    68
                       cart. coord. in units 2pi/alat
        k(    1) = (   0.0000000   0.0000000   0.0000000), wk =   0.0092593
        k(    2) = (   0.0000000   0.0000000   0.0516201), wk =   0.0185185
        k(    3) = (   0.0000000   0.0000000   0.1032402), wk =   0.0185185
        k(    4) = (   0.0000000   0.0000000  -0.1548603), wk =   0.0092593
        k(    5) = (   0.0000000   0.0641500   0.0000000), wk =   0.0185185
        k(    6) = (   0.0000000   0.0641500   0.0516201), wk =   0.0185185
        k(    7) = (   0.0000000   0.0641500   0.1032402), wk =   0.0185185
        k(    8) = (   0.0000000   0.0641500  -0.1548603), wk =   0.0185185
        k(    9) = (   0.0000000   0.1283001   0.0000000), wk =   0.0185185
        k(   10) = (   0.0000000   0.1283001   0.0516201), wk =   0.0185185
        k(   11) = (   0.0000000   0.1283001   0.1032402), wk =   0.0185185
        k(   12) = (   0.0000000   0.1283001  -0.1548603), wk =   0.0185185
        k(   13) = (   0.0000000  -0.1924501   0.0000000), wk =   0.0092593
        k(   14) = (   0.0000000  -0.1924501   0.0516201), wk =   0.0185185
        k(   15) = (   0.0000000  -0.1924501   0.1032402), wk =   0.0185185
        k(   16) = (   0.0000000  -0.1924501  -0.1548603), wk =   0.0092593
        k(   17) = (   0.1666667   0.0962250   0.0000000), wk =   0.0370370
        k(   18) = (   0.1666667   0.0962250   0.0516201), wk =   0.0370370
        k(   19) = (   0.1666667   0.0962250   0.1032402), wk =   0.0370370
        k(   20) = (   0.1666667   0.0962250  -0.1548603), wk =   0.0370370
        k(   21) = (   0.1666667   0.1603751   0.0000000), wk =   0.0370370
        k(   22) = (   0.1666667   0.1603751   0.0516201), wk =   0.0370370
        k(   23) = (   0.1666667   0.1603751   0.1032402), wk =   0.0370370
        k(   24) = (   0.1666667   0.1603751  -0.1548603), wk =   0.0370370
        k(   25) = (   0.1666667  -0.0320750   0.0000000), wk =   0.0370370
        k(   26) = (   0.1666667  -0.0320750   0.0516201), wk =   0.0370370
        k(   27) = (   0.1666667  -0.0320750   0.1032402), wk =   0.0370370
        k(   28) = (   0.1666667  -0.0320750  -0.1548603), wk =   0.0370370
        k(   29) = (   0.3333333   0.1924501   0.0000000), wk =   0.0185185
        k(   30) = (   0.3333333   0.1924501   0.0516201), wk =   0.0370370
        k(   31) = (   0.3333333   0.1924501   0.1032402), wk =   0.0370370
        k(   32) = (   0.3333333   0.1924501  -0.1548603), wk =   0.0185185
        k(   33) = (   0.3333333   0.2566001   0.0000000), wk =   0.0370370
        k(   34) = (   0.3333333   0.2566001   0.0516201), wk =   0.0370370
        k(   35) = (   0.3333333   0.2566001   0.1032402), wk =   0.0370370
        k(   36) = (   0.3333333   0.2566001  -0.1548603), wk =   0.0370370
        k(   37) = (   0.3333333   0.3207501   0.0000000), wk =   0.0370370
        k(   38) = (   0.3333333   0.3207501   0.0516201), wk =   0.0370370
        k(   39) = (   0.3333333   0.3207501   0.1032402), wk =   0.0370370
[...]
     estimated scf accuracy    <          2.0E-09 Ry

     The total energy is the sum of the following terms:
     one-electron contribution =   -1006.90175947 Ry
     hartree contribution      =     738.40512767 Ry
     xc contribution           =    -655.92289350 Ry
     ewald contribution        =   -1245.30928766 Ry

     convergence has been achieved in  31 iterations

     Forces acting on atoms (cartesian axes, Ry/au):

     atom    1 type  1   force =     0.00000000   -0.00000264   -0.00008288
     atom    2 type  1   force =     0.00000000    0.00001019   -0.00009559
     atom    3 type  2   force =     0.00000000    0.00000426    0.00009409
     atom    4 type  2   force =     0.00000000   -0.00000457    0.00009270
     atom    5 type  1   force =     0.00000000    0.00001066   -0.00010542
     atom    6 type  1   force =     0.00000000    0.00000257   -0.00009047
     atom    7 type  2   force =     0.00000000    0.00000440    0.00009171
     atom    8 type  2   force =     0.00000000   -0.00000454    0.00009320
     atom    9 type  1   force =     0.00000000   -0.00000686   -0.00008648
     atom   10 type  1   force =     0.00000000   -0.00001277   -0.00009206
     atom   11 type  2   force =     0.00000000    0.00000424    0.00009408
     atom   12 type  2   force =     0.00000000   -0.00000454    0.00009261
     atom   13 type  1   force =     0.00000000   -0.00001411   -0.00009922
     atom   14 type  1   force =     0.00000000   -0.00000942   -0.00009146
     atom   15 type  2   force =     0.00000000    0.00000434    0.00009173
     atom   16 type  2   force =     0.00000000   -0.00000449    0.00009314
     atom   17 type  1   force =     0.00000000    0.00000457   -0.00008732
     atom   18 type  1   force =     0.00000000    0.00000863   -0.00008288
     atom   19 type  2   force =     0.00000000    0.00000444    0.00009423
     atom   20 type  2   force =     0.00000000   -0.00000461    0.00009259
     atom   21 type  1   force =     0.00000000   -0.00000221   -0.00010416
     atom   22 type  1   force =     0.00000000    0.00001252   -0.00009697
     atom   23 type  2   force =     0.00000000    0.00000440    0.00009156
     atom   24 type  2   force =     0.00000000   -0.00000447    0.00009326
     The non-local contrib.  to forces
     atom    1 type  1   force =     0.00000000   -0.00000225   -0.00454235
     atom    2 type  1   force =     0.00000000    0.00000630   -0.00454543
     atom    3 type  2   force =     0.00000000    0.00023163    0.00620307
     atom    4 type  2   force =     0.00000000   -0.00023416    0.00620152
     atom    5 type  1   force =     0.00000000    0.00000359   -0.00455045
     atom    6 type  1   force =     0.00000000    0.00000396   -0.00454840
     atom    7 type  2   force =     0.00000000    0.00023084    0.00620451
     atom    8 type  2   force =     0.00000000   -0.00023530    0.00620530
     atom    9 type  1   force =     0.00000000   -0.00000567   -0.00454465
     atom   10 type  1   force =     0.00000000   -0.00000403   -0.00454236
     atom   11 type  2   force =     0.00000000    0.00023758    0.00620212
     atom   12 type  2   force =     0.00000000   -0.00023236    0.00620207
     atom   13 type  1   force =     0.00000000   -0.00000899   -0.00454820
     atom   14 type  1   force =     0.00000000   -0.00000435   -0.00454840
     atom   15 type  2   force =     0.00000000    0.00023609    0.00620434
     atom   16 type  2   force =     0.00000000   -0.00022966    0.00620444
     atom   17 type  1   force =     0.00000000    0.00000116   -0.00454303
     atom   18 type  1   force =     0.00000000    0.00000460   -0.00453893
     atom   19 type  2   force =     0.00000000    0.00023397    0.00620436
     atom   20 type  2   force =     0.00000000   -0.00023640    0.00620015
     atom   21 type  1   force =     0.00000000   -0.00000127   -0.00454966
     atom   22 type  1   force =     0.00000000    0.00000698   -0.00455027
     atom   23 type  2   force =     0.00000000    0.00023623    0.00620194
     atom   24 type  2   force =     0.00000000   -0.00023822    0.00620638
     The ionic contribution  to forces
     atom    1 type  1   force =    -0.00000000    0.00000001    0.05798523
     atom    2 type  1   force =     0.00000000    0.00000001    0.05798523
     atom    3 type  2   force =    -0.00000000    0.00000000   -0.05798523
     atom    4 type  2   force =     0.00000000    0.00000000   -0.05798523
     atom    5 type  1   force =    -0.00000000    0.00000001    0.05798523
     atom    6 type  1   force =     0.00000000    0.00000001    0.05798523
     atom    7 type  2   force =    -0.00000000    0.00000000   -0.05798523
     atom    8 type  2   force =     0.00000000    0.00000000   -0.05798523
     atom    9 type  1   force =    -0.00000001    0.00000001    0.05798522
     atom   10 type  1   force =     0.00000001   -0.00000001    0.05798522
     atom   11 type  2   force =    -0.00000001    0.00000000   -0.05798522
     atom   12 type  2   force =     0.00000001   -0.00000000   -0.05798522
     atom   13 type  1   force =    -0.00000001    0.00000001    0.05798522
     atom   14 type  1   force =     0.00000001   -0.00000001    0.05798522
     atom   15 type  2   force =    -0.00000001    0.00000000   -0.05798522
     atom   16 type  2   force =     0.00000001   -0.00000000   -0.05798522
     atom   17 type  1   force =    -0.00000000   -0.00000001    0.05798523
     atom   18 type  1   force =     0.00000000   -0.00000001    0.05798523
     atom   19 type  2   force =    -0.00000000   -0.00000000   -0.05798523
     atom   20 type  2   force =     0.00000000   -0.00000000   -0.05798523
     atom   21 type  1   force =    -0.00000000   -0.00000001    0.05798523
     atom   22 type  1   force =     0.00000000   -0.00000001    0.05798523
     atom   23 type  2   force =    -0.00000000   -0.00000000   -0.05798523
     atom   24 type  2   force =     0.00000000   -0.00000000   -0.05798523
     The local contribution  to forces
     atom    1 type  1   force =    -0.00000004   -0.00000590   -0.05389499
     atom    2 type  1   force =    -0.00000000   -0.00000573   -0.05387703
     atom    3 type  2   force =    -0.00000001   -0.00022851    0.05194287
     atom    4 type  2   force =     0.00000000    0.00022697    0.05193998
     atom    5 type  1   force =    -0.00000004   -0.00002641   -0.05386809
     atom    6 type  1   force =     0.00000000    0.00000526   -0.05388687
     atom    7 type  2   force =    -0.00000001   -0.00023293    0.05194565
     atom    8 type  2   force =     0.00000000    0.00022475    0.05194814
     atom    9 type  1   force =    -0.00000009    0.00000058   -0.05388888
     atom   10 type  1   force =     0.00000009    0.00002920   -0.05388354
     atom   11 type  2   force =    -0.00000002   -0.00022242    0.05194227
     atom   12 type  2   force =     0.00000002    0.00023114    0.05194198
     atom   13 type  1   force =    -0.00000009    0.00001209   -0.05387770
     atom   14 type  1   force =     0.00000009    0.00002391   -0.05388512
     atom   15 type  2   force =    -0.00000002   -0.00022152    0.05194653
     atom   16 type  2   force =     0.00000002    0.00023387    0.05194856
     atom   17 type  1   force =    -0.00000000   -0.00001571   -0.05388791
     atom   18 type  1   force =     0.00000004   -0.00000329   -0.05389715
     atom   19 type  2   force =    -0.00000000   -0.00023169    0.05194474
     atom   20 type  2   force =     0.00000001    0.00022469    0.05194016
     atom   21 type  1   force =    -0.00000000   -0.00000637   -0.05386881
     atom   22 type  1   force =     0.00000004   -0.00000872   -0.05387830
     atom   23 type  2   force =     0.00000000   -0.00022816    0.05194486
     atom   24 type  2   force =     0.00000001    0.00022336    0.05195118
     The core correction contribution to forces
     atom    1 type  1   force =    -0.00000003    0.00000732    0.00035228
     atom    2 type  1   force =     0.00000005   -0.00000705    0.00034900
     atom    3 type  2   force =    -0.00000000   -0.00000260   -0.00006955
     atom    4 type  2   force =    -0.00000000    0.00000266   -0.00007004
     atom    5 type  1   force =    -0.00000003    0.00000768    0.00034859
     atom    6 type  1   force =     0.00000005   -0.00000731    0.00035197
     atom    7 type  2   force =    -0.00000000   -0.00000260   -0.00007158
     atom    8 type  2   force =    -0.00000000    0.00000267   -0.00007109
     atom    9 type  1   force =     0.00000000    0.00000725    0.00035221
     atom   10 type  1   force =    -0.00000000   -0.00000766    0.00034900
     atom   11 type  2   force =    -0.00000000   -0.00000270   -0.00006954
     atom   12 type  2   force =     0.00000000    0.00000264   -0.00007005
     atom   13 type  1   force =     0.00000000    0.00000706    0.00034880
     atom   14 type  1   force =    -0.00000000   -0.00000736    0.00035184
     atom   15 type  2   force =    -0.00000000   -0.00000268   -0.00007158
     atom   16 type  2   force =     0.00000000    0.00000260   -0.00007107
     atom   17 type  1   force =    -0.00000005    0.00000723    0.00035199
     atom   18 type  1   force =     0.00000003   -0.00000711    0.00034928
     atom   19 type  2   force =     0.00000000   -0.00000266   -0.00006957
     atom   20 type  2   force =     0.00000000    0.00000266   -0.00007002
     atom   21 type  1   force =    -0.00000005    0.00000706    0.00034850
     atom   22 type  1   force =     0.00000003   -0.00000714    0.00035177
     atom   23 type  2   force =     0.00000000   -0.00000268   -0.00007155
     atom   24 type  2   force =     0.00000000    0.00000268   -0.00007109
     The Hubbard contrib.    to forces
     atom    1 type  1   force =     0.00000000    0.00000000    0.00000000
     atom    2 type  1   force =     0.00000000    0.00000000    0.00000000
     atom    3 type  2   force =     0.00000000    0.00000000    0.00000000
     atom    4 type  2   force =     0.00000000    0.00000000    0.00000000
     atom    5 type  1   force =     0.00000000    0.00000000    0.00000000
     atom    6 type  1   force =     0.00000000    0.00000000    0.00000000
     atom    7 type  2   force =     0.00000000    0.00000000    0.00000000
     atom    8 type  2   force =     0.00000000    0.00000000    0.00000000
     atom    9 type  1   force =     0.00000000    0.00000000    0.00000000
     atom   10 type  1   force =     0.00000000    0.00000000    0.00000000
     atom   11 type  2   force =     0.00000000    0.00000000    0.00000000
     atom   12 type  2   force =     0.00000000    0.00000000    0.00000000
     atom   13 type  1   force =     0.00000000    0.00000000    0.00000000
     atom   14 type  1   force =     0.00000000    0.00000000    0.00000000
     atom   15 type  2   force =     0.00000000    0.00000000    0.00000000
     atom   16 type  2   force =     0.00000000    0.00000000    0.00000000
     atom   17 type  1   force =     0.00000000    0.00000000    0.00000000
     atom   18 type  1   force =     0.00000000    0.00000000    0.00000000
     atom   19 type  2   force =     0.00000000    0.00000000    0.00000000
     atom   20 type  2   force =     0.00000000    0.00000000    0.00000000
     atom   21 type  1   force =     0.00000000    0.00000000    0.00000000
     atom   22 type  1   force =     0.00000000    0.00000000    0.00000000
     atom   23 type  2   force =     0.00000000    0.00000000    0.00000000
     atom   24 type  2   force =     0.00000000    0.00000000    0.00000000
     The SCF correction term to forces
     atom    1 type  1   force =     0.00000000   -0.00000173    0.00001698
     atom    2 type  1   force =     0.00000000    0.00001676   -0.00000731
     atom    3 type  2   force =     0.00000000    0.00000383    0.00000297
     atom    4 type  2   force =     0.00000000    0.00000005    0.00000651
     atom    5 type  1   force =    -0.00000000    0.00002588   -0.00002066
     atom    6 type  1   force =     0.00000000    0.00000075    0.00000765
     atom    7 type  2   force =     0.00000000    0.00000918   -0.00000161
     atom    8 type  2   force =     0.00000000    0.00000343   -0.00000388
     atom    9 type  1   force =     0.00000000   -0.00000893    0.00000966
     atom   10 type  1   force =    -0.00000000   -0.00003018   -0.00000034
     atom   11 type  2   force =     0.00000000   -0.00000812    0.00000449
     atom   12 type  2   force =    -0.00000000   -0.00000586    0.00000387
     atom   13 type  1   force =     0.00000000   -0.00002418   -0.00000730
     atom   14 type  1   force =    -0.00000000   -0.00002152    0.00000504
     atom   15 type  2   force =     0.00000000   -0.00000747   -0.00000230
     atom   16 type  2   force =    -0.00000000   -0.00001121   -0.00000352
     atom   17 type  1   force =    -0.00000000    0.00001199    0.00000644
     atom   18 type  1   force =    -0.00000000    0.00001453    0.00001873
     atom   19 type  2   force =    -0.00000000    0.00000493   -0.00000004
     atom   20 type  2   force =    -0.00000000    0.00000454    0.00000758
     atom   21 type  1   force =    -0.00000000   -0.00000152   -0.00001937
     atom   22 type  1   force =    -0.00000000    0.00002150   -0.00000535
     atom   23 type  2   force =    -0.00000000   -0.00000088    0.00000158
     atom   24 type  2   force =    -0.00000000    0.00000780   -0.00000795

     Total force =     0.000457     Total SCF correction =     0.000080
     SCF correction compared to forces is large: reduce conv_thr to get better values

     General routines

     Parallel routines

   This run was terminated on:  11:31:40  31Aug2025

   JOB DONE.
Note: The following floating-point exceptions are signalling: IEEE_UNDERFLOW_FLAG IEEE_DENORMAL
Note: The following floating-point exceptions are signalling: IEEE_UNDERFLOW_FLAG IEEE_DENORMAL
Note: The following floating-point exceptions are signalling: IEEE_UNDERFLOW_FLAG IEEE_DENORMAL
Note: The following floating-point exceptions are signalling: IEEE_UNDERFLOW_FLAG IEEE_DENORMAL
Note: The following floating-point exceptions are signalling: IEEE_UNDERFLOW_FLAG IEEE_DENORMAL
Note: The following floating-point exceptions are signalling: IEEE_UNDERFLOW_FLAG IEEE_DENORMAL
Note: The following floating-point exceptions are signalling: IEEE_UNDERFLOW_FLAG IEEE_DENORMAL
Note: The following floating-point exceptions are signalling: IEEE_UNDERFLOW_FLAG IEEE_DENORMAL
Note: The following floating-point exceptions are signalling: IEEE_UNDERFLOW_FLAG IEEE_DENORMAL
Note: The following floating-point exceptions are signalling: IEEE_UNDERFLOW_FLAG IEEE_DENORMAL
Note: The following floating-point exceptions are signalling: IEEE_UNDERFLOW_FLAG IEEE_DENORMAL
Note: The following floating-point exceptions are signalling: IEEE_UNDERFLOW_FLAG IEEE_DENORMAL
Note: The following floating-point exceptions are signalling: IEEE_UNDERFLOW_FLAG IEEE_DENORMAL
Note: The following floating-point exceptions are signalling: IEEE_UNDERFLOW_FLAG IEEE_DENORMAL
Note: The following floating-point exceptions are signalling: IEEE_UNDERFLOW_FLAG IEEE_DENORMAL
Note: The following floating-point exceptions are signalling: IEEE_UNDERFLOW_FLAG IEEE_DENORMAL
Note: The following floating-point exceptions are signalling: IEEE_UNDERFLOW_FLAG IEEE_DENORMAL
Note: The following floating-point exceptions are signalling: IEEE_UNDERFLOW_FLAG IEEE_DENORMAL
Note: The following floating-point exceptions are signalling: IEEE_UNDERFLOW_FLAG IEEE_DENORMAL
Note: The following floating-point exceptions are signalling: IEEE_UNDERFLOW_FLAG IEEE_DENORMAL
Note: The following floating-point exceptions are signalling: IEEE_UNDERFLOW_FLAG IEEE_DENORMAL
Note: The following floating-point exceptions are signalling: IEEE_UNDERFLOW_FLAG IEEE_DENORMAL
Note: The following floating-point exceptions are signalling: IEEE_UNDERFLOW_FLAG IEEE_DENORMAL
Note: The following floating-point exceptions are signalling: IEEE_UNDERFLOW_FLAG IEEE_DENORMAL
Note: The following floating-point exceptions are signalling: IEEE_UNDERFLOW_FLAG IEEE_DENORMAL
Note: The following floating-point exceptions are signalling: IEEE_UNDERFLOW_FLAG IEEE_DENORMAL
Note: The following floating-point exceptions are signalling: IEEE_UNDERFLOW_FLAG IEEE_DENORMAL
Note: The following floating-point exceptions are signalling: IEEE_UNDERFLOW_FLAG IEEE_DENORMAL
Note: The following floating-point exceptions are signalling: IEEE_UNDERFLOW_FLAG IEEE_DENORMAL
Note: The following floating-point exceptions are signalling: IEEE_UNDERFLOW_FLAG IEEE_DENORMAL
Note: The following floating-point exceptions are signalling: IEEE_UNDERFLOW_FLAG IEEE_DENORMAL
Note: The following floating-point exceptions are signalling: IEEE_UNDERFLOW_FLAG IEEE_DENORMAL