     Program PWSCF v.7.0 starts on  1Sep2025 at  4:19: 9

     K-points division:     npool     =       8
     R & G space division:  proc/nbgrp/npool/nimage =       4

     Reading input from /home/jvc/QEspresso7.2/ZnO_database/scripts/cell132.in/ZnO-3.53-1.74-132.in
Warning: card &CELL ignored
Warning: card / ignored
Warning: card &FCP ignored
Warning: card / ignored
Warning: card &RISM ignored
Warning: card / ignored

     Current dimensions of program PWSCF are:
     Max number of different atomic species (ntypx) = 10
     Max number of k-points (npk) =  40000
     Max angular momentum in pseudopotentials (lmaxx) =  4
     file Zn.upf: wavefunction(s)  3D renormalized
     Found identity + (  0.0000  0.0000 -0.5000) symmetry
     This is a supercell, fractional translations are disabled
     Message from routine setup:
     using ibrav=0 with symmetry is DISCOURAGED, use correct ibrav instead

     Using Slab Decomposition

     bravais-lattice index     =            0
     lattice parameter (alat)  =       6.6732  a.u.
     unit-cell volume          =    2692.1586 (a.u.)^3
     number of atoms/cell      =           24
     number of atomic types    =            2
     number of electrons       =       216.00
     number of Kohn-Sham states=          108
     kinetic-energy cutoff     =      50.0000  Ry
     charge density cutoff     =     400.0000  Ry
     scf convergence threshold =      1.0E-08
     mixing beta               =       0.3000
     number of iterations used =            8  plain     mixing
     Exchange-correlation= PBE
                           (   1   4   3   4   0   0   0)

     celldm(1)=   6.673162  celldm(2)=   0.000000  celldm(3)=   0.000000
     celldm(4)=   0.000000  celldm(5)=   0.000000  celldm(6)=   0.000000

     crystal axes: (cart. coord. in units of alat)
               a(1) = (   1.000000   0.000000   0.000000 )
               a(2) = (  -1.500000   2.598076   0.000000 )
               a(3) = (   0.000000   0.000000   3.487014 )

     reciprocal axes: (cart. coord. in units 2 pi/alat)
               b(1) = (  1.000000  0.577350 -0.000000 )
               b(2) = (  0.000000  0.384900  0.000000 )
               b(3) = (  0.000000 -0.000000  0.286778 )

     PseudoPot. # 1 for Zn read from file:
     /home/jvc/QEspresso7.2/ZnO_database/pseudos/Zn.upf
     MD5 check sum: 7f56cabf9682ed8c977c2f7d0c5985c5
     Pseudo is Ultrasoft + core correction, Zval = 12.0
     Generated using &quot;atomic&quot; code by A. Dal Corso  v.6.2.2
     Using radial grid of 1201 points,  6 beta functions with:
                l(1) =   0
                l(2) =   0
                l(3) =   1
                l(4) =   1
                l(5) =   2
                l(6) =   2
     Q(r) pseudized with 0 coefficients

     PseudoPot. # 2 for O  read from file:
     /home/jvc/QEspresso7.2/ZnO_database/pseudos/O.upf
     MD5 check sum: 91400c9766925bcf19f520983a725ff0
     Pseudo is Ultrasoft + core correction, Zval =  6.0
     Generated using &quot;atomic&quot; code by A. Dal Corso  v.6.3MaX
     Using radial grid of 1095 points,  4 beta functions with:
                l(1) =   0
                l(2) =   0
                l(3) =   1
                l(4) =   1
     Q(r) pseudized with 0 coefficients

     atomic species   valence    mass     pseudopotential
        Zn            12.00    65.38000     Zn( 1.00)
        O              6.00    15.99900     O ( 1.00)

      2 Sym. Ops. (no inversion) found

                                    s                        frac. trans.

      isym =  1     identity

 cryst.   s( 1) = (     1          0          0      )
                  (     0          1          0      )
                  (     0          0          1      )

 cart.    s( 1) = (  1.0000000  0.0000000  0.0000000 )
                  (  0.0000000  1.0000000  0.0000000 )
                  (  0.0000000  0.0000000  1.0000000 )

      isym =  2     inv. 180 deg rotation - cart. axis [1,0,0]

 cryst.   s( 2) = (    -1          0          0      )
                  (     3          1          0      )
                  (     0          0          1      )

 cart.    s( 2) = ( -1.0000000  0.0000000  0.0000000 )
                  (  0.0000000  1.0000000  0.0000000 )
                  (  0.0000000  0.0000000  1.0000000 )

   Cartesian axes

     site n.     atom                  positions (alat units)
         1           Zn  tau(   1) = (   0.5000000   0.2886751   0.8728582  )
         2           Zn  tau(   2) = (   0.0000000   0.5773503   0.0011047  )
         3           O   tau(   3) = (   0.5000000   0.2886751   1.5337220  )
         4           O   tau(   4) = (   0.0000000   0.5773503   0.6619685  )
         5           Zn  tau(   5) = (   0.5000000   0.2886751   2.6163652  )
         6           Zn  tau(   6) = (   0.0000000   0.5773503   1.7446117  )
         7           O   tau(   7) = (   0.5000000   0.2886751   3.2772290  )
         8           O   tau(   8) = (   0.0000000   0.5773503   2.4054755  )
         9           Zn  tau(   9) = (   0.0000000   1.1547005   0.8728582  )
        10           Zn  tau(  10) = (  -0.5000000   1.4433757   0.0011047  )
        11           O   tau(  11) = (   0.0000000   1.1547005   1.5337220  )
        12           O   tau(  12) = (  -0.5000000   1.4433757   0.6619685  )
        13           Zn  tau(  13) = (   0.0000000   1.1547005   2.6163652  )
        14           Zn  tau(  14) = (  -0.5000000   1.4433757   1.7446117  )
        15           O   tau(  15) = (   0.0000000   1.1547005   3.2772290  )
        16           O   tau(  16) = (  -0.5000000   1.4433757   2.4054755  )
        17           Zn  tau(  17) = (  -0.5000000   2.0207259   0.8728582  )
        18           Zn  tau(  18) = (  -1.0000000   2.3094011   0.0011047  )
        19           O   tau(  19) = (  -0.5000000   2.0207259   1.5337220  )
        20           O   tau(  20) = (  -1.0000000   2.3094011   0.6619685  )
        21           Zn  tau(  21) = (  -0.5000000   2.0207259   2.6163652  )
        22           Zn  tau(  22) = (  -1.0000000   2.3094011   1.7446117  )
        23           O   tau(  23) = (  -0.5000000   2.0207259   3.2772290  )
        24           O   tau(  24) = (  -1.0000000   2.3094011   2.4054755  )

   Crystallographic axes

     site n.     atom                  positions (cryst. coord.)
         1           Zn  tau(   1) = (  0.6666667  0.1111111  0.2503168  )
         2           Zn  tau(   2) = (  0.3333333  0.2222222  0.0003168  )
         3           O   tau(   3) = (  0.6666667  0.1111111  0.4398382  )
         4           O   tau(   4) = (  0.3333333  0.2222222  0.1898382  )
         5           Zn  tau(   5) = (  0.6666667  0.1111111  0.7503168  )
         6           Zn  tau(   6) = (  0.3333333  0.2222222  0.5003168  )
         7           O   tau(   7) = (  0.6666667  0.1111111  0.9398382  )
         8           O   tau(   8) = (  0.3333333  0.2222222  0.6898382  )
         9           Zn  tau(   9) = (  0.6666667  0.4444444  0.2503168  )
        10           Zn  tau(  10) = (  0.3333333  0.5555556  0.0003168  )
        11           O   tau(  11) = (  0.6666667  0.4444444  0.4398382  )
        12           O   tau(  12) = (  0.3333333  0.5555556  0.1898382  )
        13           Zn  tau(  13) = (  0.6666667  0.4444444  0.7503168  )
        14           Zn  tau(  14) = (  0.3333333  0.5555556  0.5003168  )
        15           O   tau(  15) = (  0.6666667  0.4444444  0.9398382  )
        16           O   tau(  16) = (  0.3333333  0.5555556  0.6898382  )
        17           Zn  tau(  17) = (  0.6666667  0.7777778  0.2503168  )
        18           Zn  tau(  18) = (  0.3333333  0.8888889  0.0003168  )
        19           O   tau(  19) = (  0.6666667  0.7777778  0.4398382  )
        20           O   tau(  20) = (  0.3333333  0.8888889  0.1898382  )
        21           Zn  tau(  21) = (  0.6666667  0.7777778  0.7503168  )
        22           Zn  tau(  22) = (  0.3333333  0.8888889  0.5003168  )
        23           O   tau(  23) = (  0.6666667  0.7777778  0.9398382  )
        24           O   tau(  24) = (  0.3333333  0.8888889  0.6898382  )

     number of k points=    68
                       cart. coord. in units 2pi/alat
        k(    1) = (   0.0000000   0.0000000   0.0000000), wk =   0.0092593
        k(    2) = (   0.0000000   0.0000000   0.0477964), wk =   0.0185185
        k(    3) = (   0.0000000   0.0000000   0.0955928), wk =   0.0185185
        k(    4) = (   0.0000000   0.0000000  -0.1433892), wk =   0.0092593
        k(    5) = (   0.0000000   0.0641500   0.0000000), wk =   0.0185185
        k(    6) = (   0.0000000   0.0641500   0.0477964), wk =   0.0185185
        k(    7) = (   0.0000000   0.0641500   0.0955928), wk =   0.0185185
        k(    8) = (   0.0000000   0.0641500  -0.1433892), wk =   0.0185185
        k(    9) = (   0.0000000   0.1283001   0.0000000), wk =   0.0185185
        k(   10) = (   0.0000000   0.1283001   0.0477964), wk =   0.0185185
        k(   11) = (   0.0000000   0.1283001   0.0955928), wk =   0.0185185
        k(   12) = (   0.0000000   0.1283001  -0.1433892), wk =   0.0185185
        k(   13) = (   0.0000000  -0.1924501   0.0000000), wk =   0.0092593
        k(   14) = (   0.0000000  -0.1924501   0.0477964), wk =   0.0185185
        k(   15) = (   0.0000000  -0.1924501   0.0955928), wk =   0.0185185
        k(   16) = (   0.0000000  -0.1924501  -0.1433892), wk =   0.0092593
        k(   17) = (   0.1666667   0.0962250   0.0000000), wk =   0.0370370
        k(   18) = (   0.1666667   0.0962250   0.0477964), wk =   0.0370370
        k(   19) = (   0.1666667   0.0962250   0.0955928), wk =   0.0370370
        k(   20) = (   0.1666667   0.0962250  -0.1433892), wk =   0.0370370
        k(   21) = (   0.1666667   0.1603751   0.0000000), wk =   0.0370370
        k(   22) = (   0.1666667   0.1603751   0.0477964), wk =   0.0370370
        k(   23) = (   0.1666667   0.1603751   0.0955928), wk =   0.0370370
        k(   24) = (   0.1666667   0.1603751  -0.1433892), wk =   0.0370370
        k(   25) = (   0.1666667  -0.0320750   0.0000000), wk =   0.0370370
        k(   26) = (   0.1666667  -0.0320750   0.0477964), wk =   0.0370370
        k(   27) = (   0.1666667  -0.0320750   0.0955928), wk =   0.0370370
        k(   28) = (   0.1666667  -0.0320750  -0.1433892), wk =   0.0370370
        k(   29) = (   0.3333333   0.1924501   0.0000000), wk =   0.0185185
        k(   30) = (   0.3333333   0.1924501   0.0477964), wk =   0.0370370
        k(   31) = (   0.3333333   0.1924501   0.0955928), wk =   0.0370370
        k(   32) = (   0.3333333   0.1924501  -0.1433892), wk =   0.0185185
        k(   33) = (   0.3333333   0.2566001   0.0000000), wk =   0.0370370
        k(   34) = (   0.3333333   0.2566001   0.0477964), wk =   0.0370370
        k(   35) = (   0.3333333   0.2566001   0.0955928), wk =   0.0370370
        k(   36) = (   0.3333333   0.2566001  -0.1433892), wk =   0.0370370
        k(   37) = (   0.3333333   0.3207501   0.0000000), wk =   0.0370370
        k(   38) = (   0.3333333   0.3207501   0.0477964), wk =   0.0370370
        k(   39) = (   0.3333333   0.3207501   0.0955928), wk =   0.0370370
[...]

!    total energy              =   -2169.19403893 Ry
     estimated scf accuracy    <          4.1E-09 Ry

     The total energy is the sum of the following terms:
     one-electron contribution =   -1132.84039188 Ry
     hartree contribution      =     785.35848198 Ry
     xc contribution           =    -654.10756376 Ry
     ewald contribution        =   -1167.60456527 Ry

     convergence has been achieved in  28 iterations

     Forces acting on atoms (cartesian axes, Ry/au):

     atom    1 type  1   force =     0.00000000    0.00001541   -0.01146270
     atom    2 type  1   force =     0.00000000   -0.00001480   -0.01146206
     atom    3 type  2   force =     0.00000000    0.00001472    0.01145932
     atom    4 type  2   force =     0.00000000   -0.00001546    0.01146194
     atom    5 type  1   force =     0.00000000    0.00001572   -0.01146298
     atom    6 type  1   force =     0.00000000   -0.00001174   -0.01145950
     atom    7 type  2   force =     0.00000000    0.00001351    0.01146452
     atom    8 type  2   force =     0.00000000   -0.00001509    0.01146192
     atom    9 type  1   force =     0.00000000    0.00001829   -0.01146068
     atom   10 type  1   force =     0.00000000   -0.00001373   -0.01146050
     atom   11 type  2   force =     0.00000000    0.00001384    0.01145896
     atom   12 type  2   force =     0.00000000   -0.00001383    0.01146203
     atom   13 type  1   force =     0.00000000    0.00001449   -0.01146395
     atom   14 type  1   force =     0.00000000   -0.00001619   -0.01146445
     atom   15 type  2   force =     0.00000000    0.00001548    0.01146465
     atom   16 type  2   force =     0.00000000   -0.00001349    0.01146233
     atom   17 type  1   force =     0.00000000    0.00001197   -0.01146168
     atom   18 type  1   force =     0.00000000   -0.00001765   -0.01146158
     atom   19 type  2   force =     0.00000000    0.00001476    0.01145982
     atom   20 type  2   force =     0.00000000   -0.00001407    0.01146121
     atom   21 type  1   force =     0.00000000    0.00001632   -0.01146225
     atom   22 type  1   force =     0.00000000   -0.00001779   -0.01146044
     atom   23 type  2   force =     0.00000000    0.00001472    0.01146394
     atom   24 type  2   force =     0.00000000   -0.00001538    0.01146214
     The non-local contrib.  to forces
     atom    1 type  1   force =     0.00000000   -0.00004728    0.17427177
     atom    2 type  1   force =     0.00000000    0.00004793    0.17426824
     atom    3 type  2   force =     0.00000000    0.00026162    0.20856344
     atom    4 type  2   force =     0.00000000   -0.00026424    0.20856531
     atom    5 type  1   force =     0.00000000   -0.00004615    0.17427300
     atom    6 type  1   force =     0.00000000    0.00004834    0.17427352
     atom    7 type  2   force =     0.00000000    0.00026061    0.20856559
     atom    8 type  2   force =     0.00000000   -0.00026239    0.20856602
     atom    9 type  1   force =     0.00000000   -0.00004611    0.17427127
     atom   10 type  1   force =     0.00000000    0.00004793    0.17426892
     atom   11 type  2   force =     0.00000000    0.00025991    0.20856297
     atom   12 type  2   force =     0.00000000   -0.00026206    0.20856350
     atom   13 type  1   force =     0.00000000   -0.00004836    0.17427165
     atom   14 type  1   force =     0.00000000    0.00004635    0.17427214
     atom   15 type  2   force =     0.00000000    0.00026226    0.20856460
     atom   16 type  2   force =     0.00000000   -0.00026069    0.20856699
     atom   17 type  1   force =     0.00000000   -0.00004788    0.17427149
     atom   18 type  1   force =     0.00000000    0.00004603    0.17426923
     atom   19 type  2   force =     0.00000000    0.00026406    0.20856589
     atom   20 type  2   force =     0.00000000   -0.00025950    0.20856333
     atom   21 type  1   force =     0.00000000   -0.00004696    0.17427223
     atom   22 type  1   force =     0.00000000    0.00004654    0.17427384
     atom   23 type  2   force =     0.00000000    0.00026288    0.20856458
     atom   24 type  2   force =     0.00000000   -0.00026328    0.20856547
     The ionic contribution  to forces
     atom    1 type  1   force =    -0.00000000    0.00000001    1.34866903
     atom    2 type  1   force =     0.00000000    0.00000001    1.34866903
     atom    3 type  2   force =    -0.00000000    0.00000000   -1.34866903
     atom    4 type  2   force =     0.00000000    0.00000000   -1.34866903
     atom    5 type  1   force =    -0.00000000    0.00000001    1.34866903
     atom    6 type  1   force =     0.00000000    0.00000001    1.34866903
     atom    7 type  2   force =    -0.00000000    0.00000000   -1.34866903
     atom    8 type  2   force =     0.00000000    0.00000000   -1.34866903
     atom    9 type  1   force =    -0.00000001    0.00000001    1.34866902
     atom   10 type  1   force =     0.00000001   -0.00000001    1.34866902
     atom   11 type  2   force =    -0.00000001    0.00000000   -1.34866902
     atom   12 type  2   force =     0.00000001   -0.00000000   -1.34866902
     atom   13 type  1   force =    -0.00000001    0.00000001    1.34866902
     atom   14 type  1   force =     0.00000001   -0.00000001    1.34866902
     atom   15 type  2   force =    -0.00000001    0.00000000   -1.34866902
     atom   16 type  2   force =     0.00000001   -0.00000000   -1.34866902
     atom   17 type  1   force =    -0.00000000   -0.00000001    1.34866903
     atom   18 type  1   force =     0.00000000   -0.00000001    1.34866903
     atom   19 type  2   force =    -0.00000000   -0.00000000   -1.34866903
     atom   20 type  2   force =     0.00000000   -0.00000000   -1.34866903
     atom   21 type  1   force =    -0.00000000   -0.00000001    1.34866903
     atom   22 type  1   force =     0.00000000   -0.00000001    1.34866903
     atom   23 type  2   force =    -0.00000000   -0.00000000   -1.34866903
     atom   24 type  2   force =     0.00000000   -0.00000000   -1.34866903
     The local contribution  to forces
     atom    1 type  1   force =    -0.00000005    0.00005235   -1.52472502
     atom    2 type  1   force =    -0.00000000   -0.00005410   -1.52472051
     atom    3 type  2   force =    -0.00000001   -0.00024445    1.15351984
     atom    4 type  2   force =    -0.00000000    0.00024313    1.15352442
     atom    5 type  1   force =    -0.00000005    0.00004955   -1.52472470
     atom    6 type  1   force =    -0.00000000   -0.00005668   -1.52473194
     atom    7 type  2   force =    -0.00000001   -0.00024436    1.15352803
     atom    8 type  2   force =    -0.00000000    0.00024323    1.15352387
     atom    9 type  1   force =    -0.00000009    0.00004723   -1.52472574
     atom   10 type  1   force =     0.00000009   -0.00005314   -1.52472299
     atom   11 type  2   force =    -0.00000002   -0.00024452    1.15352176
     atom   12 type  2   force =     0.00000002    0.00024385    1.15352417
     atom   13 type  1   force =    -0.00000009    0.00005410   -1.52472304
     atom   14 type  1   force =     0.00000009   -0.00004929   -1.52472615
     atom   15 type  2   force =    -0.00000002   -0.00024375    1.15352794
     atom   16 type  2   force =     0.00000002    0.00024445    1.15352492
     atom   17 type  1   force =    -0.00000000    0.00005527   -1.52472498
     atom   18 type  1   force =     0.00000005   -0.00004812   -1.52472250
     atom   19 type  2   force =    -0.00000000   -0.00024308    1.15352051
     atom   20 type  2   force =     0.00000001    0.00024505    1.15352466
     atom   21 type  1   force =    -0.00000000    0.00005142   -1.52472496
     atom   22 type  1   force =     0.00000005   -0.00004866   -1.52473093
     atom   23 type  2   force =    -0.00000000   -0.00024360    1.15352705
     atom   24 type  2   force =     0.00000001    0.00024489    1.15352582
     The core correction contribution to forces
     atom    1 type  1   force =    -0.00000003    0.00001120   -0.00968767
     atom    2 type  1   force =    -0.00000006   -0.00001115   -0.00968674
     atom    3 type  2   force =    -0.00000000   -0.00000294   -0.00195638
     atom    4 type  2   force =     0.00000000    0.00000295   -0.00195702
     atom    5 type  1   force =    -0.00000003    0.00001132   -0.00968784
     atom    6 type  1   force =    -0.00000006   -0.00001114   -0.00968646
     atom    7 type  2   force =    -0.00000000   -0.00000293   -0.00195640
     atom    8 type  2   force =     0.00000000    0.00000293   -0.00195703
     atom    9 type  1   force =     0.00000011    0.00001128   -0.00968762
     atom   10 type  1   force =    -0.00000011   -0.00001121   -0.00968666
     atom   11 type  2   force =    -0.00000003   -0.00000295   -0.00195635
     atom   12 type  2   force =     0.00000002    0.00000298   -0.00195699
     atom   13 type  1   force =     0.00000011    0.00001111   -0.00968776
     atom   14 type  1   force =    -0.00000011   -0.00001118   -0.00968657
     atom   15 type  2   force =    -0.00000003   -0.00000298   -0.00195637
     atom   16 type  2   force =     0.00000002    0.00000296   -0.00195704
     atom   17 type  1   force =     0.00000006    0.00001115   -0.00968765
     atom   18 type  1   force =     0.00000003   -0.00001128   -0.00968669
     atom   19 type  2   force =    -0.00000000   -0.00000295   -0.00195640
     atom   20 type  2   force =     0.00000000    0.00000292   -0.00195700
     atom   21 type  1   force =     0.00000006    0.00001121   -0.00968776
     atom   22 type  1   force =     0.00000003   -0.00001131   -0.00968654
     atom   23 type  2   force =    -0.00000000   -0.00000294   -0.00195638
     atom   24 type  2   force =     0.00000000    0.00000297   -0.00195703
     The Hubbard contrib.    to forces
     atom    1 type  1   force =     0.00000000    0.00000000    0.00000000
     atom    2 type  1   force =     0.00000000    0.00000000    0.00000000
     atom    3 type  2   force =     0.00000000    0.00000000    0.00000000
     atom    4 type  2   force =     0.00000000    0.00000000    0.00000000
     atom    5 type  1   force =     0.00000000    0.00000000    0.00000000
     atom    6 type  1   force =     0.00000000    0.00000000    0.00000000
     atom    7 type  2   force =     0.00000000    0.00000000    0.00000000
     atom    8 type  2   force =     0.00000000    0.00000000    0.00000000
     atom    9 type  1   force =     0.00000000    0.00000000    0.00000000
     atom   10 type  1   force =     0.00000000    0.00000000    0.00000000
     atom   11 type  2   force =     0.00000000    0.00000000    0.00000000
     atom   12 type  2   force =     0.00000000    0.00000000    0.00000000
     atom   13 type  1   force =     0.00000000    0.00000000    0.00000000
     atom   14 type  1   force =     0.00000000    0.00000000    0.00000000
     atom   15 type  2   force =     0.00000000    0.00000000    0.00000000
     atom   16 type  2   force =     0.00000000    0.00000000    0.00000000
     atom   17 type  1   force =     0.00000000    0.00000000    0.00000000
     atom   18 type  1   force =     0.00000000    0.00000000    0.00000000
     atom   19 type  2   force =     0.00000000    0.00000000    0.00000000
     atom   20 type  2   force =     0.00000000    0.00000000    0.00000000
     atom   21 type  1   force =     0.00000000    0.00000000    0.00000000
     atom   22 type  1   force =     0.00000000    0.00000000    0.00000000
     atom   23 type  2   force =     0.00000000    0.00000000    0.00000000
     atom   24 type  2   force =     0.00000000    0.00000000    0.00000000
     The SCF correction term to forces
     atom    1 type  1   force =    -0.00000000   -0.00000095    0.00001064
     atom    2 type  1   force =    -0.00000000    0.00000243    0.00000937
     atom    3 type  2   force =     0.00000000    0.00000040    0.00000289
     atom    4 type  2   force =    -0.00000000    0.00000260   -0.00000029
     atom    5 type  1   force =    -0.00000000    0.00000092    0.00000899
     atom    6 type  1   force =    -0.00000000    0.00000765    0.00001779
     atom    7 type  2   force =     0.00000000    0.00000010   -0.00000222
     atom    8 type  2   force =    -0.00000000    0.00000106   -0.00000046
     atom    9 type  1   force =    -0.00000000    0.00000580    0.00001384
     atom   10 type  1   force =     0.00000000    0.00000262    0.00001266
     atom   11 type  2   force =     0.00000000    0.00000132    0.00000105
     atom   12 type  2   force =     0.00000000    0.00000133    0.00000182
     atom   13 type  1   force =    -0.00000000   -0.00000245    0.00000762
     atom   14 type  1   force =     0.00000000   -0.00000214    0.00000856
     atom   15 type  2   force =     0.00000000   -0.00000014   -0.00000104
     atom   16 type  2   force =     0.00000000   -0.00000030   -0.00000207
     atom   17 type  1   force =     0.00000000   -0.00000666    0.00001188
     atom   18 type  1   force =     0.00000000   -0.00000436    0.00001080
     atom   19 type  2   force =     0.00000000   -0.00000335    0.00000030
     atom   20 type  2   force =    -0.00000000   -0.00000262    0.00000069
     atom   21 type  1   force =     0.00000000    0.00000057    0.00001066
     atom   22 type  1   force =     0.00000000   -0.00000444    0.00001562
     atom   23 type  2   force =     0.00000000   -0.00000171   -0.00000084
     atom   24 type  2   force =    -0.00000000   -0.00000004   -0.00000165

     Total force =     0.056152     Total SCF correction =     0.000044

     General routines

     Parallel routines

   This run was terminated on:   5: 2:24   1Sep2025

   JOB DONE.
Note: The following floating-point exceptions are signalling: IEEE_UNDERFLOW_FLAG IEEE_DENORMAL
Note: The following floating-point exceptions are signalling: IEEE_UNDERFLOW_FLAG IEEE_DENORMAL
Note: The following floating-point exceptions are signalling: IEEE_UNDERFLOW_FLAG IEEE_DENORMAL
Note: The following floating-point exceptions are signalling: IEEE_UNDERFLOW_FLAG IEEE_DENORMAL
Note: The following floating-point exceptions are signalling: IEEE_UNDERFLOW_FLAG IEEE_DENORMAL
Note: The following floating-point exceptions are signalling: IEEE_UNDERFLOW_FLAG IEEE_DENORMAL
Note: The following floating-point exceptions are signalling: IEEE_UNDERFLOW_FLAG IEEE_DENORMAL
Note: The following floating-point exceptions are signalling: IEEE_UNDERFLOW_FLAG IEEE_DENORMAL
Note: The following floating-point exceptions are signalling: IEEE_UNDERFLOW_FLAG IEEE_DENORMAL
Note: The following floating-point exceptions are signalling: IEEE_UNDERFLOW_FLAG IEEE_DENORMAL
Note: The following floating-point exceptions are signalling: IEEE_UNDERFLOW_FLAG IEEE_DENORMAL
Note: The following floating-point exceptions are signalling: IEEE_UNDERFLOW_FLAG IEEE_DENORMAL
Note: The following floating-point exceptions are signalling: IEEE_UNDERFLOW_FLAG IEEE_DENORMAL
Note: The following floating-point exceptions are signalling: IEEE_UNDERFLOW_FLAG IEEE_DENORMAL
Note: The following floating-point exceptions are signalling: IEEE_UNDERFLOW_FLAG IEEE_DENORMAL
Note: The following floating-point exceptions are signalling: IEEE_UNDERFLOW_FLAG IEEE_DENORMAL
Note: The following floating-point exceptions are signalling: IEEE_UNDERFLOW_FLAG IEEE_DENORMAL
Note: The following floating-point exceptions are signalling: IEEE_UNDERFLOW_FLAG IEEE_DENORMAL
Note: The following floating-point exceptions are signalling: IEEE_UNDERFLOW_FLAG IEEE_DENORMAL
Note: The following floating-point exceptions are signalling: IEEE_UNDERFLOW_FLAG IEEE_DENORMAL
Note: The following floating-point exceptions are signalling: IEEE_UNDERFLOW_FLAG IEEE_DENORMAL
Note: The following floating-point exceptions are signalling: IEEE_UNDERFLOW_FLAG IEEE_DENORMAL
Note: The following floating-point exceptions are signalling: IEEE_UNDERFLOW_FLAG IEEE_DENORMAL
Note: The following floating-point exceptions are signalling: IEEE_UNDERFLOW_FLAG IEEE_DENORMAL
Note: The following floating-point exceptions are signalling: IEEE_UNDERFLOW_FLAG IEEE_DENORMAL
Note: The following floating-point exceptions are signalling: IEEE_UNDERFLOW_FLAG IEEE_DENORMAL
Note: The following floating-point exceptions are signalling: IEEE_UNDERFLOW_FLAG IEEE_DENORMAL
Note: The following floating-point exceptions are signalling: IEEE_UNDERFLOW_FLAG IEEE_DENORMAL
Note: The following floating-point exceptions are signalling: IEEE_UNDERFLOW_FLAG IEEE_DENORMAL
Note: The following floating-point exceptions are signalling: IEEE_UNDERFLOW_FLAG IEEE_DENORMAL
Note: The following floating-point exceptions are signalling: IEEE_UNDERFLOW_FLAG IEEE_DENORMAL
Note: The following floating-point exceptions are signalling: IEEE_UNDERFLOW_FLAG IEEE_DENORMAL