     Program PWSCF v.7.0 starts on  1Sep2025 at  8:54:40

     K-points division:     npool     =       8
     R & G space division:  proc/nbgrp/npool/nimage =       4

     Reading input from /home/jvc/QEspresso7.2/ZnO_database/scripts/cell132.in/ZnO-3.60-1.61-132.in
Warning: card &CELL ignored
Warning: card / ignored
Warning: card &FCP ignored
Warning: card / ignored
Warning: card &RISM ignored
Warning: card / ignored

     Current dimensions of program PWSCF are:
     Max number of different atomic species (ntypx) = 10
     Max number of k-points (npk) =  40000
     Max angular momentum in pseudopotentials (lmaxx) =  4
     file Zn.upf: wavefunction(s)  3D renormalized
     Found identity + (  0.0000  0.0000 -0.5000) symmetry
     This is a supercell, fractional translations are disabled
     Message from routine setup:
     using ibrav=0 with symmetry is DISCOURAGED, use correct ibrav instead

     Using Slab Decomposition

     bravais-lattice index     =            0
     lattice parameter (alat)  =       6.7967  a.u.
     unit-cell volume          =    2633.8054 (a.u.)^3
     number of atoms/cell      =           24
     number of atomic types    =            2
     number of electrons       =       216.00
     number of Kohn-Sham states=          108
     kinetic-energy cutoff     =      50.0000  Ry
     charge density cutoff     =     400.0000  Ry
     scf convergence threshold =      1.0E-08
     mixing beta               =       0.3000
     number of iterations used =            8  plain     mixing
     Exchange-correlation= PBE
                           (   1   4   3   4   0   0   0)

     celldm(1)=   6.796739  celldm(2)=   0.000000  celldm(3)=   0.000000
     celldm(4)=   0.000000  celldm(5)=   0.000000  celldm(6)=   0.000000

     crystal axes: (cart. coord. in units of alat)
               a(1) = (   1.000000   0.000000   0.000000 )
               a(2) = (  -1.500000   2.598076   0.000000 )
               a(3) = (   0.000000   0.000000   3.228717 )

     reciprocal axes: (cart. coord. in units 2 pi/alat)
               b(1) = (  1.000000  0.577350 -0.000000 )
               b(2) = (  0.000000  0.384900  0.000000 )
               b(3) = (  0.000000 -0.000000  0.309721 )

     PseudoPot. # 1 for Zn read from file:
     /home/jvc/QEspresso7.2/ZnO_database/pseudos/Zn.upf
     MD5 check sum: 7f56cabf9682ed8c977c2f7d0c5985c5
     Pseudo is Ultrasoft + core correction, Zval = 12.0
     Generated using &quot;atomic&quot; code by A. Dal Corso  v.6.2.2
     Using radial grid of 1201 points,  6 beta functions with:
                l(1) =   0
                l(2) =   0
                l(3) =   1
                l(4) =   1
                l(5) =   2
                l(6) =   2
     Q(r) pseudized with 0 coefficients

     PseudoPot. # 2 for O  read from file:
     /home/jvc/QEspresso7.2/ZnO_database/pseudos/O.upf
     MD5 check sum: 91400c9766925bcf19f520983a725ff0
     Pseudo is Ultrasoft + core correction, Zval =  6.0
     Generated using &quot;atomic&quot; code by A. Dal Corso  v.6.3MaX
     Using radial grid of 1095 points,  4 beta functions with:
                l(1) =   0
                l(2) =   0
                l(3) =   1
                l(4) =   1
     Q(r) pseudized with 0 coefficients

     atomic species   valence    mass     pseudopotential
        Zn            12.00    65.38000     Zn( 1.00)
        O              6.00    15.99900     O ( 1.00)

      2 Sym. Ops. (no inversion) found

                                    s                        frac. trans.

      isym =  1     identity

 cryst.   s( 1) = (     1          0          0      )
                  (     0          1          0      )
                  (     0          0          1      )

 cart.    s( 1) = (  1.0000000  0.0000000  0.0000000 )
                  (  0.0000000  1.0000000  0.0000000 )
                  (  0.0000000  0.0000000  1.0000000 )

      isym =  2     inv. 180 deg rotation - cart. axis [1,0,0]

 cryst.   s( 2) = (    -1          0          0      )
                  (     3          1          0      )
                  (     0          0          1      )

 cart.    s( 2) = ( -1.0000000 -0.0000000  0.0000000 )
                  (  0.0000000  1.0000000  0.0000000 )
                  (  0.0000000  0.0000000  1.0000000 )

   Cartesian axes

     site n.     atom                  positions (alat units)
         1           Zn  tau(   1) = (   0.5000000   0.2886751   0.8082020  )
         2           Zn  tau(   2) = (  -0.0000000   0.5773503   0.0010228  )
         3           O   tau(   3) = (   0.5000000   0.2886751   1.4201130  )
         4           O   tau(   4) = (  -0.0000000   0.5773503   0.6129338  )
         5           Zn  tau(   5) = (   0.5000000   0.2886751   2.4225604  )
         6           Zn  tau(   6) = (  -0.0000000   0.5773503   1.6153812  )
         7           O   tau(   7) = (   0.5000000   0.2886751   3.0344713  )
         8           O   tau(   8) = (  -0.0000000   0.5773503   2.2272921  )
         9           Zn  tau(   9) = (   0.0000000   1.1547005   0.8082020  )
        10           Zn  tau(  10) = (  -0.5000000   1.4433757   0.0010228  )
        11           O   tau(  11) = (   0.0000000   1.1547005   1.4201130  )
        12           O   tau(  12) = (  -0.5000000   1.4433757   0.6129338  )
        13           Zn  tau(  13) = (   0.0000000   1.1547005   2.4225604  )
        14           Zn  tau(  14) = (  -0.5000000   1.4433757   1.6153812  )
        15           O   tau(  15) = (   0.0000000   1.1547005   3.0344713  )
        16           O   tau(  16) = (  -0.5000000   1.4433757   2.2272921  )
        17           Zn  tau(  17) = (  -0.5000000   2.0207259   0.8082020  )
        18           Zn  tau(  18) = (  -1.0000000   2.3094011   0.0010228  )
        19           O   tau(  19) = (  -0.5000000   2.0207259   1.4201130  )
        20           O   tau(  20) = (  -1.0000000   2.3094011   0.6129338  )
        21           Zn  tau(  21) = (  -0.5000000   2.0207259   2.4225604  )
        22           Zn  tau(  22) = (  -1.0000000   2.3094011   1.6153812  )
        23           O   tau(  23) = (  -0.5000000   2.0207259   3.0344713  )
        24           O   tau(  24) = (  -1.0000000   2.3094011   2.2272921  )

   Crystallographic axes

     site n.     atom                  positions (cryst. coord.)
         1           Zn  tau(   1) = (  0.6666667  0.1111111  0.2503168  )
         2           Zn  tau(   2) = (  0.3333333  0.2222222  0.0003168  )
         3           O   tau(   3) = (  0.6666667  0.1111111  0.4398382  )
         4           O   tau(   4) = (  0.3333333  0.2222222  0.1898382  )
         5           Zn  tau(   5) = (  0.6666667  0.1111111  0.7503168  )
         6           Zn  tau(   6) = (  0.3333333  0.2222222  0.5003168  )
         7           O   tau(   7) = (  0.6666667  0.1111111  0.9398382  )
         8           O   tau(   8) = (  0.3333333  0.2222222  0.6898382  )
         9           Zn  tau(   9) = (  0.6666667  0.4444444  0.2503168  )
        10           Zn  tau(  10) = (  0.3333333  0.5555556  0.0003168  )
        11           O   tau(  11) = (  0.6666667  0.4444444  0.4398382  )
        12           O   tau(  12) = (  0.3333333  0.5555556  0.1898382  )
        13           Zn  tau(  13) = (  0.6666667  0.4444444  0.7503168  )
        14           Zn  tau(  14) = (  0.3333333  0.5555556  0.5003168  )
        15           O   tau(  15) = (  0.6666667  0.4444444  0.9398382  )
        16           O   tau(  16) = (  0.3333333  0.5555556  0.6898382  )
        17           Zn  tau(  17) = (  0.6666667  0.7777778  0.2503168  )
        18           Zn  tau(  18) = (  0.3333333  0.8888889  0.0003168  )
        19           O   tau(  19) = (  0.6666667  0.7777778  0.4398382  )
        20           O   tau(  20) = (  0.3333333  0.8888889  0.1898382  )
        21           Zn  tau(  21) = (  0.6666667  0.7777778  0.7503168  )
        22           Zn  tau(  22) = (  0.3333333  0.8888889  0.5003168  )
        23           O   tau(  23) = (  0.6666667  0.7777778  0.9398382  )
        24           O   tau(  24) = (  0.3333333  0.8888889  0.6898382  )

     number of k points=    68
                       cart. coord. in units 2pi/alat
        k(    1) = (   0.0000000   0.0000000   0.0000000), wk =   0.0092593
        k(    2) = (   0.0000000   0.0000000   0.0516201), wk =   0.0185185
        k(    3) = (   0.0000000   0.0000000   0.1032402), wk =   0.0185185
        k(    4) = (   0.0000000   0.0000000  -0.1548603), wk =   0.0092593
        k(    5) = (   0.0000000   0.0641500   0.0000000), wk =   0.0185185
        k(    6) = (   0.0000000   0.0641500   0.0516201), wk =   0.0185185
        k(    7) = (   0.0000000   0.0641500   0.1032402), wk =   0.0185185
        k(    8) = (   0.0000000   0.0641500  -0.1548603), wk =   0.0185185
        k(    9) = (   0.0000000   0.1283001   0.0000000), wk =   0.0185185
        k(   10) = (   0.0000000   0.1283001   0.0516201), wk =   0.0185185
        k(   11) = (   0.0000000   0.1283001   0.1032402), wk =   0.0185185
        k(   12) = (   0.0000000   0.1283001  -0.1548603), wk =   0.0185185
        k(   13) = (   0.0000000  -0.1924501   0.0000000), wk =   0.0092593
        k(   14) = (   0.0000000  -0.1924501   0.0516201), wk =   0.0185185
        k(   15) = (   0.0000000  -0.1924501   0.1032402), wk =   0.0185185
        k(   16) = (   0.0000000  -0.1924501  -0.1548603), wk =   0.0092593
        k(   17) = (   0.1666667   0.0962250   0.0000000), wk =   0.0370370
        k(   18) = (   0.1666667   0.0962250   0.0516201), wk =   0.0370370
        k(   19) = (   0.1666667   0.0962250   0.1032402), wk =   0.0370370
        k(   20) = (   0.1666667   0.0962250  -0.1548603), wk =   0.0370370
        k(   21) = (   0.1666667   0.1603751   0.0000000), wk =   0.0370370
        k(   22) = (   0.1666667   0.1603751   0.0516201), wk =   0.0370370
        k(   23) = (   0.1666667   0.1603751   0.1032402), wk =   0.0370370
        k(   24) = (   0.1666667   0.1603751  -0.1548603), wk =   0.0370370
        k(   25) = (   0.1666667  -0.0320750   0.0000000), wk =   0.0370370
        k(   26) = (   0.1666667  -0.0320750   0.0516201), wk =   0.0370370
        k(   27) = (   0.1666667  -0.0320750   0.1032402), wk =   0.0370370
        k(   28) = (   0.1666667  -0.0320750  -0.1548603), wk =   0.0370370
        k(   29) = (   0.3333333   0.1924501   0.0000000), wk =   0.0185185
        k(   30) = (   0.3333333   0.1924501   0.0516201), wk =   0.0370370
        k(   31) = (   0.3333333   0.1924501   0.1032402), wk =   0.0370370
        k(   32) = (   0.3333333   0.1924501  -0.1548603), wk =   0.0185185
        k(   33) = (   0.3333333   0.2566001   0.0000000), wk =   0.0370370
        k(   34) = (   0.3333333   0.2566001   0.0516201), wk =   0.0370370
        k(   35) = (   0.3333333   0.2566001   0.1032402), wk =   0.0370370
        k(   36) = (   0.3333333   0.2566001  -0.1548603), wk =   0.0370370
        k(   37) = (   0.3333333   0.3207501   0.0000000), wk =   0.0370370
        k(   38) = (   0.3333333   0.3207501   0.0516201), wk =   0.0370370
        k(   39) = (   0.3333333   0.3207501   0.1032402), wk =   0.0370370
[...]

!    total energy              =   -2169.28657451 Ry
     estimated scf accuracy    <          6.9E-10 Ry

     The total energy is the sum of the following terms:
     one-electron contribution =   -1116.65640101 Ry
     hartree contribution      =     779.02790285 Ry
     xc contribution           =    -654.27474984 Ry
     ewald contribution        =   -1177.38332651 Ry

     convergence has been achieved in  30 iterations

     Forces acting on atoms (cartesian axes, Ry/au):

     atom    1 type  1   force =     0.00000000    0.00000961   -0.00008522
     atom    2 type  1   force =     0.00000000   -0.00001118   -0.00008574
     atom    3 type  2   force =     0.00000000    0.00000990    0.00008621
     atom    4 type  2   force =     0.00000000   -0.00000986    0.00008653
     atom    5 type  1   force =     0.00000000    0.00001037   -0.00008618
     atom    6 type  1   force =     0.00000000   -0.00000618   -0.00008813
     atom    7 type  2   force =     0.00000000    0.00000984    0.00008661
     atom    8 type  2   force =     0.00000000   -0.00000970    0.00008650
     atom    9 type  1   force =     0.00000000    0.00001025   -0.00008275
     atom   10 type  1   force =     0.00000000   -0.00000931   -0.00008211
     atom   11 type  2   force =     0.00000000    0.00000986    0.00008607
     atom   12 type  2   force =     0.00000000   -0.00000949    0.00008644
     atom   13 type  1   force =     0.00000000    0.00000711   -0.00009054
     atom   14 type  1   force =     0.00000000   -0.00001040   -0.00009041
     atom   15 type  2   force =     0.00000000    0.00000965    0.00008675
     atom   16 type  2   force =     0.00000000   -0.00000996    0.00008649
     atom   17 type  1   force =     0.00000000    0.00000739   -0.00008418
     atom   18 type  1   force =     0.00000000   -0.00000684   -0.00008425
     atom   19 type  2   force =     0.00000000    0.00000971    0.00008607
     atom   20 type  2   force =     0.00000000   -0.00000974    0.00008633
     atom   21 type  1   force =     0.00000000    0.00000906   -0.00008807
     atom   22 type  1   force =     0.00000000   -0.00000974   -0.00008949
     atom   23 type  2   force =     0.00000000    0.00000968    0.00008655
     atom   24 type  2   force =     0.00000000   -0.00001002    0.00008652
     The non-local contrib.  to forces
     atom    1 type  1   force =     0.00000000   -0.00003938   -0.00460345
     atom    2 type  1   force =     0.00000000    0.00003871   -0.00460355
     atom    3 type  2   force =     0.00000000    0.00025387    0.00633759
     atom    4 type  2   force =     0.00000000   -0.00025389    0.00633639
     atom    5 type  1   force =     0.00000000   -0.00003925   -0.00460428
     atom    6 type  1   force =     0.00000000    0.00004059   -0.00460497
     atom    7 type  2   force =     0.00000000    0.00025437    0.00633650
     atom    8 type  2   force =     0.00000000   -0.00025416    0.00633712
     atom    9 type  1   force =     0.00000000   -0.00003948   -0.00460242
     atom   10 type  1   force =     0.00000000    0.00003975   -0.00460230
     atom   11 type  2   force =     0.00000000    0.00025403    0.00633707
     atom   12 type  2   force =     0.00000000   -0.00025378    0.00633561
     atom   13 type  1   force =     0.00000000   -0.00004064   -0.00460612
     atom   14 type  1   force =     0.00000000    0.00003908   -0.00460547
     atom   15 type  2   force =     0.00000000    0.00025468    0.00633635
     atom   16 type  2   force =     0.00000000   -0.00025398    0.00633833
     atom   17 type  1   force =     0.00000000   -0.00004023   -0.00460288
     atom   18 type  1   force =     0.00000000    0.00004058   -0.00460303
     atom   19 type  2   force =     0.00000000    0.00025444    0.00633750
     atom   20 type  2   force =     0.00000000   -0.00025425    0.00633620
     atom   21 type  1   force =     0.00000000   -0.00003911   -0.00460492
     atom   22 type  1   force =     0.00000000    0.00003935   -0.00460520
     atom   23 type  2   force =     0.00000000    0.00025346    0.00633615
     atom   24 type  2   force =     0.00000000   -0.00025462    0.00633730
     The ionic contribution  to forces
     atom    1 type  1   force =    -0.00000000    0.00000001    0.05183208
     atom    2 type  1   force =     0.00000000    0.00000001    0.05183208
     atom    3 type  2   force =    -0.00000000    0.00000000   -0.05183208
     atom    4 type  2   force =     0.00000000    0.00000000   -0.05183208
     atom    5 type  1   force =    -0.00000000    0.00000001    0.05183208
     atom    6 type  1   force =     0.00000000    0.00000001    0.05183208
     atom    7 type  2   force =    -0.00000000    0.00000000   -0.05183208
     atom    8 type  2   force =     0.00000000    0.00000000   -0.05183208
     atom    9 type  1   force =    -0.00000001    0.00000001    0.05183208
     atom   10 type  1   force =     0.00000001   -0.00000001    0.05183208
     atom   11 type  2   force =    -0.00000001    0.00000000   -0.05183208
     atom   12 type  2   force =     0.00000001   -0.00000000   -0.05183208
     atom   13 type  1   force =    -0.00000001    0.00000001    0.05183208
     atom   14 type  1   force =     0.00000001   -0.00000001    0.05183208
     atom   15 type  2   force =    -0.00000001    0.00000000   -0.05183208
     atom   16 type  2   force =     0.00000001   -0.00000000   -0.05183208
     atom   17 type  1   force =    -0.00000000   -0.00000001    0.05183208
     atom   18 type  1   force =     0.00000000   -0.00000001    0.05183208
     atom   19 type  2   force =    -0.00000000   -0.00000000   -0.05183208
     atom   20 type  2   force =     0.00000000   -0.00000000   -0.05183208
     atom   21 type  1   force =    -0.00000000   -0.00000001    0.05183208
     atom   22 type  1   force =     0.00000000   -0.00000001    0.05183208
     atom   23 type  2   force =    -0.00000000   -0.00000000   -0.05183208
     atom   24 type  2   force =     0.00000000   -0.00000000   -0.05183208
     The local contribution  to forces
     atom    1 type  1   force =    -0.00000005    0.00004011   -0.04756844
     atom    2 type  1   force =     0.00000000   -0.00003713   -0.04756860
     atom    3 type  2   force =    -0.00000001   -0.00024289    0.04565193
     atom    4 type  2   force =     0.00000000    0.00024091    0.04565096
     atom    5 type  1   force =    -0.00000005    0.00003910   -0.04756796
     atom    6 type  1   force =     0.00000000   -0.00004437   -0.04756473
     atom    7 type  2   force =    -0.00000001   -0.00024237    0.04565168
     atom    8 type  2   force =    -0.00000000    0.00024139    0.04565378
     atom    9 type  1   force =    -0.00000010    0.00003976   -0.04757191
     atom   10 type  1   force =     0.00000010   -0.00004112   -0.04757278
     atom   11 type  2   force =    -0.00000003   -0.00024171    0.04565271
     atom   12 type  2   force =     0.00000003    0.00024170    0.04564927
     atom   13 type  1   force =    -0.00000010    0.00004325   -0.04756178
     atom   14 type  1   force =     0.00000010   -0.00003873   -0.04756239
     atom   15 type  2   force =    -0.00000003   -0.00024033    0.04565054
     atom   16 type  2   force =     0.00000003    0.00024247    0.04565450
     atom   17 type  1   force =     0.00000000    0.00004230   -0.04756996
     atom   18 type  1   force =     0.00000005   -0.00004388   -0.04757011
     atom   19 type  2   force =     0.00000000   -0.00023966    0.04565272
     atom   20 type  2   force =     0.00000001    0.00024217    0.04565098
     atom   21 type  1   force =     0.00000000    0.00004022   -0.04756550
     atom   22 type  1   force =     0.00000005   -0.00003966   -0.04756341
     atom   23 type  2   force =     0.00000000   -0.00024255    0.04565037
     atom   24 type  2   force =     0.00000001    0.00024037    0.04565349
     The core correction contribution to forces
     atom    1 type  1   force =    -0.00000001    0.00000848    0.00025303
     atom    2 type  1   force =    -0.00000000   -0.00000858    0.00025306
     atom    3 type  2   force =     0.00000000   -0.00000287   -0.00007087
     atom    4 type  2   force =     0.00000000    0.00000286   -0.00007085
     atom    5 type  1   force =    -0.00000001    0.00000852    0.00025311
     atom    6 type  1   force =     0.00000000   -0.00000842    0.00025301
     atom    7 type  2   force =     0.00000000   -0.00000287   -0.00007085
     atom    8 type  2   force =     0.00000000    0.00000287   -0.00007086
     atom    9 type  1   force =    -0.00000001    0.00000850    0.00025310
     atom   10 type  1   force =     0.00000001   -0.00000845    0.00025314
     atom   11 type  2   force =     0.00000000   -0.00000287   -0.00007086
     atom   12 type  2   force =    -0.00000000    0.00000287   -0.00007085
     atom   13 type  1   force =    -0.00000001    0.00000846    0.00025301
     atom   14 type  1   force =     0.00000001   -0.00000852    0.00025296
     atom   15 type  2   force =     0.00000000   -0.00000287   -0.00007085
     atom   16 type  2   force =    -0.00000000    0.00000287   -0.00007087
     atom   17 type  1   force =     0.00000000    0.00000846    0.00025304
     atom   18 type  1   force =     0.00000001   -0.00000841    0.00025307
     atom   19 type  2   force =    -0.00000000   -0.00000287   -0.00007087
     atom   20 type  2   force =    -0.00000000    0.00000287   -0.00007085
     atom   21 type  1   force =     0.00000000    0.00000846    0.00025306
     atom   22 type  1   force =     0.00000001   -0.00000850    0.00025298
     atom   23 type  2   force =    -0.00000000   -0.00000286   -0.00007085
     atom   24 type  2   force =    -0.00000000    0.00000287   -0.00007086
     The Hubbard contrib.    to forces
     atom    1 type  1   force =     0.00000000    0.00000000    0.00000000
     atom    2 type  1   force =     0.00000000    0.00000000    0.00000000
     atom    3 type  2   force =     0.00000000    0.00000000    0.00000000
     atom    4 type  2   force =     0.00000000    0.00000000    0.00000000
     atom    5 type  1   force =     0.00000000    0.00000000    0.00000000
     atom    6 type  1   force =     0.00000000    0.00000000    0.00000000
     atom    7 type  2   force =     0.00000000    0.00000000    0.00000000
     atom    8 type  2   force =     0.00000000    0.00000000    0.00000000
     atom    9 type  1   force =     0.00000000    0.00000000    0.00000000
     atom   10 type  1   force =     0.00000000    0.00000000    0.00000000
     atom   11 type  2   force =     0.00000000    0.00000000    0.00000000
     atom   12 type  2   force =     0.00000000    0.00000000    0.00000000
     atom   13 type  1   force =     0.00000000    0.00000000    0.00000000
     atom   14 type  1   force =     0.00000000    0.00000000    0.00000000
     atom   15 type  2   force =     0.00000000    0.00000000    0.00000000
     atom   16 type  2   force =     0.00000000    0.00000000    0.00000000
     atom   17 type  1   force =     0.00000000    0.00000000    0.00000000
     atom   18 type  1   force =     0.00000000    0.00000000    0.00000000
     atom   19 type  2   force =     0.00000000    0.00000000    0.00000000
     atom   20 type  2   force =     0.00000000    0.00000000    0.00000000
     atom   21 type  1   force =     0.00000000    0.00000000    0.00000000
     atom   22 type  1   force =     0.00000000    0.00000000    0.00000000
     atom   23 type  2   force =     0.00000000    0.00000000    0.00000000
     atom   24 type  2   force =     0.00000000    0.00000000    0.00000000
     The SCF correction term to forces
     atom    1 type  1   force =     0.00000000    0.00000041    0.00000063
     atom    2 type  1   force =    -0.00000000   -0.00000417    0.00000035
     atom    3 type  2   force =     0.00000000    0.00000179   -0.00000127
     atom    4 type  2   force =    -0.00000000    0.00000026    0.00000120
     atom    5 type  1   force =     0.00000000    0.00000200   -0.00000006
     atom    6 type  1   force =    -0.00000000    0.00000603   -0.00000445
     atom    7 type  2   force =     0.00000000    0.00000073    0.00000045
     atom    8 type  2   force =    -0.00000000    0.00000021   -0.00000239
     atom    9 type  1   force =     0.00000000    0.00000147    0.00000548
     atom   10 type  1   force =    -0.00000000    0.00000052    0.00000683
     atom   11 type  2   force =     0.00000000    0.00000041   -0.00000169
     atom   12 type  2   force =    -0.00000000   -0.00000026    0.00000357
     atom   13 type  1   force =     0.00000000   -0.00000395   -0.00000865
     atom   14 type  1   force =    -0.00000000   -0.00000221   -0.00000851
     atom   15 type  2   force =     0.00000000   -0.00000182    0.00000187
     atom   16 type  2   force =    -0.00000000   -0.00000130   -0.00000429
     atom   17 type  1   force =     0.00000000   -0.00000313    0.00000262
     atom   18 type  1   force =    -0.00000000    0.00000488    0.00000282
     atom   19 type  2   force =     0.00000000   -0.00000218   -0.00000211
     atom   20 type  2   force =    -0.00000000   -0.00000052    0.00000117
     atom   21 type  1   force =     0.00000000   -0.00000049   -0.00000371
     atom   22 type  1   force =    -0.00000000   -0.00000091   -0.00000686
     atom   23 type  2   force =     0.00000000    0.00000165    0.00000205
     atom   24 type  2   force =    -0.00000000    0.00000138   -0.00000225

     Total force =     0.000426     Total SCF correction =     0.000023

     General routines

     Parallel routines

   This run was terminated on:   9:33: 6   1Sep2025

   JOB DONE.
Note: The following floating-point exceptions are signalling: IEEE_UNDERFLOW_FLAG IEEE_DENORMAL
Note: The following floating-point exceptions are signalling: IEEE_UNDERFLOW_FLAG IEEE_DENORMAL
Note: The following floating-point exceptions are signalling: IEEE_UNDERFLOW_FLAG IEEE_DENORMAL
Note: The following floating-point exceptions are signalling: IEEE_UNDERFLOW_FLAG IEEE_DENORMAL
Note: The following floating-point exceptions are signalling: IEEE_UNDERFLOW_FLAG IEEE_DENORMAL
Note: The following floating-point exceptions are signalling: IEEE_UNDERFLOW_FLAG IEEE_DENORMAL
Note: The following floating-point exceptions are signalling: IEEE_UNDERFLOW_FLAG IEEE_DENORMAL
Note: The following floating-point exceptions are signalling: IEEE_UNDERFLOW_FLAG IEEE_DENORMAL
Note: The following floating-point exceptions are signalling: IEEE_UNDERFLOW_FLAG IEEE_DENORMAL
Note: The following floating-point exceptions are signalling: IEEE_UNDERFLOW_FLAG IEEE_DENORMAL
Note: The following floating-point exceptions are signalling: IEEE_UNDERFLOW_FLAG IEEE_DENORMAL
Note: The following floating-point exceptions are signalling: IEEE_UNDERFLOW_FLAG IEEE_DENORMAL
Note: The following floating-point exceptions are signalling: IEEE_UNDERFLOW_FLAG IEEE_DENORMAL
Note: The following floating-point exceptions are signalling: IEEE_UNDERFLOW_FLAG IEEE_DENORMAL
Note: The following floating-point exceptions are signalling: IEEE_UNDERFLOW_FLAG IEEE_DENORMAL
Note: The following floating-point exceptions are signalling: IEEE_UNDERFLOW_FLAG IEEE_DENORMAL
Note: The following floating-point exceptions are signalling: IEEE_UNDERFLOW_FLAG IEEE_DENORMAL
Note: The following floating-point exceptions are signalling: IEEE_UNDERFLOW_FLAG IEEE_DENORMAL
Note: The following floating-point exceptions are signalling: IEEE_UNDERFLOW_FLAG IEEE_DENORMAL
Note: The following floating-point exceptions are signalling: IEEE_UNDERFLOW_FLAG IEEE_DENORMAL
Note: The following floating-point exceptions are signalling: IEEE_UNDERFLOW_FLAG IEEE_DENORMAL
Note: The following floating-point exceptions are signalling: IEEE_UNDERFLOW_FLAG IEEE_DENORMAL
Note: The following floating-point exceptions are signalling: IEEE_UNDERFLOW_FLAG IEEE_DENORMAL
Note: The following floating-point exceptions are signalling: IEEE_UNDERFLOW_FLAG IEEE_DENORMAL
Note: The following floating-point exceptions are signalling: IEEE_UNDERFLOW_FLAG IEEE_DENORMAL
Note: The following floating-point exceptions are signalling: IEEE_UNDERFLOW_FLAG IEEE_DENORMAL
Note: The following floating-point exceptions are signalling: IEEE_UNDERFLOW_FLAG IEEE_DENORMAL
Note: The following floating-point exceptions are signalling: IEEE_UNDERFLOW_FLAG IEEE_DENORMAL
Note: The following floating-point exceptions are signalling: IEEE_UNDERFLOW_FLAG IEEE_DENORMAL
Note: The following floating-point exceptions are signalling: IEEE_UNDERFLOW_FLAG IEEE_DENORMAL
Note: The following floating-point exceptions are signalling: IEEE_UNDERFLOW_FLAG IEEE_DENORMAL
Note: The following floating-point exceptions are signalling: IEEE_UNDERFLOW_FLAG IEEE_DENORMAL