     Program PWSCF v.7.0 starts on  1Sep2025 at  6:50: 2

     K-points division:     npool     =       8
     R & G space division:  proc/nbgrp/npool/nimage =       4

     Reading input from /home/jvc/QEspresso7.2/ZnO_database/scripts/cell132.in/ZnO-3.60-1.52-132.in
Warning: card &CELL ignored
Warning: card / ignored
Warning: card &FCP ignored
Warning: card / ignored
Warning: card &RISM ignored
Warning: card / ignored

     Current dimensions of program PWSCF are:
     Max number of different atomic species (ntypx) = 10
     Max number of k-points (npk) =  40000
     Max angular momentum in pseudopotentials (lmaxx) =  4
     file Zn.upf: wavefunction(s)  3D renormalized
     Found identity + (  0.0000  0.0000  0.5000) symmetry
     This is a supercell, fractional translations are disabled
     Message from routine setup:
     using ibrav=0 with symmetry is DISCOURAGED, use correct ibrav instead

     Using Slab Decomposition

     bravais-lattice index     =            0
     lattice parameter (alat)  =       6.7967  a.u.
     unit-cell volume          =    2475.7770 (a.u.)^3
     number of atoms/cell      =           24
     number of atomic types    =            2
     number of electrons       =       216.00
     number of Kohn-Sham states=          108
     kinetic-energy cutoff     =      50.0000  Ry
     charge density cutoff     =     400.0000  Ry
     scf convergence threshold =      1.0E-08
     mixing beta               =       0.3000
     number of iterations used =            8  plain     mixing
     Exchange-correlation= PBE
                           (   1   4   3   4   0   0   0)

     celldm(1)=   6.796739  celldm(2)=   0.000000  celldm(3)=   0.000000
     celldm(4)=   0.000000  celldm(5)=   0.000000  celldm(6)=   0.000000

     crystal axes: (cart. coord. in units of alat)
               a(1) = (   1.000000   0.000000   0.000000 )
               a(2) = (  -1.500000   2.598076   0.000000 )
               a(3) = (   0.000000   0.000000   3.034994 )

     reciprocal axes: (cart. coord. in units 2 pi/alat)
               b(1) = (  1.000000  0.577350 -0.000000 )
               b(2) = (  0.000000  0.384900  0.000000 )
               b(3) = (  0.000000 -0.000000  0.329490 )

     PseudoPot. # 1 for Zn read from file:
     /home/jvc/QEspresso7.2/ZnO_database/pseudos/Zn.upf
     MD5 check sum: 7f56cabf9682ed8c977c2f7d0c5985c5
     Pseudo is Ultrasoft + core correction, Zval = 12.0
     Generated using &quot;atomic&quot; code by A. Dal Corso  v.6.2.2
     Using radial grid of 1201 points,  6 beta functions with:
                l(1) =   0
                l(2) =   0
                l(3) =   1
                l(4) =   1
                l(5) =   2
                l(6) =   2
     Q(r) pseudized with 0 coefficients

     PseudoPot. # 2 for O  read from file:
     /home/jvc/QEspresso7.2/ZnO_database/pseudos/O.upf
     MD5 check sum: 91400c9766925bcf19f520983a725ff0
     Pseudo is Ultrasoft + core correction, Zval =  6.0
     Generated using &quot;atomic&quot; code by A. Dal Corso  v.6.3MaX
     Using radial grid of 1095 points,  4 beta functions with:
                l(1) =   0
                l(2) =   0
                l(3) =   1
                l(4) =   1
     Q(r) pseudized with 0 coefficients

     atomic species   valence    mass     pseudopotential
        Zn            12.00    65.38000     Zn( 1.00)
        O              6.00    15.99900     O ( 1.00)

      2 Sym. Ops. (no inversion) found

                                    s                        frac. trans.

      isym =  1     identity

 cryst.   s( 1) = (     1          0          0      )
                  (     0          1          0      )
                  (     0          0          1      )

 cart.    s( 1) = (  1.0000000  0.0000000  0.0000000 )
                  (  0.0000000  1.0000000  0.0000000 )
                  (  0.0000000  0.0000000  1.0000000 )

      isym =  2     inv. 180 deg rotation - cart. axis [1,0,0]

 cryst.   s( 2) = (    -1          0          0      )
                  (     3          1          0      )
                  (     0          0          1      )

 cart.    s( 2) = ( -1.0000000 -0.0000000  0.0000000 )
                  (  0.0000000  1.0000000  0.0000000 )
                  (  0.0000000  0.0000000  1.0000000 )

   Cartesian axes

     site n.     atom                  positions (alat units)
         1           Zn  tau(   1) = (   0.5000000   0.2886751   0.7597099  )
         2           Zn  tau(   2) = (  -0.0000000   0.5773503   0.0009615  )
         3           O   tau(   3) = (   0.5000000   0.2886751   1.3349062  )
         4           O   tau(   4) = (  -0.0000000   0.5773503   0.5761578  )
         5           Zn  tau(   5) = (   0.5000000   0.2886751   2.2772067  )
         6           Zn  tau(   6) = (  -0.0000000   0.5773503   1.5184583  )
         7           O   tau(   7) = (   0.5000000   0.2886751   2.8524030  )
         8           O   tau(   8) = (  -0.0000000   0.5773503   2.0936546  )
         9           Zn  tau(   9) = (   0.0000000   1.1547005   0.7597099  )
        10           Zn  tau(  10) = (  -0.5000000   1.4433757   0.0009615  )
        11           O   tau(  11) = (   0.0000000   1.1547005   1.3349062  )
        12           O   tau(  12) = (  -0.5000000   1.4433757   0.5761578  )
        13           Zn  tau(  13) = (   0.0000000   1.1547005   2.2772067  )
        14           Zn  tau(  14) = (  -0.5000000   1.4433757   1.5184583  )
        15           O   tau(  15) = (   0.0000000   1.1547005   2.8524030  )
        16           O   tau(  16) = (  -0.5000000   1.4433757   2.0936546  )
        17           Zn  tau(  17) = (  -0.5000000   2.0207259   0.7597099  )
        18           Zn  tau(  18) = (  -1.0000000   2.3094011   0.0009615  )
        19           O   tau(  19) = (  -0.5000000   2.0207259   1.3349062  )
        20           O   tau(  20) = (  -1.0000000   2.3094011   0.5761578  )
        21           Zn  tau(  21) = (  -0.5000000   2.0207259   2.2772067  )
        22           Zn  tau(  22) = (  -1.0000000   2.3094011   1.5184583  )
        23           O   tau(  23) = (  -0.5000000   2.0207259   2.8524030  )
        24           O   tau(  24) = (  -1.0000000   2.3094011   2.0936546  )

   Crystallographic axes

     site n.     atom                  positions (cryst. coord.)
         1           Zn  tau(   1) = (  0.6666667  0.1111111  0.2503168  )
         2           Zn  tau(   2) = (  0.3333333  0.2222222  0.0003168  )
         3           O   tau(   3) = (  0.6666667  0.1111111  0.4398382  )
         4           O   tau(   4) = (  0.3333333  0.2222222  0.1898382  )
         5           Zn  tau(   5) = (  0.6666667  0.1111111  0.7503168  )
         6           Zn  tau(   6) = (  0.3333333  0.2222222  0.5003168  )
         7           O   tau(   7) = (  0.6666667  0.1111111  0.9398382  )
         8           O   tau(   8) = (  0.3333333  0.2222222  0.6898382  )
         9           Zn  tau(   9) = (  0.6666667  0.4444444  0.2503168  )
        10           Zn  tau(  10) = (  0.3333333  0.5555556  0.0003168  )
        11           O   tau(  11) = (  0.6666667  0.4444444  0.4398382  )
        12           O   tau(  12) = (  0.3333333  0.5555556  0.1898382  )
        13           Zn  tau(  13) = (  0.6666667  0.4444444  0.7503168  )
        14           Zn  tau(  14) = (  0.3333333  0.5555556  0.5003168  )
        15           O   tau(  15) = (  0.6666667  0.4444444  0.9398382  )
        16           O   tau(  16) = (  0.3333333  0.5555556  0.6898382  )
        17           Zn  tau(  17) = (  0.6666667  0.7777778  0.2503168  )
        18           Zn  tau(  18) = (  0.3333333  0.8888889  0.0003168  )
        19           O   tau(  19) = (  0.6666667  0.7777778  0.4398382  )
        20           O   tau(  20) = (  0.3333333  0.8888889  0.1898382  )
        21           Zn  tau(  21) = (  0.6666667  0.7777778  0.7503168  )
        22           Zn  tau(  22) = (  0.3333333  0.8888889  0.5003168  )
        23           O   tau(  23) = (  0.6666667  0.7777778  0.9398382  )
        24           O   tau(  24) = (  0.3333333  0.8888889  0.6898382  )

     number of k points=    68
                       cart. coord. in units 2pi/alat
        k(    1) = (   0.0000000   0.0000000   0.0000000), wk =   0.0092593
        k(    2) = (   0.0000000   0.0000000   0.0549150), wk =   0.0185185
        k(    3) = (   0.0000000   0.0000000   0.1098300), wk =   0.0185185
        k(    4) = (   0.0000000   0.0000000  -0.1647450), wk =   0.0092593
        k(    5) = (   0.0000000   0.0641500   0.0000000), wk =   0.0185185
        k(    6) = (   0.0000000   0.0641500   0.0549150), wk =   0.0185185
        k(    7) = (   0.0000000   0.0641500   0.1098300), wk =   0.0185185
        k(    8) = (   0.0000000   0.0641500  -0.1647450), wk =   0.0185185
        k(    9) = (   0.0000000   0.1283001   0.0000000), wk =   0.0185185
        k(   10) = (   0.0000000   0.1283001   0.0549150), wk =   0.0185185
        k(   11) = (   0.0000000   0.1283001   0.1098300), wk =   0.0185185
        k(   12) = (   0.0000000   0.1283001  -0.1647450), wk =   0.0185185
        k(   13) = (   0.0000000  -0.1924501   0.0000000), wk =   0.0092593
        k(   14) = (   0.0000000  -0.1924501   0.0549150), wk =   0.0185185
        k(   15) = (   0.0000000  -0.1924501   0.1098300), wk =   0.0185185
        k(   16) = (   0.0000000  -0.1924501  -0.1647450), wk =   0.0092593
        k(   17) = (   0.1666667   0.0962250   0.0000000), wk =   0.0370370
        k(   18) = (   0.1666667   0.0962250   0.0549150), wk =   0.0370370
        k(   19) = (   0.1666667   0.0962250   0.1098300), wk =   0.0370370
        k(   20) = (   0.1666667   0.0962250  -0.1647450), wk =   0.0370370
        k(   21) = (   0.1666667   0.1603751   0.0000000), wk =   0.0370370
        k(   22) = (   0.1666667   0.1603751   0.0549150), wk =   0.0370370
        k(   23) = (   0.1666667   0.1603751   0.1098300), wk =   0.0370370
        k(   24) = (   0.1666667   0.1603751  -0.1647450), wk =   0.0370370
        k(   25) = (   0.1666667  -0.0320750   0.0000000), wk =   0.0370370
        k(   26) = (   0.1666667  -0.0320750   0.0549150), wk =   0.0370370
        k(   27) = (   0.1666667  -0.0320750   0.1098300), wk =   0.0370370
        k(   28) = (   0.1666667  -0.0320750  -0.1647450), wk =   0.0370370
        k(   29) = (   0.3333333   0.1924501   0.0000000), wk =   0.0185185
        k(   30) = (   0.3333333   0.1924501   0.0549150), wk =   0.0370370
        k(   31) = (   0.3333333   0.1924501   0.1098300), wk =   0.0370370
        k(   32) = (   0.3333333   0.1924501  -0.1647450), wk =   0.0185185
        k(   33) = (   0.3333333   0.2566001   0.0000000), wk =   0.0370370
        k(   34) = (   0.3333333   0.2566001   0.0549150), wk =   0.0370370
        k(   35) = (   0.3333333   0.2566001   0.1098300), wk =   0.0370370
        k(   36) = (   0.3333333   0.2566001  -0.1647450), wk =   0.0370370
        k(   37) = (   0.3333333   0.3207501   0.0000000), wk =   0.0370370
        k(   38) = (   0.3333333   0.3207501   0.0549150), wk =   0.0370370
        k(   39) = (   0.3333333   0.3207501   0.1098300), wk =   0.0370370
[...]

!    total energy              =   -2169.46375478 Ry
     estimated scf accuracy    <          9.6E-09 Ry

     The total energy is the sum of the following terms:
     one-electron contribution =   -1080.24326393 Ry
     hartree contribution      =     765.85635340 Ry
     xc contribution           =    -654.87440701 Ry
     ewald contribution        =   -1200.20243724 Ry

     convergence has been achieved in  41 iterations

     Forces acting on atoms (cartesian axes, Ry/au):

     atom    1 type  1   force =     0.00000000    0.00001232   -0.00149376
     atom    2 type  1   force =     0.00000000    0.00000373   -0.00149747
     atom    3 type  2   force =     0.00000000    0.00000429    0.00149739
     atom    4 type  2   force =     0.00000000   -0.00000456    0.00149632
     atom    5 type  1   force =     0.00000000    0.00000684   -0.00149396
     atom    6 type  1   force =     0.00000000    0.00000386   -0.00149783
     atom    7 type  2   force =     0.00000000    0.00000445    0.00149470
     atom    8 type  2   force =     0.00000000   -0.00000441    0.00149632
     atom    9 type  1   force =     0.00000000    0.00000042   -0.00149404
     atom   10 type  1   force =     0.00000000   -0.00000865   -0.00149600
     atom   11 type  2   force =     0.00000000    0.00000447    0.00149733
     atom   12 type  2   force =     0.00000000   -0.00000412    0.00149620
     atom   13 type  1   force =     0.00000000    0.00000005   -0.00149700
     atom   14 type  1   force =     0.00000000   -0.00000308   -0.00149873
     atom   15 type  2   force =     0.00000000    0.00000446    0.00149461
     atom   16 type  2   force =     0.00000000   -0.00000432    0.00149615
     atom   17 type  1   force =     0.00000000   -0.00000731   -0.00148818
     atom   18 type  1   force =     0.00000000   -0.00000062   -0.00150215
     atom   19 type  2   force =     0.00000000    0.00000445    0.00149713
     atom   20 type  2   force =     0.00000000   -0.00000463    0.00149684
     atom   21 type  1   force =     0.00000000   -0.00000094   -0.00150018
     atom   22 type  1   force =     0.00000000   -0.00000657   -0.00149506
     atom   23 type  2   force =     0.00000000    0.00000450    0.00149493
     atom   24 type  2   force =     0.00000000   -0.00000464    0.00149645
     The non-local contrib.  to forces
     atom    1 type  1   force =     0.00000000   -0.00002102   -0.16404016
     atom    2 type  1   force =     0.00000000    0.00003095   -0.16403649
     atom    3 type  2   force =     0.00000000    0.00022713   -0.14947104
     atom    4 type  2   force =     0.00000000   -0.00023257   -0.14946838
     atom    5 type  1   force =     0.00000000   -0.00002366   -0.16403679
     atom    6 type  1   force =     0.00000000    0.00003067   -0.16404418
     atom    7 type  2   force =     0.00000000    0.00022598   -0.14947077
     atom    8 type  2   force =     0.00000000   -0.00023086   -0.14947043
     atom    9 type  1   force =     0.00000000   -0.00002880   -0.16404064
     atom   10 type  1   force =     0.00000000    0.00002252   -0.16403603
     atom   11 type  2   force =     0.00000000    0.00022896   -0.14947049
     atom   12 type  2   force =     0.00000000   -0.00022567   -0.14946959
     atom   13 type  1   force =     0.00000000   -0.00002859   -0.16403902
     atom   14 type  1   force =     0.00000000    0.00002641   -0.16404370
     atom   15 type  2   force =     0.00000000    0.00023047   -0.14947177
     atom   16 type  2   force =     0.00000000   -0.00022812   -0.14946945
     atom   17 type  1   force =     0.00000000   -0.00003133   -0.16403705
     atom   18 type  1   force =     0.00000000    0.00002772   -0.16403905
     atom   19 type  2   force =     0.00000000    0.00023257   -0.14947298
     atom   20 type  2   force =     0.00000000   -0.00023068   -0.14946937
     atom   21 type  1   force =     0.00000000   -0.00002887   -0.16403979
     atom   22 type  1   force =     0.00000000    0.00002401   -0.16404099
     atom   23 type  2   force =     0.00000000    0.00023250   -0.14946919
     atom   24 type  2   force =     0.00000000   -0.00023026   -0.14946950
     The ionic contribution  to forces
     atom    1 type  1   force =    -0.00000000    0.00000001   -1.04302410
     atom    2 type  1   force =     0.00000000    0.00000001   -1.04302410
     atom    3 type  2   force =    -0.00000000    0.00000000    1.04302410
     atom    4 type  2   force =     0.00000000    0.00000000    1.04302410
     atom    5 type  1   force =    -0.00000000    0.00000001   -1.04302410
     atom    6 type  1   force =     0.00000000    0.00000001   -1.04302410
     atom    7 type  2   force =    -0.00000000    0.00000000    1.04302410
     atom    8 type  2   force =     0.00000000    0.00000000    1.04302410
     atom    9 type  1   force =    -0.00000001    0.00000001   -1.04302410
     atom   10 type  1   force =     0.00000001   -0.00000001   -1.04302410
     atom   11 type  2   force =    -0.00000001    0.00000000    1.04302410
     atom   12 type  2   force =     0.00000001   -0.00000000    1.04302410
     atom   13 type  1   force =    -0.00000001    0.00000001   -1.04302410
     atom   14 type  1   force =     0.00000001   -0.00000001   -1.04302410
     atom   15 type  2   force =    -0.00000001    0.00000000    1.04302410
     atom   16 type  2   force =     0.00000001   -0.00000000    1.04302410
     atom   17 type  1   force =    -0.00000000   -0.00000001   -1.04302410
     atom   18 type  1   force =     0.00000000   -0.00000001   -1.04302410
     atom   19 type  2   force =    -0.00000000   -0.00000000    1.04302410
     atom   20 type  2   force =     0.00000000   -0.00000000    1.04302410
     atom   21 type  1   force =    -0.00000000   -0.00000001   -1.04302410
     atom   22 type  1   force =     0.00000000   -0.00000001   -1.04302410
     atom   23 type  2   force =    -0.00000000   -0.00000000    1.04302410
     atom   24 type  2   force =     0.00000000   -0.00000000    1.04302410
     The local contribution  to forces
     atom    1 type  1   force =    -0.00000005    0.00000590    1.19554742
     atom    2 type  1   force =     0.00000000   -0.00003123    1.19555163
     atom    3 type  2   force =    -0.00000001   -0.00022662   -0.89334756
     atom    4 type  2   force =     0.00000000    0.00021957   -0.89334818
     atom    5 type  1   force =    -0.00000005    0.00001557    1.19553985
     atom    6 type  1   force =     0.00000000   -0.00003185    1.19555230
     atom    7 type  2   force =    -0.00000001   -0.00022694   -0.89334956
     atom    8 type  2   force =     0.00000000    0.00021903   -0.89334915
     atom    9 type  1   force =    -0.00000010    0.00002584    1.19554852
     atom   10 type  1   force =     0.00000010   -0.00001130    1.19554922
     atom   11 type  2   force =    -0.00000003   -0.00022265   -0.89334877
     atom   12 type  2   force =     0.00000003    0.00022603   -0.89335038
     atom   13 type  1   force =    -0.00000010    0.00002518    1.19554517
     atom   14 type  1   force =     0.00000010   -0.00002066    1.19555110
     atom   15 type  2   force =    -0.00000003   -0.00021951   -0.89334978
     atom   16 type  2   force =     0.00000003    0.00022363   -0.89334607
     atom   17 type  1   force =     0.00000000    0.00003737    1.19553892
     atom   18 type  1   force =     0.00000005   -0.00002650    1.19556083
     atom   19 type  2   force =     0.00000000   -0.00021808   -0.89334810
     atom   20 type  2   force =     0.00000001    0.00022310   -0.89335114
     atom   21 type  1   force =     0.00000000    0.00002825    1.19554952
     atom   22 type  1   force =     0.00000005   -0.00001642    1.19554627
     atom   23 type  2   force =     0.00000000   -0.00022159   -0.89334730
     atom   24 type  2   force =     0.00000001    0.00022592   -0.89334802
     The core correction contribution to forces
     atom    1 type  1   force =    -0.00000001    0.00000625    0.01001727
     atom    2 type  1   force =    -0.00000000   -0.00000604    0.01001436
     atom    3 type  2   force =     0.00000000   -0.00000258    0.00129357
     atom    4 type  2   force =     0.00000000    0.00000264    0.00129337
     atom    5 type  1   force =    -0.00000001    0.00000601    0.01001454
     atom    6 type  1   force =    -0.00000000   -0.00000594    0.01001691
     atom    7 type  2   force =     0.00000000   -0.00000256    0.00129187
     atom    8 type  2   force =     0.00000000    0.00000262    0.00129203
     atom    9 type  1   force =    -0.00000001    0.00000604    0.01001726
     atom   10 type  1   force =     0.00000001   -0.00000615    0.01001443
     atom   11 type  2   force =     0.00000000   -0.00000260    0.00129356
     atom   12 type  2   force =    -0.00000000    0.00000256    0.00129338
     atom   13 type  1   force =    -0.00000001    0.00000608    0.01001450
     atom   14 type  1   force =     0.00000001   -0.00000608    0.01001695
     atom   15 type  2   force =     0.00000000   -0.00000261    0.00129188
     atom   16 type  2   force =    -0.00000000    0.00000259    0.00129203
     atom   17 type  1   force =    -0.00000000    0.00000573    0.01001738
     atom   18 type  1   force =     0.00000001   -0.00000584    0.01001416
     atom   19 type  2   force =    -0.00000000   -0.00000264    0.00129359
     atom   20 type  2   force =    -0.00000000    0.00000262    0.00129338
     atom   21 type  1   force =    -0.00000000    0.00000593    0.01001437
     atom   22 type  1   force =     0.00000001   -0.00000600    0.01001689
     atom   23 type  2   force =    -0.00000000   -0.00000264    0.00129185
     atom   24 type  2   force =    -0.00000000    0.00000262    0.00129202
     The Hubbard contrib.    to forces
     atom    1 type  1   force =     0.00000000    0.00000000    0.00000000
     atom    2 type  1   force =     0.00000000    0.00000000    0.00000000
     atom    3 type  2   force =     0.00000000    0.00000000    0.00000000
     atom    4 type  2   force =     0.00000000    0.00000000    0.00000000
     atom    5 type  1   force =     0.00000000    0.00000000    0.00000000
     atom    6 type  1   force =     0.00000000    0.00000000    0.00000000
     atom    7 type  2   force =     0.00000000    0.00000000    0.00000000
     atom    8 type  2   force =     0.00000000    0.00000000    0.00000000
     atom    9 type  1   force =     0.00000000    0.00000000    0.00000000
     atom   10 type  1   force =     0.00000000    0.00000000    0.00000000
     atom   11 type  2   force =     0.00000000    0.00000000    0.00000000
     atom   12 type  2   force =     0.00000000    0.00000000    0.00000000
     atom   13 type  1   force =     0.00000000    0.00000000    0.00000000
     atom   14 type  1   force =     0.00000000    0.00000000    0.00000000
     atom   15 type  2   force =     0.00000000    0.00000000    0.00000000
     atom   16 type  2   force =     0.00000000    0.00000000    0.00000000
     atom   17 type  1   force =     0.00000000    0.00000000    0.00000000
     atom   18 type  1   force =     0.00000000    0.00000000    0.00000000
     atom   19 type  2   force =     0.00000000    0.00000000    0.00000000
     atom   20 type  2   force =     0.00000000    0.00000000    0.00000000
     atom   21 type  1   force =     0.00000000    0.00000000    0.00000000
     atom   22 type  1   force =     0.00000000    0.00000000    0.00000000
     atom   23 type  2   force =     0.00000000    0.00000000    0.00000000
     atom   24 type  2   force =     0.00000000    0.00000000    0.00000000
     The SCF correction term to forces
     atom    1 type  1   force =    -0.00000000    0.00002117    0.00000606
     atom    2 type  1   force =     0.00000000    0.00001004   -0.00000260
     atom    3 type  2   force =    -0.00000000    0.00000635   -0.00000141
     atom    4 type  2   force =     0.00000000    0.00000579   -0.00000432
     atom    5 type  1   force =    -0.00000000    0.00000892    0.00001281
     atom    6 type  1   force =     0.00000000    0.00001098    0.00000150
     atom    7 type  2   force =    -0.00000000    0.00000797   -0.00000068
     atom    8 type  2   force =     0.00000000    0.00000479    0.00000003
     atom    9 type  1   force =    -0.00000000   -0.00000267    0.00000519
     atom   10 type  1   force =     0.00000000   -0.00001371    0.00000074
     atom   11 type  2   force =    -0.00000000    0.00000075   -0.00000080
     atom   12 type  2   force =     0.00000000   -0.00000704   -0.00000104
     atom   13 type  1   force =    -0.00000000   -0.00000264    0.00000672
     atom   14 type  1   force =     0.00000000   -0.00000274    0.00000129
     atom   15 type  2   force =    -0.00000000   -0.00000389    0.00000044
     atom   16 type  2   force =     0.00000000   -0.00000242   -0.00000419
     atom   17 type  1   force =    -0.00000000   -0.00001907    0.00001694
     atom   18 type  1   force =     0.00000000    0.00000401   -0.00001372
     atom   19 type  2   force =    -0.00000000   -0.00000740    0.00000078
     atom   20 type  2   force =     0.00000000    0.00000033    0.00000014
     atom   21 type  1   force =    -0.00000000   -0.00000623    0.00000007
     atom   22 type  1   force =     0.00000000   -0.00000816    0.00000712
     atom   23 type  2   force =    -0.00000000   -0.00000376   -0.00000426
     atom   24 type  2   force =     0.00000000   -0.00000292   -0.00000189

     Total force =     0.007330     Total SCF correction =     0.000051

     General routines

     Parallel routines

   This run was terminated on:   7:33:14   1Sep2025

   JOB DONE.
Note: The following floating-point exceptions are signalling: IEEE_UNDERFLOW_FLAG IEEE_DENORMAL
Note: The following floating-point exceptions are signalling: IEEE_UNDERFLOW_FLAG IEEE_DENORMAL
Note: The following floating-point exceptions are signalling: IEEE_UNDERFLOW_FLAG IEEE_DENORMAL
Note: The following floating-point exceptions are signalling: IEEE_UNDERFLOW_FLAG IEEE_DENORMAL
Note: The following floating-point exceptions are signalling: IEEE_UNDERFLOW_FLAG IEEE_DENORMAL
Note: The following floating-point exceptions are signalling: IEEE_UNDERFLOW_FLAG IEEE_DENORMAL
Note: The following floating-point exceptions are signalling: IEEE_UNDERFLOW_FLAG IEEE_DENORMAL
Note: The following floating-point exceptions are signalling: IEEE_UNDERFLOW_FLAG IEEE_DENORMAL
Note: The following floating-point exceptions are signalling: IEEE_UNDERFLOW_FLAG IEEE_DENORMAL
Note: The following floating-point exceptions are signalling: IEEE_UNDERFLOW_FLAG IEEE_DENORMAL
Note: The following floating-point exceptions are signalling: IEEE_UNDERFLOW_FLAG IEEE_DENORMAL
Note: The following floating-point exceptions are signalling: IEEE_UNDERFLOW_FLAG IEEE_DENORMAL
Note: The following floating-point exceptions are signalling: IEEE_UNDERFLOW_FLAG IEEE_DENORMAL
Note: The following floating-point exceptions are signalling: IEEE_UNDERFLOW_FLAG IEEE_DENORMAL
Note: The following floating-point exceptions are signalling: IEEE_UNDERFLOW_FLAG IEEE_DENORMAL
Note: The following floating-point exceptions are signalling: IEEE_UNDERFLOW_FLAG IEEE_DENORMAL
Note: The following floating-point exceptions are signalling: IEEE_UNDERFLOW_FLAG IEEE_DENORMAL
Note: The following floating-point exceptions are signalling: IEEE_UNDERFLOW_FLAG IEEE_DENORMAL
Note: The following floating-point exceptions are signalling: IEEE_UNDERFLOW_FLAG IEEE_DENORMAL
Note: The following floating-point exceptions are signalling: IEEE_UNDERFLOW_FLAG IEEE_DENORMAL
Note: The following floating-point exceptions are signalling: IEEE_UNDERFLOW_FLAG IEEE_DENORMAL
Note: The following floating-point exceptions are signalling: IEEE_UNDERFLOW_FLAG IEEE_DENORMAL
Note: The following floating-point exceptions are signalling: IEEE_UNDERFLOW_FLAG IEEE_DENORMAL
Note: The following floating-point exceptions are signalling: IEEE_UNDERFLOW_FLAG IEEE_DENORMAL
Note: The following floating-point exceptions are signalling: IEEE_UNDERFLOW_FLAG IEEE_DENORMAL
Note: The following floating-point exceptions are signalling: IEEE_UNDERFLOW_FLAG IEEE_DENORMAL
Note: The following floating-point exceptions are signalling: IEEE_UNDERFLOW_FLAG IEEE_DENORMAL
Note: The following floating-point exceptions are signalling: IEEE_UNDERFLOW_FLAG IEEE_DENORMAL
Note: The following floating-point exceptions are signalling: IEEE_UNDERFLOW_FLAG IEEE_DENORMAL
Note: The following floating-point exceptions are signalling: IEEE_UNDERFLOW_FLAG IEEE_DENORMAL
Note: The following floating-point exceptions are signalling: IEEE_UNDERFLOW_FLAG IEEE_DENORMAL
Note: The following floating-point exceptions are signalling: IEEE_UNDERFLOW_FLAG IEEE_DENORMAL