     Program PWSCF v.7.0 starts on 31Aug2025 at 16:58:10

     K-points division:     npool     =       8
     R & G space division:  proc/nbgrp/npool/nimage =       4

     Reading input from /home/jvc/QEspresso7.2/ZnO_database/scripts/cell132.in/ZnO-3.47-1.55-132.in
Warning: card &CELL ignored
Warning: card / ignored
Warning: card &FCP ignored
Warning: card / ignored
Warning: card &RISM ignored
Warning: card / ignored

     Current dimensions of program PWSCF are:
     Max number of different atomic species (ntypx) = 10
     Max number of k-points (npk) =  40000
     Max angular momentum in pseudopotentials (lmaxx) =  4
     file Zn.upf: wavefunction(s)  3D renormalized
     Found identity + (  0.0000  0.0000  0.5000) symmetry
     This is a supercell, fractional translations are disabled
     Message from routine setup:
     using ibrav=0 with symmetry is DISCOURAGED, use correct ibrav instead

     Using Slab Decomposition

     bravais-lattice index     =            0
     lattice parameter (alat)  =       6.5496  a.u.
     unit-cell volume          =    2262.5305 (a.u.)^3
     number of atoms/cell      =           24
     number of atomic types    =            2
     number of electrons       =       216.00
     number of Kohn-Sham states=          108
     kinetic-energy cutoff     =      50.0000  Ry
     charge density cutoff     =     400.0000  Ry
     scf convergence threshold =      1.0E-08
     mixing beta               =       0.3000
     number of iterations used =            8  plain     mixing
     Exchange-correlation= PBE
                           (   1   4   3   4   0   0   0)

     celldm(1)=   6.549585  celldm(2)=   0.000000  celldm(3)=   0.000000
     celldm(4)=   0.000000  celldm(5)=   0.000000  celldm(6)=   0.000000

     crystal axes: (cart. coord. in units of alat)
               a(1) = (   1.000000   0.000000   0.000000 )
               a(2) = (  -1.500000   2.598076   0.000000 )
               a(3) = (   0.000000   0.000000   3.099568 )

     reciprocal axes: (cart. coord. in units 2 pi/alat)
               b(1) = (  1.000000  0.577350 -0.000000 )
               b(2) = (  0.000000  0.384900  0.000000 )
               b(3) = (  0.000000 -0.000000  0.322626 )

     PseudoPot. # 1 for Zn read from file:
     /home/jvc/QEspresso7.2/ZnO_database/pseudos/Zn.upf
     MD5 check sum: 7f56cabf9682ed8c977c2f7d0c5985c5
     Pseudo is Ultrasoft + core correction, Zval = 12.0
     Generated using &quot;atomic&quot; code by A. Dal Corso  v.6.2.2
     Using radial grid of 1201 points,  6 beta functions with:
                l(1) =   0
                l(2) =   0
                l(3) =   1
                l(4) =   1
                l(5) =   2
                l(6) =   2
     Q(r) pseudized with 0 coefficients

     PseudoPot. # 2 for O  read from file:
     /home/jvc/QEspresso7.2/ZnO_database/pseudos/O.upf
     MD5 check sum: 91400c9766925bcf19f520983a725ff0
     Pseudo is Ultrasoft + core correction, Zval =  6.0
     Generated using &quot;atomic&quot; code by A. Dal Corso  v.6.3MaX
     Using radial grid of 1095 points,  4 beta functions with:
                l(1) =   0
                l(2) =   0
                l(3) =   1
                l(4) =   1
     Q(r) pseudized with 0 coefficients

     atomic species   valence    mass     pseudopotential
        Zn            12.00    65.38000     Zn( 1.00)
        O              6.00    15.99900     O ( 1.00)

      2 Sym. Ops. (no inversion) found

                                    s                        frac. trans.

      isym =  1     identity

 cryst.   s( 1) = (     1          0          0      )
                  (     0          1          0      )
                  (     0          0          1      )

 cart.    s( 1) = (  1.0000000 -0.0000000  0.0000000 )
                  (  0.0000000  1.0000000  0.0000000 )
                  (  0.0000000  0.0000000  1.0000000 )

      isym =  2     inv. 180 deg rotation - cart. axis [1,0,0]

 cryst.   s( 2) = (    -1          0          0      )
                  (     3          1          0      )
                  (     0          0          1      )

 cart.    s( 2) = ( -1.0000000  0.0000000  0.0000000 )
                  (  0.0000000  1.0000000  0.0000000 )
                  (  0.0000000  0.0000000  1.0000000 )

   Cartesian axes

     site n.     atom                  positions (alat units)
         1           Zn  tau(   1) = (   0.5000000   0.2886751   0.7758739  )
         2           Zn  tau(   2) = (  -0.0000000   0.5773503   0.0009819  )
         3           O   tau(   3) = (   0.5000000   0.2886751   1.3633085  )
         4           O   tau(   4) = (  -0.0000000   0.5773503   0.5884164  )
         5           Zn  tau(   5) = (   0.5000000   0.2886751   2.3256580  )
         6           Zn  tau(   6) = (  -0.0000000   0.5773503   1.5507659  )
         7           O   tau(   7) = (   0.5000000   0.2886751   2.9130925  )
         8           O   tau(   8) = (  -0.0000000   0.5773503   2.1382005  )
         9           Zn  tau(   9) = (   0.0000000   1.1547005   0.7758739  )
        10           Zn  tau(  10) = (  -0.5000000   1.4433757   0.0009819  )
        11           O   tau(  11) = (   0.0000000   1.1547005   1.3633085  )
        12           O   tau(  12) = (  -0.5000000   1.4433757   0.5884164  )
        13           Zn  tau(  13) = (   0.0000000   1.1547005   2.3256580  )
        14           Zn  tau(  14) = (  -0.5000000   1.4433757   1.5507659  )
        15           O   tau(  15) = (   0.0000000   1.1547005   2.9130925  )
        16           O   tau(  16) = (  -0.5000000   1.4433757   2.1382005  )
        17           Zn  tau(  17) = (  -0.5000000   2.0207259   0.7758739  )
        18           Zn  tau(  18) = (  -1.0000000   2.3094011   0.0009819  )
        19           O   tau(  19) = (  -0.5000000   2.0207259   1.3633085  )
        20           O   tau(  20) = (  -1.0000000   2.3094011   0.5884164  )
        21           Zn  tau(  21) = (  -0.5000000   2.0207259   2.3256580  )
        22           Zn  tau(  22) = (  -1.0000000   2.3094011   1.5507659  )
        23           O   tau(  23) = (  -0.5000000   2.0207259   2.9130925  )
        24           O   tau(  24) = (  -1.0000000   2.3094011   2.1382005  )

   Crystallographic axes

     site n.     atom                  positions (cryst. coord.)
         1           Zn  tau(   1) = (  0.6666667  0.1111111  0.2503168  )
         2           Zn  tau(   2) = (  0.3333333  0.2222222  0.0003168  )
         3           O   tau(   3) = (  0.6666667  0.1111111  0.4398382  )
         4           O   tau(   4) = (  0.3333333  0.2222222  0.1898382  )
         5           Zn  tau(   5) = (  0.6666667  0.1111111  0.7503168  )
         6           Zn  tau(   6) = (  0.3333333  0.2222222  0.5003168  )
         7           O   tau(   7) = (  0.6666667  0.1111111  0.9398382  )
         8           O   tau(   8) = (  0.3333333  0.2222222  0.6898382  )
         9           Zn  tau(   9) = (  0.6666667  0.4444444  0.2503168  )
        10           Zn  tau(  10) = (  0.3333333  0.5555556  0.0003168  )
        11           O   tau(  11) = (  0.6666667  0.4444444  0.4398382  )
        12           O   tau(  12) = (  0.3333333  0.5555556  0.1898382  )
        13           Zn  tau(  13) = (  0.6666667  0.4444444  0.7503168  )
        14           Zn  tau(  14) = (  0.3333333  0.5555556  0.5003168  )
        15           O   tau(  15) = (  0.6666667  0.4444444  0.9398382  )
        16           O   tau(  16) = (  0.3333333  0.5555556  0.6898382  )
        17           Zn  tau(  17) = (  0.6666667  0.7777778  0.2503168  )
        18           Zn  tau(  18) = (  0.3333333  0.8888889  0.0003168  )
        19           O   tau(  19) = (  0.6666667  0.7777778  0.4398382  )
        20           O   tau(  20) = (  0.3333333  0.8888889  0.1898382  )
        21           Zn  tau(  21) = (  0.6666667  0.7777778  0.7503168  )
        22           Zn  tau(  22) = (  0.3333333  0.8888889  0.5003168  )
        23           O   tau(  23) = (  0.6666667  0.7777778  0.9398382  )
        24           O   tau(  24) = (  0.3333333  0.8888889  0.6898382  )

     number of k points=    68
                       cart. coord. in units 2pi/alat
        k(    1) = (   0.0000000   0.0000000   0.0000000), wk =   0.0092593
        k(    2) = (   0.0000000   0.0000000   0.0537709), wk =   0.0185185
        k(    3) = (   0.0000000   0.0000000   0.1075419), wk =   0.0185185
        k(    4) = (   0.0000000   0.0000000  -0.1613128), wk =   0.0092593
        k(    5) = (   0.0000000   0.0641500   0.0000000), wk =   0.0185185
        k(    6) = (   0.0000000   0.0641500   0.0537709), wk =   0.0185185
        k(    7) = (   0.0000000   0.0641500   0.1075419), wk =   0.0185185
        k(    8) = (   0.0000000   0.0641500  -0.1613128), wk =   0.0185185
        k(    9) = (   0.0000000   0.1283001   0.0000000), wk =   0.0185185
        k(   10) = (   0.0000000   0.1283001   0.0537709), wk =   0.0185185
        k(   11) = (   0.0000000   0.1283001   0.1075419), wk =   0.0185185
        k(   12) = (   0.0000000   0.1283001  -0.1613128), wk =   0.0185185
        k(   13) = (   0.0000000  -0.1924501   0.0000000), wk =   0.0092593
        k(   14) = (   0.0000000  -0.1924501   0.0537709), wk =   0.0185185
        k(   15) = (   0.0000000  -0.1924501   0.1075419), wk =   0.0185185
        k(   16) = (   0.0000000  -0.1924501  -0.1613128), wk =   0.0092593
        k(   17) = (   0.1666667   0.0962250   0.0000000), wk =   0.0370370
        k(   18) = (   0.1666667   0.0962250   0.0537709), wk =   0.0370370
        k(   19) = (   0.1666667   0.0962250   0.1075419), wk =   0.0370370
        k(   20) = (   0.1666667   0.0962250  -0.1613128), wk =   0.0370370
        k(   21) = (   0.1666667   0.1603751   0.0000000), wk =   0.0370370
        k(   22) = (   0.1666667   0.1603751   0.0537709), wk =   0.0370370
        k(   23) = (   0.1666667   0.1603751   0.1075419), wk =   0.0370370
        k(   24) = (   0.1666667   0.1603751  -0.1613128), wk =   0.0370370
        k(   25) = (   0.1666667  -0.0320750   0.0000000), wk =   0.0370370
        k(   26) = (   0.1666667  -0.0320750   0.0537709), wk =   0.0370370
        k(   27) = (   0.1666667  -0.0320750   0.1075419), wk =   0.0370370
        k(   28) = (   0.1666667  -0.0320750  -0.1613128), wk =   0.0370370
        k(   29) = (   0.3333333   0.1924501   0.0000000), wk =   0.0185185
        k(   30) = (   0.3333333   0.1924501   0.0537709), wk =   0.0370370
        k(   31) = (   0.3333333   0.1924501   0.1075419), wk =   0.0370370
        k(   32) = (   0.3333333   0.1924501  -0.1613128), wk =   0.0185185
        k(   33) = (   0.3333333   0.2566001   0.0000000), wk =   0.0370370
        k(   34) = (   0.3333333   0.2566001   0.0537709), wk =   0.0370370
        k(   35) = (   0.3333333   0.2566001   0.1075419), wk =   0.0370370
        k(   36) = (   0.3333333   0.2566001  -0.1613128), wk =   0.0370370
        k(   37) = (   0.3333333   0.3207501   0.0000000), wk =   0.0370370
        k(   38) = (   0.3333333   0.3207501   0.0537709), wk =   0.0370370
        k(   39) = (   0.3333333   0.3207501   0.1075419), wk =   0.0370370
[...]

!    total energy              =   -2169.68863685 Ry
     estimated scf accuracy    <          1.9E-09 Ry

     The total energy is the sum of the following terms:
     one-electron contribution =   -1019.52867735 Ry
     hartree contribution      =     743.26808547 Ry
     xc contribution           =    -655.76512496 Ry
     ewald contribution        =   -1237.66292000 Ry

     convergence has been achieved in  29 iterations

     Forces acting on atoms (cartesian axes, Ry/au):

     atom    1 type  1   force =     0.00000000    0.00001010   -0.00503241
     atom    2 type  1   force =     0.00000000    0.00000053   -0.00503690
     atom    3 type  2   force =     0.00000000    0.00000258    0.00503500
     atom    4 type  2   force =     0.00000000   -0.00000331    0.00503325
     atom    5 type  1   force =     0.00000000    0.00000260   -0.00503910
     atom    6 type  1   force =     0.00000000    0.00001501   -0.00502801
     atom    7 type  2   force =     0.00000000    0.00000335    0.00503269
     atom    8 type  2   force =     0.00000000   -0.00000361    0.00503354
     atom    9 type  1   force =     0.00000000   -0.00000980   -0.00502494
     atom   10 type  1   force =     0.00000000    0.00000808   -0.00503724
     atom   11 type  2   force =     0.00000000    0.00000371    0.00503455
     atom   12 type  2   force =     0.00000000   -0.00000289    0.00503293
     atom   13 type  1   force =     0.00000000   -0.00000409   -0.00504579
     atom   14 type  1   force =     0.00000000   -0.00001026   -0.00502631
     atom   15 type  2   force =     0.00000000    0.00000319    0.00503253
     atom   16 type  2   force =     0.00000000   -0.00000270    0.00503398
     atom   17 type  1   force =     0.00000000   -0.00000881   -0.00503591
     atom   18 type  1   force =     0.00000000    0.00000064   -0.00504176
     atom   19 type  2   force =     0.00000000    0.00000403    0.00503495
     atom   20 type  2   force =     0.00000000   -0.00000340    0.00503386
     atom   21 type  1   force =     0.00000000   -0.00000855   -0.00502835
     atom   22 type  1   force =     0.00000000    0.00000329   -0.00502583
     atom   23 type  2   force =     0.00000000    0.00000331    0.00503191
     atom   24 type  2   force =     0.00000000   -0.00000302    0.00503335
     The non-local contrib.  to forces
     atom    1 type  1   force =     0.00000000    0.00000027   -0.11426594
     atom    2 type  1   force =     0.00000000    0.00000735   -0.11426538
     atom    3 type  2   force =     0.00000000    0.00021830   -0.09504462
     atom    4 type  2   force =     0.00000000   -0.00022883   -0.09504529
     atom    5 type  1   force =     0.00000000   -0.00000458   -0.11426858
     atom    6 type  1   force =     0.00000000    0.00001678   -0.11426662
     atom    7 type  2   force =     0.00000000    0.00022664   -0.09504076
     atom    8 type  2   force =     0.00000000   -0.00022915   -0.09504290
     atom    9 type  1   force =     0.00000000   -0.00001266   -0.11426208
     atom   10 type  1   force =     0.00000000    0.00001050   -0.11426720
     atom   11 type  2   force =     0.00000000    0.00022876   -0.09504563
     atom   12 type  2   force =     0.00000000   -0.00022204   -0.09504479
     atom   13 type  1   force =     0.00000000   -0.00000933   -0.11427346
     atom   14 type  1   force =     0.00000000    0.00000085   -0.11426544
     atom   15 type  2   force =     0.00000000    0.00022422   -0.09504022
     atom   16 type  2   force =     0.00000000   -0.00022258   -0.09504217
     atom   17 type  1   force =     0.00000000   -0.00001199   -0.11426879
     atom   18 type  1   force =     0.00000000    0.00000635   -0.11426820
     atom   19 type  2   force =     0.00000000    0.00023153   -0.09504535
     atom   20 type  2   force =     0.00000000   -0.00022794   -0.09503878
     atom   21 type  1   force =     0.00000000   -0.00001052   -0.11426290
     atom   22 type  1   force =     0.00000000    0.00000698   -0.11426497
     atom   23 type  2   force =     0.00000000    0.00022666   -0.09504234
     atom   24 type  2   force =     0.00000000   -0.00022683   -0.09504874
     The ionic contribution  to forces
     atom    1 type  1   force =    -0.00000000    0.00000001   -0.71135625
     atom    2 type  1   force =     0.00000000    0.00000001   -0.71135625
     atom    3 type  2   force =    -0.00000000    0.00000000    0.71135625
     atom    4 type  2   force =     0.00000000    0.00000000    0.71135625
     atom    5 type  1   force =    -0.00000000    0.00000001   -0.71135625
     atom    6 type  1   force =     0.00000000    0.00000001   -0.71135625
     atom    7 type  2   force =    -0.00000000    0.00000000    0.71135625
     atom    8 type  2   force =     0.00000000    0.00000000    0.71135625
     atom    9 type  1   force =    -0.00000001    0.00000001   -0.71135625
     atom   10 type  1   force =     0.00000001   -0.00000001   -0.71135625
     atom   11 type  2   force =    -0.00000001    0.00000000    0.71135625
     atom   12 type  2   force =     0.00000001   -0.00000000    0.71135625
     atom   13 type  1   force =    -0.00000001    0.00000001   -0.71135625
     atom   14 type  1   force =     0.00000001   -0.00000001   -0.71135625
     atom   15 type  2   force =    -0.00000001    0.00000000    0.71135625
     atom   16 type  2   force =     0.00000001   -0.00000000    0.71135625
     atom   17 type  1   force =    -0.00000000   -0.00000001   -0.71135625
     atom   18 type  1   force =     0.00000000   -0.00000001   -0.71135625
     atom   19 type  2   force =    -0.00000000   -0.00000000    0.71135625
     atom   20 type  2   force =     0.00000000   -0.00000000    0.71135625
     atom   21 type  1   force =    -0.00000000   -0.00000001   -0.71135625
     atom   22 type  1   force =     0.00000000   -0.00000001   -0.71135625
     atom   23 type  2   force =    -0.00000000   -0.00000000    0.71135625
     atom   24 type  2   force =     0.00000000   -0.00000000    0.71135625
     The local contribution  to forces
     atom    1 type  1   force =    -0.00000005   -0.00002207    0.81305293
     atom    2 type  1   force =     0.00000000    0.00000317    0.81305155
     atom    3 type  2   force =    -0.00000001   -0.00022475   -0.61206003
     atom    4 type  2   force =    -0.00000000    0.00021797   -0.61206093
     atom    5 type  1   force =    -0.00000005   -0.00001184    0.81305484
     atom    6 type  1   force =     0.00000000   -0.00002289    0.81303852
     atom    7 type  2   force =    -0.00000001   -0.00021773   -0.61205608
     atom    8 type  2   force =    -0.00000000    0.00021802   -0.61205495
     atom    9 type  1   force =    -0.00000009    0.00001076    0.81303903
     atom   10 type  1   force =     0.00000009   -0.00000934    0.81305607
     atom   11 type  2   force =    -0.00000002   -0.00021634   -0.61205801
     atom   12 type  2   force =     0.00000002    0.00022114   -0.61205730
     atom   13 type  1   force =    -0.00000009    0.00000242    0.81306793
     atom   14 type  1   force =     0.00000009    0.00002262    0.81303781
     atom   15 type  2   force =    -0.00000002   -0.00022090   -0.61205630
     atom   16 type  2   force =     0.00000002    0.00022166   -0.61205966
     atom   17 type  1   force =     0.00000000    0.00001171    0.81305849
     atom   18 type  1   force =     0.00000005    0.00000611    0.81306510
     atom   19 type  2   force =     0.00000000   -0.00021788   -0.61205920
     atom   20 type  2   force =     0.00000001    0.00021997   -0.61205473
     atom   21 type  1   force =     0.00000000    0.00001020    0.81303734
     atom   22 type  1   force =     0.00000005    0.00000002    0.81303774
     atom   23 type  2   force =     0.00000000   -0.00021911   -0.61205484
     atom   24 type  2   force =     0.00000001    0.00021913   -0.61205811
     The core correction contribution to forces
     atom    1 type  1   force =     0.00000008    0.00000608    0.00754232
     atom    2 type  1   force =     0.00000005   -0.00000609    0.00753954
     atom    3 type  2   force =     0.00000000   -0.00000246    0.00078085
     atom    4 type  2   force =    -0.00000000    0.00000262    0.00078201
     atom    5 type  1   force =     0.00000007    0.00000615    0.00754013
     atom    6 type  1   force =     0.00000005   -0.00000571    0.00754377
     atom    7 type  2   force =     0.00000000   -0.00000256    0.00078111
     atom    8 type  2   force =    -0.00000000    0.00000263    0.00077998
     atom    9 type  1   force =    -0.00000002    0.00000612    0.00754264
     atom   10 type  1   force =     0.00000002   -0.00000588    0.00753939
     atom   11 type  2   force =     0.00000001   -0.00000257    0.00078086
     atom   12 type  2   force =    -0.00000001    0.00000248    0.00078200
     atom   13 type  1   force =    -0.00000002    0.00000617    0.00753994
     atom   14 type  1   force =     0.00000002   -0.00000659    0.00754360
     atom   15 type  2   force =     0.00000001   -0.00000251    0.00078109
     atom   16 type  2   force =    -0.00000001    0.00000248    0.00077996
     atom   17 type  1   force =    -0.00000005    0.00000578    0.00754236
     atom   18 type  1   force =    -0.00000007   -0.00000601    0.00753898
     atom   19 type  2   force =     0.00000000   -0.00000265    0.00078086
     atom   20 type  2   force =    -0.00000000    0.00000258    0.00078193
     atom   21 type  1   force =    -0.00000005    0.00000569    0.00754046
     atom   22 type  1   force =    -0.00000008   -0.00000568    0.00754356
     atom   23 type  2   force =     0.00000000   -0.00000259    0.00078113
     atom   24 type  2   force =    -0.00000000    0.00000257    0.00078006
     The Hubbard contrib.    to forces
     atom    1 type  1   force =     0.00000000    0.00000000    0.00000000
     atom    2 type  1   force =     0.00000000    0.00000000    0.00000000
     atom    3 type  2   force =     0.00000000    0.00000000    0.00000000
     atom    4 type  2   force =     0.00000000    0.00000000    0.00000000
     atom    5 type  1   force =     0.00000000    0.00000000    0.00000000
     atom    6 type  1   force =     0.00000000    0.00000000    0.00000000
     atom    7 type  2   force =     0.00000000    0.00000000    0.00000000
     atom    8 type  2   force =     0.00000000    0.00000000    0.00000000
     atom    9 type  1   force =     0.00000000    0.00000000    0.00000000
     atom   10 type  1   force =     0.00000000    0.00000000    0.00000000
     atom   11 type  2   force =     0.00000000    0.00000000    0.00000000
     atom   12 type  2   force =     0.00000000    0.00000000    0.00000000
     atom   13 type  1   force =     0.00000000    0.00000000    0.00000000
     atom   14 type  1   force =     0.00000000    0.00000000    0.00000000
     atom   15 type  2   force =     0.00000000    0.00000000    0.00000000
     atom   16 type  2   force =     0.00000000    0.00000000    0.00000000
     atom   17 type  1   force =     0.00000000    0.00000000    0.00000000
     atom   18 type  1   force =     0.00000000    0.00000000    0.00000000
     atom   19 type  2   force =     0.00000000    0.00000000    0.00000000
     atom   20 type  2   force =     0.00000000    0.00000000    0.00000000
     atom   21 type  1   force =     0.00000000    0.00000000    0.00000000
     atom   22 type  1   force =     0.00000000    0.00000000    0.00000000
     atom   23 type  2   force =     0.00000000    0.00000000    0.00000000
     atom   24 type  2   force =     0.00000000    0.00000000    0.00000000
     The SCF correction term to forces
     atom    1 type  1   force =    -0.00000000    0.00002570   -0.00000684
     atom    2 type  1   force =     0.00000000   -0.00000401   -0.00000772
     atom    3 type  2   force =     0.00000000    0.00001138    0.00000119
     atom    4 type  2   force =     0.00000000    0.00000481   -0.00000015
     atom    5 type  1   force =    -0.00000000    0.00001276   -0.00001061
     atom    6 type  1   force =    -0.00000000    0.00002672    0.00001120
     atom    7 type  2   force =     0.00000000   -0.00000311   -0.00000920
     atom    8 type  2   force =     0.00000000    0.00000478   -0.00000621
     atom    9 type  1   force =     0.00000000   -0.00001413    0.00001036
     atom   10 type  1   force =    -0.00000000    0.00001270   -0.00001062
     atom   11 type  2   force =     0.00000000   -0.00000625   -0.00000030
     atom   12 type  2   force =    -0.00000000   -0.00000457   -0.00000460
     atom   13 type  1   force =     0.00000000   -0.00000346   -0.00002532
     atom   14 type  1   force =    -0.00000000   -0.00002724    0.00001260
     atom   15 type  2   force =     0.00000000    0.00000227   -0.00000967
     atom   16 type  2   force =    -0.00000000   -0.00000437   -0.00000177
     atom   17 type  1   force =     0.00000000   -0.00001440   -0.00001309
     atom   18 type  1   force =     0.00000000   -0.00000591   -0.00002275
     atom   19 type  2   force =    -0.00000000   -0.00000706    0.00000103
     atom   20 type  2   force =    -0.00000000    0.00000189   -0.00001218
     atom   21 type  1   force =     0.00000000   -0.00001402    0.00001164
     atom   22 type  1   force =     0.00000000    0.00000187    0.00001273
     atom   23 type  2   force =    -0.00000000   -0.00000174   -0.00000966
     atom   24 type  2   force =    -0.00000000    0.00000202    0.00000252

     Total force =     0.024659     Total SCF correction =     0.000079

     General routines

     Parallel routines

   This run was terminated on:  17:31: 3  31Aug2025

   JOB DONE.
Note: The following floating-point exceptions are signalling: IEEE_UNDERFLOW_FLAG IEEE_DENORMAL
Note: The following floating-point exceptions are signalling: IEEE_UNDERFLOW_FLAG IEEE_DENORMAL
Note: The following floating-point exceptions are signalling: IEEE_UNDERFLOW_FLAG IEEE_DENORMAL
Note: The following floating-point exceptions are signalling: IEEE_UNDERFLOW_FLAG IEEE_DENORMAL
Note: The following floating-point exceptions are signalling: IEEE_UNDERFLOW_FLAG IEEE_DENORMAL
Note: The following floating-point exceptions are signalling: IEEE_UNDERFLOW_FLAG IEEE_DENORMAL
Note: The following floating-point exceptions are signalling: IEEE_UNDERFLOW_FLAG IEEE_DENORMAL
Note: The following floating-point exceptions are signalling: IEEE_UNDERFLOW_FLAG IEEE_DENORMAL
Note: The following floating-point exceptions are signalling: IEEE_UNDERFLOW_FLAG IEEE_DENORMAL
Note: The following floating-point exceptions are signalling: IEEE_UNDERFLOW_FLAG IEEE_DENORMAL
Note: The following floating-point exceptions are signalling: IEEE_UNDERFLOW_FLAG IEEE_DENORMAL
Note: The following floating-point exceptions are signalling: IEEE_UNDERFLOW_FLAG IEEE_DENORMAL
Note: The following floating-point exceptions are signalling: IEEE_UNDERFLOW_FLAG IEEE_DENORMAL
Note: The following floating-point exceptions are signalling: IEEE_UNDERFLOW_FLAG IEEE_DENORMAL
Note: The following floating-point exceptions are signalling: IEEE_UNDERFLOW_FLAG IEEE_DENORMAL
Note: The following floating-point exceptions are signalling: IEEE_UNDERFLOW_FLAG IEEE_DENORMAL
Note: The following floating-point exceptions are signalling: IEEE_UNDERFLOW_FLAG IEEE_DENORMAL
Note: The following floating-point exceptions are signalling: IEEE_UNDERFLOW_FLAG IEEE_DENORMAL
Note: The following floating-point exceptions are signalling: IEEE_UNDERFLOW_FLAG IEEE_DENORMAL
Note: The following floating-point exceptions are signalling: IEEE_UNDERFLOW_FLAG IEEE_DENORMAL
Note: The following floating-point exceptions are signalling: IEEE_UNDERFLOW_FLAG IEEE_DENORMAL
Note: The following floating-point exceptions are signalling: IEEE_UNDERFLOW_FLAG IEEE_DENORMAL
Note: The following floating-point exceptions are signalling: IEEE_UNDERFLOW_FLAG IEEE_DENORMAL
Note: The following floating-point exceptions are signalling: IEEE_UNDERFLOW_FLAG IEEE_DENORMAL
Note: The following floating-point exceptions are signalling: IEEE_UNDERFLOW_FLAG IEEE_DENORMAL
Note: The following floating-point exceptions are signalling: IEEE_UNDERFLOW_FLAG IEEE_DENORMAL
Note: The following floating-point exceptions are signalling: IEEE_UNDERFLOW_FLAG IEEE_DENORMAL
Note: The following floating-point exceptions are signalling: IEEE_UNDERFLOW_FLAG IEEE_DENORMAL
Note: The following floating-point exceptions are signalling: IEEE_UNDERFLOW_FLAG IEEE_DENORMAL
Note: The following floating-point exceptions are signalling: IEEE_UNDERFLOW_FLAG IEEE_DENORMAL
Note: The following floating-point exceptions are signalling: IEEE_UNDERFLOW_FLAG IEEE_DENORMAL
Note: The following floating-point exceptions are signalling: IEEE_UNDERFLOW_FLAG IEEE_DENORMAL