     Program PWSCF v.7.0 starts on 30Aug2025 at  3:27:42

     K-points division:     npool     =       8
     R & G space division:  proc/nbgrp/npool/nimage =       4

     Reading input from /home/jvc/QEspresso7.2/ZnO_database/scripts/cell132.in/ZnO-3.01-1.49-132.in
Warning: card &CELL ignored
Warning: card / ignored
Warning: card &FCP ignored
Warning: card / ignored
Warning: card &RISM ignored
Warning: card / ignored

     Current dimensions of program PWSCF are:
     Max number of different atomic species (ntypx) = 10
     Max number of k-points (npk) =  40000
     Max angular momentum in pseudopotentials (lmaxx) =  4
     file Zn.upf: wavefunction(s)  3D renormalized
     Found identity + (  0.0000  0.0000  0.5000) symmetry
     This is a supercell, fractional translations are disabled
     Message from routine setup:
     using ibrav=0 with symmetry is DISCOURAGED, use correct ibrav instead

     Using Slab Decomposition

     bravais-lattice index     =            0
     lattice parameter (alat)  =       5.6845  a.u.
     unit-cell volume          =    1417.6105 (a.u.)^3
     number of atoms/cell      =           24
     number of atomic types    =            2
     number of electrons       =       216.00
     number of Kohn-Sham states=          108
     kinetic-energy cutoff     =      50.0000  Ry
     charge density cutoff     =     400.0000  Ry
     scf convergence threshold =      1.0E-08
     mixing beta               =       0.3000
     number of iterations used =            8  plain     mixing
     Exchange-correlation= PBE
                           (   1   4   3   4   0   0   0)

     celldm(1)=   5.684546  celldm(2)=   0.000000  celldm(3)=   0.000000
     celldm(4)=   0.000000  celldm(5)=   0.000000  celldm(6)=   0.000000

     crystal axes: (cart. coord. in units of alat)
               a(1) = (   1.000000   0.000000   0.000000 )
               a(2) = (  -1.500000   2.598076   0.000000 )
               a(3) = (   0.000000   0.000000   2.970419 )

     reciprocal axes: (cart. coord. in units 2 pi/alat)
               b(1) = (  1.000000  0.577350 -0.000000 )
               b(2) = (  0.000000  0.384900  0.000000 )
               b(3) = (  0.000000 -0.000000  0.336653 )

     PseudoPot. # 1 for Zn read from file:
     /home/jvc/QEspresso7.2/ZnO_database/pseudos/Zn.upf
     MD5 check sum: 7f56cabf9682ed8c977c2f7d0c5985c5
     Pseudo is Ultrasoft + core correction, Zval = 12.0
     Generated using &quot;atomic&quot; code by A. Dal Corso  v.6.2.2
     Using radial grid of 1201 points,  6 beta functions with:
                l(1) =   0
                l(2) =   0
                l(3) =   1
                l(4) =   1
                l(5) =   2
                l(6) =   2
     Q(r) pseudized with 0 coefficients

     PseudoPot. # 2 for O  read from file:
     /home/jvc/QEspresso7.2/ZnO_database/pseudos/O.upf
     MD5 check sum: 91400c9766925bcf19f520983a725ff0
     Pseudo is Ultrasoft + core correction, Zval =  6.0
     Generated using &quot;atomic&quot; code by A. Dal Corso  v.6.3MaX
     Using radial grid of 1095 points,  4 beta functions with:
                l(1) =   0
                l(2) =   0
                l(3) =   1
                l(4) =   1
     Q(r) pseudized with 0 coefficients

     atomic species   valence    mass     pseudopotential
        Zn            12.00    65.38000     Zn( 1.00)
        O              6.00    15.99900     O ( 1.00)

      2 Sym. Ops. (no inversion) found

                                    s                        frac. trans.

      isym =  1     identity

 cryst.   s( 1) = (     1          0          0      )
                  (     0          1          0      )
                  (     0          0          1      )

 cart.    s( 1) = (  1.0000000  0.0000000  0.0000000 )
                  (  0.0000000  1.0000000  0.0000000 )
                  (  0.0000000  0.0000000  1.0000000 )

      isym =  2     inv. 180 deg rotation - cart. axis [1,0,0]

 cryst.   s( 2) = (    -1          0          0      )
                  (     3          1          0      )
                  (     0          0          1      )

 cart.    s( 2) = ( -1.0000000 -0.0000000  0.0000000 )
                  (  0.0000000  1.0000000  0.0000000 )
                  (  0.0000000  0.0000000  1.0000000 )

   Cartesian axes

     site n.     atom                  positions (alat units)
         1           Zn  tau(   1) = (   0.5000000   0.2886751   0.7435459  )
         2           Zn  tau(   2) = (  -0.0000000   0.5773503   0.0009410  )
         3           O   tau(   3) = (   0.5000000   0.2886751   1.3065039  )
         4           O   tau(   4) = (  -0.0000000   0.5773503   0.5638991  )
         5           Zn  tau(   5) = (   0.5000000   0.2886751   2.2287555  )
         6           Zn  tau(   6) = (  -0.0000000   0.5773503   1.4861507  )
         7           O   tau(   7) = (   0.5000000   0.2886751   2.7917136  )
         8           O   tau(   8) = (  -0.0000000   0.5773503   2.0491088  )
         9           Zn  tau(   9) = (   0.0000000   1.1547005   0.7435459  )
        10           Zn  tau(  10) = (  -0.5000000   1.4433757   0.0009410  )
        11           O   tau(  11) = (   0.0000000   1.1547005   1.3065039  )
        12           O   tau(  12) = (  -0.5000000   1.4433757   0.5638991  )
        13           Zn  tau(  13) = (   0.0000000   1.1547005   2.2287555  )
        14           Zn  tau(  14) = (  -0.5000000   1.4433757   1.4861507  )
        15           O   tau(  15) = (   0.0000000   1.1547005   2.7917136  )
        16           O   tau(  16) = (  -0.5000000   1.4433757   2.0491088  )
        17           Zn  tau(  17) = (  -0.5000000   2.0207259   0.7435459  )
        18           Zn  tau(  18) = (  -1.0000000   2.3094011   0.0009410  )
        19           O   tau(  19) = (  -0.5000000   2.0207259   1.3065039  )
        20           O   tau(  20) = (  -1.0000000   2.3094011   0.5638991  )
        21           Zn  tau(  21) = (  -0.5000000   2.0207259   2.2287555  )
        22           Zn  tau(  22) = (  -1.0000000   2.3094011   1.4861507  )
        23           O   tau(  23) = (  -0.5000000   2.0207259   2.7917136  )
        24           O   tau(  24) = (  -1.0000000   2.3094011   2.0491088  )

   Crystallographic axes

     site n.     atom                  positions (cryst. coord.)
         1           Zn  tau(   1) = (  0.6666667  0.1111111  0.2503168  )
         2           Zn  tau(   2) = (  0.3333333  0.2222222  0.0003168  )
         3           O   tau(   3) = (  0.6666667  0.1111111  0.4398382  )
         4           O   tau(   4) = (  0.3333333  0.2222222  0.1898382  )
         5           Zn  tau(   5) = (  0.6666667  0.1111111  0.7503168  )
         6           Zn  tau(   6) = (  0.3333333  0.2222222  0.5003168  )
         7           O   tau(   7) = (  0.6666667  0.1111111  0.9398382  )
         8           O   tau(   8) = (  0.3333333  0.2222222  0.6898382  )
         9           Zn  tau(   9) = (  0.6666667  0.4444444  0.2503168  )
        10           Zn  tau(  10) = (  0.3333333  0.5555556  0.0003168  )
        11           O   tau(  11) = (  0.6666667  0.4444444  0.4398382  )
        12           O   tau(  12) = (  0.3333333  0.5555556  0.1898382  )
        13           Zn  tau(  13) = (  0.6666667  0.4444444  0.7503168  )
        14           Zn  tau(  14) = (  0.3333333  0.5555556  0.5003168  )
        15           O   tau(  15) = (  0.6666667  0.4444444  0.9398382  )
        16           O   tau(  16) = (  0.3333333  0.5555556  0.6898382  )
        17           Zn  tau(  17) = (  0.6666667  0.7777778  0.2503168  )
        18           Zn  tau(  18) = (  0.3333333  0.8888889  0.0003168  )
        19           O   tau(  19) = (  0.6666667  0.7777778  0.4398382  )
        20           O   tau(  20) = (  0.3333333  0.8888889  0.1898382  )
        21           Zn  tau(  21) = (  0.6666667  0.7777778  0.7503168  )
        22           Zn  tau(  22) = (  0.3333333  0.8888889  0.5003168  )
        23           O   tau(  23) = (  0.6666667  0.7777778  0.9398382  )
        24           O   tau(  24) = (  0.3333333  0.8888889  0.6898382  )

     number of k points=    68
                       cart. coord. in units 2pi/alat
        k(    1) = (   0.0000000   0.0000000   0.0000000), wk =   0.0092593
        k(    2) = (   0.0000000   0.0000000   0.0561088), wk =   0.0185185
        k(    3) = (   0.0000000   0.0000000   0.1122176), wk =   0.0185185
        k(    4) = (   0.0000000   0.0000000  -0.1683264), wk =   0.0092593
        k(    5) = (   0.0000000   0.0641500   0.0000000), wk =   0.0185185
        k(    6) = (   0.0000000   0.0641500   0.0561088), wk =   0.0185185
        k(    7) = (   0.0000000   0.0641500   0.1122176), wk =   0.0185185
        k(    8) = (   0.0000000   0.0641500  -0.1683264), wk =   0.0185185
        k(    9) = (   0.0000000   0.1283001   0.0000000), wk =   0.0185185
        k(   10) = (   0.0000000   0.1283001   0.0561088), wk =   0.0185185
        k(   11) = (   0.0000000   0.1283001   0.1122176), wk =   0.0185185
        k(   12) = (   0.0000000   0.1283001  -0.1683264), wk =   0.0185185
        k(   13) = (   0.0000000  -0.1924501   0.0000000), wk =   0.0092593
        k(   14) = (   0.0000000  -0.1924501   0.0561088), wk =   0.0185185
        k(   15) = (   0.0000000  -0.1924501   0.1122176), wk =   0.0185185
        k(   16) = (   0.0000000  -0.1924501  -0.1683264), wk =   0.0092593
        k(   17) = (   0.1666667   0.0962250   0.0000000), wk =   0.0370370
        k(   18) = (   0.1666667   0.0962250   0.0561088), wk =   0.0370370
        k(   19) = (   0.1666667   0.0962250   0.1122176), wk =   0.0370370
        k(   20) = (   0.1666667   0.0962250  -0.1683264), wk =   0.0370370
        k(   21) = (   0.1666667   0.1603751   0.0000000), wk =   0.0370370
        k(   22) = (   0.1666667   0.1603751   0.0561088), wk =   0.0370370
        k(   23) = (   0.1666667   0.1603751   0.1122176), wk =   0.0370370
        k(   24) = (   0.1666667   0.1603751  -0.1683264), wk =   0.0370370
        k(   25) = (   0.1666667  -0.0320750   0.0000000), wk =   0.0370370
        k(   26) = (   0.1666667  -0.0320750   0.0561088), wk =   0.0370370
        k(   27) = (   0.1666667  -0.0320750   0.1122176), wk =   0.0370370
        k(   28) = (   0.1666667  -0.0320750  -0.1683264), wk =   0.0370370
        k(   29) = (   0.3333333   0.1924501   0.0000000), wk =   0.0185185
        k(   30) = (   0.3333333   0.1924501   0.0561088), wk =   0.0370370
        k(   31) = (   0.3333333   0.1924501   0.1122176), wk =   0.0370370
        k(   32) = (   0.3333333   0.1924501  -0.1683264), wk =   0.0185185
        k(   33) = (   0.3333333   0.2566001   0.0000000), wk =   0.0370370
        k(   34) = (   0.3333333   0.2566001   0.0561088), wk =   0.0370370
        k(   35) = (   0.3333333   0.2566001   0.1122176), wk =   0.0370370
        k(   36) = (   0.3333333   0.2566001  -0.1683264), wk =   0.0370370
        k(   37) = (   0.3333333   0.3207501   0.0000000), wk =   0.0370370
        k(   38) = (   0.3333333   0.3207501   0.0561088), wk =   0.0370370
        k(   39) = (   0.3333333   0.3207501   0.1122176), wk =   0.0370370
[...]

!    total energy              =   -2168.28976402 Ry
     estimated scf accuracy    <          3.7E-10 Ry

     The total energy is the sum of the following terms:
     one-electron contribution =    -693.18002802 Ry
     hartree contribution      =     631.24337527 Ry
     xc contribution           =    -662.39910724 Ry
     ewald contribution        =   -1443.95400403 Ry

     convergence has been achieved in  23 iterations

     Forces acting on atoms (cartesian axes, Ry/au):

     atom    1 type  1   force =     0.00000000   -0.00001826   -0.12649844
     atom    2 type  1   force =     0.00000000    0.00001725   -0.12649753
     atom    3 type  2   force =     0.00000000    0.00000209    0.12649666
     atom    4 type  2   force =     0.00000000   -0.00000248    0.12649700
     atom    5 type  1   force =     0.00000000   -0.00001691   -0.12649608
     atom    6 type  1   force =     0.00000000    0.00001742   -0.12649420
     atom    7 type  2   force =     0.00000000    0.00000258    0.12649616
     atom    8 type  2   force =     0.00000000   -0.00000238    0.12649568
     atom    9 type  1   force =     0.00000000   -0.00001786   -0.12649864
     atom   10 type  1   force =     0.00000000    0.00001751   -0.12649697
     atom   11 type  2   force =     0.00000000    0.00000193    0.12649699
     atom   12 type  2   force =     0.00000000   -0.00000273    0.12649668
     atom   13 type  1   force =     0.00000000   -0.00001861   -0.12649466
     atom   14 type  1   force =     0.00000000    0.00001606   -0.12649541
     atom   15 type  2   force =     0.00000000    0.00000252    0.12649666
     atom   16 type  2   force =     0.00000000   -0.00000268    0.12649634
     atom   17 type  1   force =     0.00000000   -0.00001639   -0.12649930
     atom   18 type  1   force =     0.00000000    0.00001824   -0.12649672
     atom   19 type  2   force =     0.00000000    0.00000298    0.12649620
     atom   20 type  2   force =     0.00000000   -0.00000258    0.12649679
     atom   21 type  1   force =     0.00000000   -0.00001696   -0.12649489
     atom   22 type  1   force =     0.00000000    0.00001880   -0.12649571
     atom   23 type  2   force =     0.00000000    0.00000258    0.12649633
     atom   24 type  2   force =     0.00000000   -0.00000211    0.12649706
     The non-local contrib.  to forces
     atom    1 type  1   force =     0.00000000    0.00002471   -0.29177431
     atom    2 type  1   force =     0.00000000   -0.00002490   -0.29177327
     atom    3 type  2   force =     0.00000000    0.00016068   -0.15702912
     atom    4 type  2   force =     0.00000000   -0.00016098   -0.15702844
     atom    5 type  1   force =     0.00000000    0.00002512   -0.29177250
     atom    6 type  1   force =     0.00000000   -0.00002496   -0.29177283
     atom    7 type  2   force =     0.00000000    0.00016127   -0.15702938
     atom    8 type  2   force =     0.00000000   -0.00016066   -0.15703031
     atom    9 type  1   force =     0.00000000    0.00002466   -0.29177458
     atom   10 type  1   force =     0.00000000   -0.00002443   -0.29177311
     atom   11 type  2   force =     0.00000000    0.00016080   -0.15702893
     atom   12 type  2   force =     0.00000000   -0.00016133   -0.15702792
     atom   13 type  1   force =     0.00000000    0.00002423   -0.29177199
     atom   14 type  1   force =     0.00000000   -0.00002485   -0.29177323
     atom   15 type  2   force =     0.00000000    0.00016130   -0.15702874
     atom   16 type  2   force =     0.00000000   -0.00016098   -0.15702977
     atom   17 type  1   force =     0.00000000    0.00002512   -0.29177460
     atom   18 type  1   force =     0.00000000   -0.00002480   -0.29177335
     atom   19 type  2   force =     0.00000000    0.00016138   -0.15702983
     atom   20 type  2   force =     0.00000000   -0.00016145   -0.15702879
     atom   21 type  1   force =     0.00000000    0.00002487   -0.29177217
     atom   22 type  1   force =     0.00000000   -0.00002509   -0.29177286
     atom   23 type  2   force =     0.00000000    0.00016184   -0.15702926
     atom   24 type  2   force =     0.00000000   -0.00016088   -0.15702948
     The ionic contribution  to forces
     atom    1 type  1   force =    -0.00000000    0.00000001   -2.06565051
     atom    2 type  1   force =     0.00000000    0.00000001   -2.06565051
     atom    3 type  2   force =    -0.00000000    0.00000001    2.06565051
     atom    4 type  2   force =     0.00000000    0.00000000    2.06565051
     atom    5 type  1   force =    -0.00000000    0.00000001   -2.06565051
     atom    6 type  1   force =     0.00000000    0.00000001   -2.06565051
     atom    7 type  2   force =    -0.00000000    0.00000001    2.06565051
     atom    8 type  2   force =     0.00000000    0.00000000    2.06565051
     atom    9 type  1   force =    -0.00000001    0.00000001   -2.06565051
     atom   10 type  1   force =     0.00000001   -0.00000001   -2.06565051
     atom   11 type  2   force =    -0.00000001    0.00000001    2.06565051
     atom   12 type  2   force =     0.00000001   -0.00000001    2.06565051
     atom   13 type  1   force =    -0.00000001    0.00000001   -2.06565051
     atom   14 type  1   force =     0.00000001   -0.00000001   -2.06565051
     atom   15 type  2   force =    -0.00000001    0.00000001    2.06565051
     atom   16 type  2   force =     0.00000001   -0.00000001    2.06565051
     atom   17 type  1   force =    -0.00000000   -0.00000001   -2.06565051
     atom   18 type  1   force =     0.00000000   -0.00000001   -2.06565051
     atom   19 type  2   force =    -0.00000000   -0.00000000    2.06565051
     atom   20 type  2   force =     0.00000000   -0.00000001    2.06565051
     atom   21 type  1   force =    -0.00000000   -0.00000001   -2.06565051
     atom   22 type  1   force =     0.00000000   -0.00000001   -2.06565051
     atom   23 type  2   force =    -0.00000000   -0.00000000    2.06565051
     atom   24 type  2   force =     0.00000000   -0.00000001    2.06565051
     The local contribution  to forces
     atom    1 type  1   force =    -0.00000004   -0.00004387    2.20066933
     atom    2 type  1   force =     0.00000000    0.00004520    2.20066773
     atom    3 type  2   force =    -0.00000001   -0.00015690   -1.78280944
     atom    4 type  2   force =    -0.00000000    0.00015648   -1.78280624
     atom    5 type  1   force =    -0.00000004   -0.00004606    2.20066484
     atom    6 type  1   force =     0.00000000    0.00004525    2.20066403
     atom    7 type  2   force =    -0.00000001   -0.00015745   -1.78280819
     atom    8 type  2   force =     0.00000000    0.00015644   -1.78280966
     atom    9 type  1   force =    -0.00000008   -0.00004481    2.20066952
     atom   10 type  1   force =     0.00000008    0.00004503    2.20066685
     atom   11 type  2   force =    -0.00000002   -0.00015651   -1.78280872
     atom   12 type  2   force =     0.00000002    0.00015688   -1.78280670
     atom   13 type  1   force =    -0.00000008   -0.00004354    2.20066363
     atom   14 type  1   force =     0.00000008    0.00004652    2.20066520
     atom   15 type  2   force =    -0.00000002   -0.00015724   -1.78280839
     atom   16 type  2   force =     0.00000002    0.00015731   -1.78281050
     atom   17 type  1   force =     0.00000000   -0.00004640    2.20067081
     atom   18 type  1   force =     0.00000004    0.00004482    2.20066621
     atom   19 type  2   force =    -0.00000000   -0.00015834   -1.78280812
     atom   20 type  2   force =     0.00000001    0.00015672   -1.78280673
     atom   21 type  1   force =     0.00000000   -0.00004519    2.20066386
     atom   22 type  1   force =     0.00000004    0.00004410    2.20066512
     atom   23 type  2   force =    -0.00000000   -0.00015755   -1.78280833
     atom   24 type  2   force =     0.00000001    0.00015590   -1.78280862
     The core correction contribution to forces
     atom    1 type  1   force =    -0.00000001    0.00000225    0.03026245
     atom    2 type  1   force =     0.00000000   -0.00000225    0.03026243
     atom    3 type  2   force =     0.00000000   -0.00000183    0.00068928
     atom    4 type  2   force =     0.00000000    0.00000183    0.00068928
     atom    5 type  1   force =    -0.00000001    0.00000228    0.03026246
     atom    6 type  1   force =     0.00000000   -0.00000227    0.03026248
     atom    7 type  2   force =     0.00000000   -0.00000183    0.00068928
     atom    8 type  2   force =     0.00000000    0.00000182    0.00068929
     atom    9 type  1   force =    -0.00000001    0.00000229    0.03026246
     atom   10 type  1   force =     0.00000001   -0.00000228    0.03026243
     atom   11 type  2   force =     0.00000000   -0.00000182    0.00068928
     atom   12 type  2   force =    -0.00000000    0.00000183    0.00068927
     atom   13 type  1   force =    -0.00000001    0.00000227    0.03026246
     atom   14 type  1   force =     0.00000001   -0.00000227    0.03026247
     atom   15 type  2   force =     0.00000000   -0.00000183    0.00068927
     atom   16 type  2   force =    -0.00000000    0.00000183    0.00068928
     atom   17 type  1   force =    -0.00000000    0.00000228    0.03026245
     atom   18 type  1   force =     0.00000001   -0.00000228    0.03026247
     atom   19 type  2   force =    -0.00000000   -0.00000184    0.00068929
     atom   20 type  2   force =    -0.00000000    0.00000183    0.00068928
     atom   21 type  1   force =    -0.00000000    0.00000226    0.03026246
     atom   22 type  1   force =     0.00000001   -0.00000224    0.03026246
     atom   23 type  2   force =    -0.00000000   -0.00000184    0.00068928
     atom   24 type  2   force =    -0.00000000    0.00000183    0.00068929
     The Hubbard contrib.    to forces
     atom    1 type  1   force =     0.00000000    0.00000000    0.00000000
     atom    2 type  1   force =     0.00000000    0.00000000    0.00000000
     atom    3 type  2   force =     0.00000000    0.00000000    0.00000000
     atom    4 type  2   force =     0.00000000    0.00000000    0.00000000
     atom    5 type  1   force =     0.00000000    0.00000000    0.00000000
     atom    6 type  1   force =     0.00000000    0.00000000    0.00000000
     atom    7 type  2   force =     0.00000000    0.00000000    0.00000000
     atom    8 type  2   force =     0.00000000    0.00000000    0.00000000
     atom    9 type  1   force =     0.00000000    0.00000000    0.00000000
     atom   10 type  1   force =     0.00000000    0.00000000    0.00000000
     atom   11 type  2   force =     0.00000000    0.00000000    0.00000000
     atom   12 type  2   force =     0.00000000    0.00000000    0.00000000
     atom   13 type  1   force =     0.00000000    0.00000000    0.00000000
     atom   14 type  1   force =     0.00000000    0.00000000    0.00000000
     atom   15 type  2   force =     0.00000000    0.00000000    0.00000000
     atom   16 type  2   force =     0.00000000    0.00000000    0.00000000
     atom   17 type  1   force =     0.00000000    0.00000000    0.00000000
     atom   18 type  1   force =     0.00000000    0.00000000    0.00000000
     atom   19 type  2   force =     0.00000000    0.00000000    0.00000000
     atom   20 type  2   force =     0.00000000    0.00000000    0.00000000
     atom   21 type  1   force =     0.00000000    0.00000000    0.00000000
     atom   22 type  1   force =     0.00000000    0.00000000    0.00000000
     atom   23 type  2   force =     0.00000000    0.00000000    0.00000000
     atom   24 type  2   force =     0.00000000    0.00000000    0.00000000
     The SCF correction term to forces
     atom    1 type  1   force =    -0.00000000   -0.00000144   -0.00000092
     atom    2 type  1   force =     0.00000000   -0.00000090    0.00000056
     atom    3 type  2   force =    -0.00000000    0.00000005   -0.00000011
     atom    4 type  2   force =     0.00000000    0.00000011   -0.00000363
     atom    5 type  1   force =    -0.00000000    0.00000165    0.00000410
     atom    6 type  1   force =     0.00000000   -0.00000070    0.00000710
     atom    7 type  2   force =    -0.00000000    0.00000050   -0.00000159
     atom    8 type  2   force =     0.00000000   -0.00000007    0.00000031
     atom    9 type  1   force =    -0.00000000   -0.00000009   -0.00000106
     atom   10 type  1   force =     0.00000000   -0.00000088    0.00000184
     atom   11 type  2   force =    -0.00000000   -0.00000063   -0.00000068
     atom   12 type  2   force =     0.00000000   -0.00000019   -0.00000402
     atom   13 type  1   force =    -0.00000000   -0.00000167    0.00000622
     atom   14 type  1   force =     0.00000000   -0.00000341    0.00000514
     atom   15 type  2   force =    -0.00000000    0.00000021   -0.00000153
     atom   16 type  2   force =     0.00000000   -0.00000091    0.00000129
     atom   17 type  1   force =    -0.00000000    0.00000254   -0.00000298
     atom   18 type  1   force =     0.00000000    0.00000042    0.00000293
     atom   19 type  2   force =    -0.00000000    0.00000170   -0.00000119
     atom   20 type  2   force =     0.00000000    0.00000024   -0.00000300
     atom   21 type  1   force =    -0.00000000    0.00000102    0.00000594
     atom   22 type  1   force =     0.00000000    0.00000197    0.00000455
     atom   23 type  2   force =    -0.00000000    0.00000005   -0.00000139
     atom   24 type  2   force =     0.00000000    0.00000097   -0.00000017

     Total force =     0.619704     Total SCF correction =     0.000017

     General routines

     Parallel routines

   This run was terminated on:   3:44:17  30Aug2025

   JOB DONE.
Note: The following floating-point exceptions are signalling: IEEE_UNDERFLOW_FLAG IEEE_DENORMAL
Note: The following floating-point exceptions are signalling: IEEE_UNDERFLOW_FLAG IEEE_DENORMAL
Note: The following floating-point exceptions are signalling: IEEE_UNDERFLOW_FLAG IEEE_DENORMAL
Note: The following floating-point exceptions are signalling: IEEE_UNDERFLOW_FLAG IEEE_DENORMAL
Note: The following floating-point exceptions are signalling: IEEE_UNDERFLOW_FLAG IEEE_DENORMAL
Note: The following floating-point exceptions are signalling: IEEE_UNDERFLOW_FLAG IEEE_DENORMAL
Note: The following floating-point exceptions are signalling: IEEE_UNDERFLOW_FLAG IEEE_DENORMAL
Note: The following floating-point exceptions are signalling: IEEE_UNDERFLOW_FLAG IEEE_DENORMAL
Note: The following floating-point exceptions are signalling: IEEE_UNDERFLOW_FLAG IEEE_DENORMAL
Note: The following floating-point exceptions are signalling: IEEE_UNDERFLOW_FLAG IEEE_DENORMAL
Note: The following floating-point exceptions are signalling: IEEE_UNDERFLOW_FLAG IEEE_DENORMAL
Note: The following floating-point exceptions are signalling: IEEE_UNDERFLOW_FLAG IEEE_DENORMAL
Note: The following floating-point exceptions are signalling: IEEE_UNDERFLOW_FLAG IEEE_DENORMAL
Note: The following floating-point exceptions are signalling: IEEE_UNDERFLOW_FLAG IEEE_DENORMAL
Note: The following floating-point exceptions are signalling: IEEE_UNDERFLOW_FLAG IEEE_DENORMAL
Note: The following floating-point exceptions are signalling: IEEE_UNDERFLOW_FLAG IEEE_DENORMAL
Note: The following floating-point exceptions are signalling: IEEE_UNDERFLOW_FLAG IEEE_DENORMAL
Note: The following floating-point exceptions are signalling: IEEE_UNDERFLOW_FLAG IEEE_DENORMAL
Note: The following floating-point exceptions are signalling: IEEE_UNDERFLOW_FLAG IEEE_DENORMAL
Note: The following floating-point exceptions are signalling: IEEE_UNDERFLOW_FLAG IEEE_DENORMAL
Note: The following floating-point exceptions are signalling: IEEE_UNDERFLOW_FLAG IEEE_DENORMAL
Note: The following floating-point exceptions are signalling: IEEE_UNDERFLOW_FLAG IEEE_DENORMAL
Note: The following floating-point exceptions are signalling: IEEE_UNDERFLOW_FLAG IEEE_DENORMAL
Note: The following floating-point exceptions are signalling: IEEE_UNDERFLOW_FLAG IEEE_DENORMAL
Note: The following floating-point exceptions are signalling: IEEE_UNDERFLOW_FLAG IEEE_DENORMAL
Note: The following floating-point exceptions are signalling: IEEE_UNDERFLOW_FLAG IEEE_DENORMAL
Note: The following floating-point exceptions are signalling: IEEE_UNDERFLOW_FLAG IEEE_DENORMAL
Note: The following floating-point exceptions are signalling: IEEE_UNDERFLOW_FLAG IEEE_DENORMAL
Note: The following floating-point exceptions are signalling: IEEE_UNDERFLOW_FLAG IEEE_DENORMAL
Note: The following floating-point exceptions are signalling: IEEE_UNDERFLOW_FLAG IEEE_DENORMAL
Note: The following floating-point exceptions are signalling: IEEE_UNDERFLOW_FLAG IEEE_DENORMAL
Note: The following floating-point exceptions are signalling: IEEE_UNDERFLOW_FLAG IEEE_DENORMAL