     Program PWSCF v.7.0 starts on 31Aug2025 at 17:31: 4

     K-points division:     npool     =       8
     R & G space division:  proc/nbgrp/npool/nimage =       4

     Reading input from /home/jvc/QEspresso7.2/ZnO_database/scripts/cell132.in/ZnO-3.47-1.58-132.in
Warning: card &CELL ignored
Warning: card / ignored
Warning: card &FCP ignored
Warning: card / ignored
Warning: card &RISM ignored
Warning: card / ignored

     Current dimensions of program PWSCF are:
     Max number of different atomic species (ntypx) = 10
     Max number of k-points (npk) =  40000
     Max angular momentum in pseudopotentials (lmaxx) =  4
     file Zn.upf: wavefunction(s)  3D renormalized
     Found identity + (  0.0000  0.0000  0.5000) symmetry
     This is a supercell, fractional translations are disabled
     Message from routine setup:
     using ibrav=0 with symmetry is DISCOURAGED, use correct ibrav instead

     Using Slab Decomposition

     bravais-lattice index     =            0
     lattice parameter (alat)  =       6.5496  a.u.
     unit-cell volume          =    2309.6666 (a.u.)^3
     number of atoms/cell      =           24
     number of atomic types    =            2
     number of electrons       =       216.00
     number of Kohn-Sham states=          108
     kinetic-energy cutoff     =      50.0000  Ry
     charge density cutoff     =     400.0000  Ry
     scf convergence threshold =      1.0E-08
     mixing beta               =       0.3000
     number of iterations used =            8  plain     mixing
     Exchange-correlation= PBE
                           (   1   4   3   4   0   0   0)

     celldm(1)=   6.549585  celldm(2)=   0.000000  celldm(3)=   0.000000
     celldm(4)=   0.000000  celldm(5)=   0.000000  celldm(6)=   0.000000

     crystal axes: (cart. coord. in units of alat)
               a(1) = (   1.000000   0.000000   0.000000 )
               a(2) = (  -1.500000   2.598076   0.000000 )
               a(3) = (   0.000000   0.000000   3.164142 )

     reciprocal axes: (cart. coord. in units 2 pi/alat)
               b(1) = (  1.000000  0.577350 -0.000000 )
               b(2) = (  0.000000  0.384900  0.000000 )
               b(3) = (  0.000000 -0.000000  0.316041 )

     PseudoPot. # 1 for Zn read from file:
     /home/jvc/QEspresso7.2/ZnO_database/pseudos/Zn.upf
     MD5 check sum: 7f56cabf9682ed8c977c2f7d0c5985c5
     Pseudo is Ultrasoft + core correction, Zval = 12.0
     Generated using &quot;atomic&quot; code by A. Dal Corso  v.6.2.2
     Using radial grid of 1201 points,  6 beta functions with:
                l(1) =   0
                l(2) =   0
                l(3) =   1
                l(4) =   1
                l(5) =   2
                l(6) =   2
     Q(r) pseudized with 0 coefficients

     PseudoPot. # 2 for O  read from file:
     /home/jvc/QEspresso7.2/ZnO_database/pseudos/O.upf
     MD5 check sum: 91400c9766925bcf19f520983a725ff0
     Pseudo is Ultrasoft + core correction, Zval =  6.0
     Generated using &quot;atomic&quot; code by A. Dal Corso  v.6.3MaX
     Using radial grid of 1095 points,  4 beta functions with:
                l(1) =   0
                l(2) =   0
                l(3) =   1
                l(4) =   1
     Q(r) pseudized with 0 coefficients

     atomic species   valence    mass     pseudopotential
        Zn            12.00    65.38000     Zn( 1.00)
        O              6.00    15.99900     O ( 1.00)

      2 Sym. Ops. (no inversion) found

                                    s                        frac. trans.

      isym =  1     identity

 cryst.   s( 1) = (     1          0          0      )
                  (     0          1          0      )
                  (     0          0          1      )

 cart.    s( 1) = (  1.0000000  0.0000000  0.0000000 )
                  (  0.0000000  1.0000000  0.0000000 )
                  (  0.0000000  0.0000000  1.0000000 )

      isym =  2     inv. 180 deg rotation - cart. axis [1,0,0]

 cryst.   s( 2) = (    -1          0          0      )
                  (     3          1          0      )
                  (     0          0          1      )

 cart.    s( 2) = ( -1.0000000  0.0000000  0.0000000 )
                  (  0.0000000  1.0000000  0.0000000 )
                  (  0.0000000  0.0000000  1.0000000 )

   Cartesian axes

     site n.     atom                  positions (alat units)
         1           Zn  tau(   1) = (   0.5000000   0.2886751   0.7920380  )
         2           Zn  tau(   2) = (  -0.0000000   0.5773503   0.0010024  )
         3           O   tau(   3) = (   0.5000000   0.2886751   1.3917107  )
         4           O   tau(   4) = (  -0.0000000   0.5773503   0.6006751  )
         5           Zn  tau(   5) = (   0.5000000   0.2886751   2.3741092  )
         6           Zn  tau(   6) = (  -0.0000000   0.5773503   1.5830736  )
         7           O   tau(   7) = (   0.5000000   0.2886751   2.9737819  )
         8           O   tau(   8) = (  -0.0000000   0.5773503   2.1827463  )
         9           Zn  tau(   9) = (   0.0000000   1.1547005   0.7920380  )
        10           Zn  tau(  10) = (  -0.5000000   1.4433757   0.0010024  )
        11           O   tau(  11) = (   0.0000000   1.1547005   1.3917107  )
        12           O   tau(  12) = (  -0.5000000   1.4433757   0.6006751  )
        13           Zn  tau(  13) = (   0.0000000   1.1547005   2.3741092  )
        14           Zn  tau(  14) = (  -0.5000000   1.4433757   1.5830736  )
        15           O   tau(  15) = (   0.0000000   1.1547005   2.9737819  )
        16           O   tau(  16) = (  -0.5000000   1.4433757   2.1827463  )
        17           Zn  tau(  17) = (  -0.5000000   2.0207259   0.7920380  )
        18           Zn  tau(  18) = (  -1.0000000   2.3094011   0.0010024  )
        19           O   tau(  19) = (  -0.5000000   2.0207259   1.3917107  )
        20           O   tau(  20) = (  -1.0000000   2.3094011   0.6006751  )
        21           Zn  tau(  21) = (  -0.5000000   2.0207259   2.3741092  )
        22           Zn  tau(  22) = (  -1.0000000   2.3094011   1.5830736  )
        23           O   tau(  23) = (  -0.5000000   2.0207259   2.9737819  )
        24           O   tau(  24) = (  -1.0000000   2.3094011   2.1827463  )

   Crystallographic axes

     site n.     atom                  positions (cryst. coord.)
         1           Zn  tau(   1) = (  0.6666667  0.1111111  0.2503168  )
         2           Zn  tau(   2) = (  0.3333333  0.2222222  0.0003168  )
         3           O   tau(   3) = (  0.6666667  0.1111111  0.4398382  )
         4           O   tau(   4) = (  0.3333333  0.2222222  0.1898382  )
         5           Zn  tau(   5) = (  0.6666667  0.1111111  0.7503168  )
         6           Zn  tau(   6) = (  0.3333333  0.2222222  0.5003168  )
         7           O   tau(   7) = (  0.6666667  0.1111111  0.9398382  )
         8           O   tau(   8) = (  0.3333333  0.2222222  0.6898382  )
         9           Zn  tau(   9) = (  0.6666667  0.4444444  0.2503168  )
        10           Zn  tau(  10) = (  0.3333333  0.5555556  0.0003168  )
        11           O   tau(  11) = (  0.6666667  0.4444444  0.4398382  )
        12           O   tau(  12) = (  0.3333333  0.5555556  0.1898382  )
        13           Zn  tau(  13) = (  0.6666667  0.4444444  0.7503168  )
        14           Zn  tau(  14) = (  0.3333333  0.5555556  0.5003168  )
        15           O   tau(  15) = (  0.6666667  0.4444444  0.9398382  )
        16           O   tau(  16) = (  0.3333333  0.5555556  0.6898382  )
        17           Zn  tau(  17) = (  0.6666667  0.7777778  0.2503168  )
        18           Zn  tau(  18) = (  0.3333333  0.8888889  0.0003168  )
        19           O   tau(  19) = (  0.6666667  0.7777778  0.4398382  )
        20           O   tau(  20) = (  0.3333333  0.8888889  0.1898382  )
        21           Zn  tau(  21) = (  0.6666667  0.7777778  0.7503168  )
        22           Zn  tau(  22) = (  0.3333333  0.8888889  0.5003168  )
        23           O   tau(  23) = (  0.6666667  0.7777778  0.9398382  )
        24           O   tau(  24) = (  0.3333333  0.8888889  0.6898382  )

     number of k points=    68
                       cart. coord. in units 2pi/alat
        k(    1) = (   0.0000000   0.0000000   0.0000000), wk =   0.0092593
        k(    2) = (   0.0000000   0.0000000   0.0526736), wk =   0.0185185
        k(    3) = (   0.0000000   0.0000000   0.1053471), wk =   0.0185185
        k(    4) = (   0.0000000   0.0000000  -0.1580207), wk =   0.0092593
        k(    5) = (   0.0000000   0.0641500   0.0000000), wk =   0.0185185
        k(    6) = (   0.0000000   0.0641500   0.0526736), wk =   0.0185185
        k(    7) = (   0.0000000   0.0641500   0.1053471), wk =   0.0185185
        k(    8) = (   0.0000000   0.0641500  -0.1580207), wk =   0.0185185
        k(    9) = (   0.0000000   0.1283001   0.0000000), wk =   0.0185185
        k(   10) = (   0.0000000   0.1283001   0.0526736), wk =   0.0185185
        k(   11) = (   0.0000000   0.1283001   0.1053471), wk =   0.0185185
        k(   12) = (   0.0000000   0.1283001  -0.1580207), wk =   0.0185185
        k(   13) = (   0.0000000  -0.1924501   0.0000000), wk =   0.0092593
        k(   14) = (   0.0000000  -0.1924501   0.0526736), wk =   0.0185185
        k(   15) = (   0.0000000  -0.1924501   0.1053471), wk =   0.0185185
        k(   16) = (   0.0000000  -0.1924501  -0.1580207), wk =   0.0092593
        k(   17) = (   0.1666667   0.0962250   0.0000000), wk =   0.0370370
        k(   18) = (   0.1666667   0.0962250   0.0526736), wk =   0.0370370
        k(   19) = (   0.1666667   0.0962250   0.1053471), wk =   0.0370370
        k(   20) = (   0.1666667   0.0962250  -0.1580207), wk =   0.0370370
        k(   21) = (   0.1666667   0.1603751   0.0000000), wk =   0.0370370
        k(   22) = (   0.1666667   0.1603751   0.0526736), wk =   0.0370370
        k(   23) = (   0.1666667   0.1603751   0.1053471), wk =   0.0370370
        k(   24) = (   0.1666667   0.1603751  -0.1580207), wk =   0.0370370
        k(   25) = (   0.1666667  -0.0320750   0.0000000), wk =   0.0370370
        k(   26) = (   0.1666667  -0.0320750   0.0526736), wk =   0.0370370
        k(   27) = (   0.1666667  -0.0320750   0.1053471), wk =   0.0370370
        k(   28) = (   0.1666667  -0.0320750  -0.1580207), wk =   0.0370370
        k(   29) = (   0.3333333   0.1924501   0.0000000), wk =   0.0185185
        k(   30) = (   0.3333333   0.1924501   0.0526736), wk =   0.0370370
        k(   31) = (   0.3333333   0.1924501   0.1053471), wk =   0.0370370
        k(   32) = (   0.3333333   0.1924501  -0.1580207), wk =   0.0185185
        k(   33) = (   0.3333333   0.2566001   0.0000000), wk =   0.0370370
        k(   34) = (   0.3333333   0.2566001   0.0526736), wk =   0.0370370
        k(   35) = (   0.3333333   0.2566001   0.1053471), wk =   0.0370370
        k(   36) = (   0.3333333   0.2566001  -0.1580207), wk =   0.0370370
        k(   37) = (   0.3333333   0.3207501   0.0000000), wk =   0.0370370
        k(   38) = (   0.3333333   0.3207501   0.0526736), wk =   0.0370370
        k(   39) = (   0.3333333   0.3207501   0.1053471), wk =   0.0370370
[...]

!    total energy              =   -2169.65582456 Ry
     estimated scf accuracy    <          3.8E-09 Ry

     The total energy is the sum of the following terms:
     one-electron contribution =   -1032.03505387 Ry
     hartree contribution      =     747.68391960 Ry
     xc contribution           =    -655.53902830 Ry
     ewald contribution        =   -1229.76566199 Ry

     convergence has been achieved in  31 iterations

     Forces acting on atoms (cartesian axes, Ry/au):

     atom    1 type  1   force =     0.00000000   -0.00000402   -0.00154337
     atom    2 type  1   force =     0.00000000    0.00000356   -0.00154576
     atom    3 type  2   force =     0.00000000    0.00000350    0.00154544
     atom    4 type  2   force =     0.00000000   -0.00000435    0.00154485
     atom    5 type  1   force =     0.00000000    0.00000254   -0.00155162
     atom    6 type  1   force =     0.00000000    0.00000186   -0.00154263
     atom    7 type  2   force =     0.00000000    0.00000307    0.00154342
     atom    8 type  2   force =     0.00000000   -0.00000564    0.00154657
     atom    9 type  1   force =     0.00000000    0.00000171   -0.00154086
     atom   10 type  1   force =     0.00000000   -0.00000500   -0.00154626
     atom   11 type  2   force =     0.00000000    0.00000450    0.00154531
     atom   12 type  2   force =     0.00000000   -0.00000459    0.00154392
     atom   13 type  1   force =     0.00000000   -0.00000187   -0.00154820
     atom   14 type  1   force =     0.00000000   -0.00000095   -0.00154488
     atom   15 type  2   force =     0.00000000    0.00000539    0.00154407
     atom   16 type  2   force =     0.00000000   -0.00000356    0.00154702
     atom   17 type  1   force =     0.00000000    0.00000459   -0.00154073
     atom   18 type  1   force =     0.00000000    0.00000105   -0.00153751
     atom   19 type  2   force =     0.00000000    0.00000466    0.00154609
     atom   20 type  2   force =     0.00000000   -0.00000493    0.00154338
     atom   21 type  1   force =     0.00000000    0.00000053   -0.00155445
     atom   22 type  1   force =     0.00000000   -0.00000185   -0.00154452
     atom   23 type  2   force =     0.00000000    0.00000400    0.00154359
     atom   24 type  2   force =     0.00000000   -0.00000417    0.00154714
     The non-local contrib.  to forces
     atom    1 type  1   force =     0.00000000   -0.00001225   -0.05787312
     atom    2 type  1   force =     0.00000000    0.00001312   -0.05786918
     atom    3 type  2   force =     0.00000000    0.00023469   -0.04454004
     atom    4 type  2   force =     0.00000000   -0.00023398   -0.04453991
     atom    5 type  1   force =     0.00000000   -0.00000765   -0.05787729
     atom    6 type  1   force =     0.00000000    0.00001191   -0.05787391
     atom    7 type  2   force =     0.00000000    0.00023199   -0.04453899
     atom    8 type  2   force =     0.00000000   -0.00023690   -0.04453883
     atom    9 type  1   force =     0.00000000   -0.00000995   -0.05787053
     atom   10 type  1   force =     0.00000000    0.00000532   -0.05786908
     atom   11 type  2   force =     0.00000000    0.00023328   -0.04454222
     atom   12 type  2   force =     0.00000000   -0.00023508   -0.04453974
     atom   13 type  1   force =     0.00000000   -0.00001185   -0.05787470
     atom   14 type  1   force =     0.00000000    0.00000938   -0.05787548
     atom   15 type  2   force =     0.00000000    0.00023643   -0.04453752
     atom   16 type  2   force =     0.00000000   -0.00023186   -0.04453674
     atom   17 type  1   force =     0.00000000   -0.00000672   -0.05786988
     atom   18 type  1   force =     0.00000000    0.00001112   -0.05786439
     atom   19 type  2   force =     0.00000000    0.00023493   -0.04453936
     atom   20 type  2   force =     0.00000000   -0.00023435   -0.04454577
     atom   21 type  1   force =     0.00000000   -0.00001041   -0.05788059
     atom   22 type  1   force =     0.00000000    0.00000821   -0.05787536
     atom   23 type  2   force =     0.00000000    0.00023503   -0.04453997
     atom   24 type  2   force =     0.00000000   -0.00023387   -0.04453498
     The ionic contribution  to forces
     atom    1 type  1   force =    -0.00000000    0.00000001   -0.31882413
     atom    2 type  1   force =     0.00000000    0.00000001   -0.31882413
     atom    3 type  2   force =    -0.00000000    0.00000000    0.31882413
     atom    4 type  2   force =     0.00000000    0.00000000    0.31882413
     atom    5 type  1   force =    -0.00000000    0.00000001   -0.31882413
     atom    6 type  1   force =     0.00000000    0.00000001   -0.31882413
     atom    7 type  2   force =    -0.00000000    0.00000000    0.31882413
     atom    8 type  2   force =     0.00000000    0.00000000    0.31882413
     atom    9 type  1   force =    -0.00000001    0.00000001   -0.31882413
     atom   10 type  1   force =     0.00000001   -0.00000001   -0.31882413
     atom   11 type  2   force =    -0.00000001    0.00000000    0.31882413
     atom   12 type  2   force =     0.00000001   -0.00000000    0.31882413
     atom   13 type  1   force =    -0.00000001    0.00000001   -0.31882413
     atom   14 type  1   force =     0.00000001   -0.00000001   -0.31882413
     atom   15 type  2   force =    -0.00000001    0.00000000    0.31882413
     atom   16 type  2   force =     0.00000001   -0.00000000    0.31882413
     atom   17 type  1   force =    -0.00000000   -0.00000001   -0.31882413
     atom   18 type  1   force =     0.00000000   -0.00000001   -0.31882413
     atom   19 type  2   force =    -0.00000000   -0.00000000    0.31882413
     atom   20 type  2   force =     0.00000000   -0.00000000    0.31882413
     atom   21 type  1   force =    -0.00000000   -0.00000001   -0.31882413
     atom   22 type  1   force =     0.00000000   -0.00000001   -0.31882413
     atom   23 type  2   force =    -0.00000000   -0.00000000    0.31882413
     atom   24 type  2   force =     0.00000000   -0.00000000    0.31882413
     The local contribution  to forces
     atom    1 type  1   force =    -0.00000005    0.00001184    0.37141064
     atom    2 type  1   force =     0.00000000   -0.00001195    0.37140771
     atom    3 type  2   force =    -0.00000001   -0.00022673   -0.27310487
     atom    4 type  2   force =     0.00000000    0.00022804   -0.27310402
     atom    5 type  1   force =    -0.00000005   -0.00000184    0.37142103
     atom    6 type  1   force =     0.00000000   -0.00000860    0.37140019
     atom    7 type  2   force =    -0.00000001   -0.00022978   -0.27310307
     atom    8 type  2   force =     0.00000000    0.00022696   -0.27309983
     atom    9 type  1   force =    -0.00000009    0.00000206    0.37140220
     atom   10 type  1   force =     0.00000009    0.00001114    0.37140864
     atom   11 type  2   force =    -0.00000002   -0.00022688   -0.27310422
     atom   12 type  2   force =     0.00000002    0.00022767   -0.27310710
     atom   13 type  1   force =    -0.00000009    0.00000760    0.37141215
     atom   14 type  1   force =     0.00000009   -0.00000090    0.37140570
     atom   15 type  2   force =    -0.00000002   -0.00022630   -0.27310276
     atom   16 type  2   force =     0.00000002    0.00022715   -0.27309985
     atom   17 type  1   force =     0.00000000   -0.00000761    0.37140337
     atom   18 type  1   force =     0.00000005   -0.00000639    0.37139160
     atom   19 type  2   force =     0.00000000   -0.00022767   -0.27310444
     atom   20 type  2   force =     0.00000001    0.00022638   -0.27310382
     atom   21 type  1   force =     0.00000000    0.00000193    0.37142870
     atom   22 type  1   force =     0.00000005    0.00000263    0.37140364
     atom   23 type  2   force =     0.00000000   -0.00022631   -0.27310280
     atom   24 type  2   force =     0.00000001    0.00022682   -0.27309923
     The core correction contribution to forces
     atom    1 type  1   force =     0.00000006    0.00000631    0.00374529
     atom    2 type  1   force =     0.00000005   -0.00000662    0.00374249
     atom    3 type  2   force =    -0.00000000   -0.00000267    0.00036452
     atom    4 type  2   force =     0.00000000    0.00000267    0.00036411
     atom    5 type  1   force =     0.00000006    0.00000655    0.00374184
     atom    6 type  1   force =     0.00000005   -0.00000669    0.00374531
     atom    7 type  2   force =    -0.00000000   -0.00000263    0.00036258
     atom    8 type  2   force =     0.00000000    0.00000270    0.00036300
     atom    9 type  1   force =    -0.00000001    0.00000695    0.00374551
     atom   10 type  1   force =     0.00000001   -0.00000732    0.00374241
     atom   11 type  2   force =     0.00000000   -0.00000261    0.00036455
     atom   12 type  2   force =     0.00000000    0.00000263    0.00036409
     atom   13 type  1   force =    -0.00000001    0.00000691    0.00374210
     atom   14 type  1   force =     0.00000001   -0.00000699    0.00374515
     atom   15 type  2   force =    -0.00000000   -0.00000265    0.00036257
     atom   16 type  2   force =    -0.00000000    0.00000259    0.00036297
     atom   17 type  1   force =    -0.00000005    0.00000706    0.00374532
     atom   18 type  1   force =    -0.00000006   -0.00000643    0.00374295
     atom   19 type  2   force =    -0.00000000   -0.00000268    0.00036451
     atom   20 type  2   force =     0.00000000    0.00000266    0.00036418
     atom   21 type  1   force =    -0.00000005    0.00000691    0.00374171
     atom   22 type  1   force =    -0.00000007   -0.00000668    0.00374528
     atom   23 type  2   force =    -0.00000000   -0.00000268    0.00036260
     atom   24 type  2   force =     0.00000000    0.00000266    0.00036294
     The Hubbard contrib.    to forces
     atom    1 type  1   force =     0.00000000    0.00000000    0.00000000
     atom    2 type  1   force =     0.00000000    0.00000000    0.00000000
     atom    3 type  2   force =     0.00000000    0.00000000    0.00000000
     atom    4 type  2   force =     0.00000000    0.00000000    0.00000000
     atom    5 type  1   force =     0.00000000    0.00000000    0.00000000
     atom    6 type  1   force =     0.00000000    0.00000000    0.00000000
     atom    7 type  2   force =     0.00000000    0.00000000    0.00000000
     atom    8 type  2   force =     0.00000000    0.00000000    0.00000000
     atom    9 type  1   force =     0.00000000    0.00000000    0.00000000
     atom   10 type  1   force =     0.00000000    0.00000000    0.00000000
     atom   11 type  2   force =     0.00000000    0.00000000    0.00000000
     atom   12 type  2   force =     0.00000000    0.00000000    0.00000000
     atom   13 type  1   force =     0.00000000    0.00000000    0.00000000
     atom   14 type  1   force =     0.00000000    0.00000000    0.00000000
     atom   15 type  2   force =     0.00000000    0.00000000    0.00000000
     atom   16 type  2   force =     0.00000000    0.00000000    0.00000000
     atom   17 type  1   force =     0.00000000    0.00000000    0.00000000
     atom   18 type  1   force =     0.00000000    0.00000000    0.00000000
     atom   19 type  2   force =     0.00000000    0.00000000    0.00000000
     atom   20 type  2   force =     0.00000000    0.00000000    0.00000000
     atom   21 type  1   force =     0.00000000    0.00000000    0.00000000
     atom   22 type  1   force =     0.00000000    0.00000000    0.00000000
     atom   23 type  2   force =     0.00000000    0.00000000    0.00000000
     atom   24 type  2   force =     0.00000000    0.00000000    0.00000000
     The SCF correction term to forces
     atom    1 type  1   force =    -0.00000000   -0.00000987   -0.00000302
     atom    2 type  1   force =     0.00000000    0.00000906   -0.00000361
     atom    3 type  2   force =     0.00000000   -0.00000174    0.00000075
     atom    4 type  2   force =    -0.00000000   -0.00000102   -0.00000042
     atom    5 type  1   force =    -0.00000000    0.00000553   -0.00001404
     atom    6 type  1   force =     0.00000000    0.00000528    0.00000894
     atom    7 type  2   force =     0.00000000    0.00000355   -0.00000219
     atom    8 type  2   force =    -0.00000000    0.00000165   -0.00000286
     atom    9 type  1   force =    -0.00000000    0.00000270    0.00000512
     atom   10 type  1   force =    -0.00000000   -0.00001407   -0.00000506
     atom   11 type  2   force =     0.00000000    0.00000075    0.00000211
     atom   12 type  2   force =    -0.00000000    0.00000025    0.00000157
     atom   13 type  1   force =     0.00000000   -0.00000448   -0.00000458
     atom   14 type  1   force =     0.00000000   -0.00000237    0.00000293
     atom   15 type  2   force =     0.00000000   -0.00000203   -0.00000331
     atom   16 type  2   force =    -0.00000000   -0.00000136   -0.00000445
     atom   17 type  1   force =    -0.00000000    0.00001193    0.00000362
     atom   18 type  1   force =     0.00000000    0.00000281    0.00001550
     atom   19 type  2   force =     0.00000000    0.00000015    0.00000029
     atom   20 type  2   force =    -0.00000000    0.00000043    0.00000370
     atom   21 type  1   force =    -0.00000000    0.00000217   -0.00002111
     atom   22 type  1   force =     0.00000000   -0.00000595    0.00000508
     atom   23 type  2   force =     0.00000000   -0.00000197   -0.00000134
     atom   24 type  2   force =    -0.00000000    0.00000029   -0.00000668

     Total force =     0.007569     Total SCF correction =     0.000044

     General routines

     Parallel routines

   This run was terminated on:  18: 4:13  31Aug2025

   JOB DONE.
Note: The following floating-point exceptions are signalling: IEEE_UNDERFLOW_FLAG IEEE_DENORMAL
Note: The following floating-point exceptions are signalling: IEEE_UNDERFLOW_FLAG IEEE_DENORMAL
Note: The following floating-point exceptions are signalling: IEEE_UNDERFLOW_FLAG IEEE_DENORMAL
Note: The following floating-point exceptions are signalling: IEEE_UNDERFLOW_FLAG IEEE_DENORMAL
Note: The following floating-point exceptions are signalling: IEEE_UNDERFLOW_FLAG IEEE_DENORMAL
Note: The following floating-point exceptions are signalling: IEEE_UNDERFLOW_FLAG IEEE_DENORMAL
Note: The following floating-point exceptions are signalling: IEEE_UNDERFLOW_FLAG IEEE_DENORMAL
Note: The following floating-point exceptions are signalling: IEEE_UNDERFLOW_FLAG IEEE_DENORMAL
Note: The following floating-point exceptions are signalling: IEEE_UNDERFLOW_FLAG IEEE_DENORMAL
Note: The following floating-point exceptions are signalling: IEEE_UNDERFLOW_FLAG IEEE_DENORMAL
Note: The following floating-point exceptions are signalling: IEEE_UNDERFLOW_FLAG IEEE_DENORMAL
Note: The following floating-point exceptions are signalling: IEEE_UNDERFLOW_FLAG IEEE_DENORMAL
Note: The following floating-point exceptions are signalling: IEEE_UNDERFLOW_FLAG IEEE_DENORMAL
Note: The following floating-point exceptions are signalling: IEEE_UNDERFLOW_FLAG IEEE_DENORMAL
Note: The following floating-point exceptions are signalling: IEEE_UNDERFLOW_FLAG IEEE_DENORMAL
Note: The following floating-point exceptions are signalling: IEEE_UNDERFLOW_FLAG IEEE_DENORMAL
Note: The following floating-point exceptions are signalling: IEEE_UNDERFLOW_FLAG IEEE_DENORMAL
Note: The following floating-point exceptions are signalling: IEEE_UNDERFLOW_FLAG IEEE_DENORMAL
Note: The following floating-point exceptions are signalling: IEEE_UNDERFLOW_FLAG IEEE_DENORMAL
Note: The following floating-point exceptions are signalling: IEEE_UNDERFLOW_FLAG IEEE_DENORMAL
Note: The following floating-point exceptions are signalling: IEEE_UNDERFLOW_FLAG IEEE_DENORMAL
Note: The following floating-point exceptions are signalling: IEEE_UNDERFLOW_FLAG IEEE_DENORMAL
Note: The following floating-point exceptions are signalling: IEEE_UNDERFLOW_FLAG IEEE_DENORMAL
Note: The following floating-point exceptions are signalling: IEEE_UNDERFLOW_FLAG IEEE_DENORMAL
Note: The following floating-point exceptions are signalling: IEEE_UNDERFLOW_FLAG IEEE_DENORMAL
Note: The following floating-point exceptions are signalling: IEEE_UNDERFLOW_FLAG IEEE_DENORMAL
Note: The following floating-point exceptions are signalling: IEEE_UNDERFLOW_FLAG IEEE_DENORMAL
Note: The following floating-point exceptions are signalling: IEEE_UNDERFLOW_FLAG IEEE_DENORMAL
Note: The following floating-point exceptions are signalling: IEEE_UNDERFLOW_FLAG IEEE_DENORMAL
Note: The following floating-point exceptions are signalling: IEEE_UNDERFLOW_FLAG IEEE_DENORMAL
Note: The following floating-point exceptions are signalling: IEEE_UNDERFLOW_FLAG IEEE_DENORMAL
Note: The following floating-point exceptions are signalling: IEEE_UNDERFLOW_FLAG IEEE_DENORMAL