     Program PWSCF v.7.0 starts on 31Aug2025 at 18: 4:14

     K-points division:     npool     =       8
     R & G space division:  proc/nbgrp/npool/nimage =       4

     Reading input from /home/jvc/QEspresso7.2/ZnO_database/scripts/cell132.in/ZnO-3.47-1.61-132.in
Warning: card &CELL ignored
Warning: card / ignored
Warning: card &FCP ignored
Warning: card / ignored
Warning: card &RISM ignored
Warning: card / ignored

     Current dimensions of program PWSCF are:
     Max number of different atomic species (ntypx) = 10
     Max number of k-points (npk) =  40000
     Max angular momentum in pseudopotentials (lmaxx) =  4
     file Zn.upf: wavefunction(s)  3D renormalized
     Found identity + (  0.0000  0.0000  0.5000) symmetry
     This is a supercell, fractional translations are disabled
     Message from routine setup:
     using ibrav=0 with symmetry is DISCOURAGED, use correct ibrav instead

     Using Slab Decomposition

     bravais-lattice index     =            0
     lattice parameter (alat)  =       6.5496  a.u.
     unit-cell volume          =    2356.8027 (a.u.)^3
     number of atoms/cell      =           24
     number of atomic types    =            2
     number of electrons       =       216.00
     number of Kohn-Sham states=          108
     kinetic-energy cutoff     =      50.0000  Ry
     charge density cutoff     =     400.0000  Ry
     scf convergence threshold =      1.0E-08
     mixing beta               =       0.3000
     number of iterations used =            8  plain     mixing
     Exchange-correlation= PBE
                           (   1   4   3   4   0   0   0)

     celldm(1)=   6.549585  celldm(2)=   0.000000  celldm(3)=   0.000000
     celldm(4)=   0.000000  celldm(5)=   0.000000  celldm(6)=   0.000000

     crystal axes: (cart. coord. in units of alat)
               a(1) = (   1.000000   0.000000   0.000000 )
               a(2) = (  -1.500000   2.598076   0.000000 )
               a(3) = (   0.000000   0.000000   3.228717 )

     reciprocal axes: (cart. coord. in units 2 pi/alat)
               b(1) = (  1.000000  0.577350 -0.000000 )
               b(2) = (  0.000000  0.384900  0.000000 )
               b(3) = (  0.000000 -0.000000  0.309721 )

     PseudoPot. # 1 for Zn read from file:
     /home/jvc/QEspresso7.2/ZnO_database/pseudos/Zn.upf
     MD5 check sum: 7f56cabf9682ed8c977c2f7d0c5985c5
     Pseudo is Ultrasoft + core correction, Zval = 12.0
     Generated using &quot;atomic&quot; code by A. Dal Corso  v.6.2.2
     Using radial grid of 1201 points,  6 beta functions with:
                l(1) =   0
                l(2) =   0
                l(3) =   1
                l(4) =   1
                l(5) =   2
                l(6) =   2
     Q(r) pseudized with 0 coefficients

     PseudoPot. # 2 for O  read from file:
     /home/jvc/QEspresso7.2/ZnO_database/pseudos/O.upf
     MD5 check sum: 91400c9766925bcf19f520983a725ff0
     Pseudo is Ultrasoft + core correction, Zval =  6.0
     Generated using &quot;atomic&quot; code by A. Dal Corso  v.6.3MaX
     Using radial grid of 1095 points,  4 beta functions with:
                l(1) =   0
                l(2) =   0
                l(3) =   1
                l(4) =   1
     Q(r) pseudized with 0 coefficients

     atomic species   valence    mass     pseudopotential
        Zn            12.00    65.38000     Zn( 1.00)
        O              6.00    15.99900     O ( 1.00)

      2 Sym. Ops. (no inversion) found

                                    s                        frac. trans.

      isym =  1     identity

 cryst.   s( 1) = (     1          0          0      )
                  (     0          1          0      )
                  (     0          0          1      )

 cart.    s( 1) = (  1.0000000  0.0000000  0.0000000 )
                  (  0.0000000  1.0000000  0.0000000 )
                  (  0.0000000  0.0000000  1.0000000 )

      isym =  2     inv. 180 deg rotation - cart. axis [1,0,0]

 cryst.   s( 2) = (    -1          0          0      )
                  (     3          1          0      )
                  (     0          0          1      )

 cart.    s( 2) = ( -1.0000000  0.0000000  0.0000000 )
                  (  0.0000000  1.0000000  0.0000000 )
                  (  0.0000000  0.0000000  1.0000000 )

   Cartesian axes

     site n.     atom                  positions (alat units)
         1           Zn  tau(   1) = (   0.5000000   0.2886751   0.8082020  )
         2           Zn  tau(   2) = (  -0.0000000   0.5773503   0.0010228  )
         3           O   tau(   3) = (   0.5000000   0.2886751   1.4201130  )
         4           O   tau(   4) = (  -0.0000000   0.5773503   0.6129338  )
         5           Zn  tau(   5) = (   0.5000000   0.2886751   2.4225604  )
         6           Zn  tau(   6) = (  -0.0000000   0.5773503   1.6153812  )
         7           O   tau(   7) = (   0.5000000   0.2886751   3.0344713  )
         8           O   tau(   8) = (  -0.0000000   0.5773503   2.2272921  )
         9           Zn  tau(   9) = (   0.0000000   1.1547005   0.8082020  )
        10           Zn  tau(  10) = (  -0.5000000   1.4433757   0.0010228  )
        11           O   tau(  11) = (   0.0000000   1.1547005   1.4201130  )
        12           O   tau(  12) = (  -0.5000000   1.4433757   0.6129338  )
        13           Zn  tau(  13) = (   0.0000000   1.1547005   2.4225604  )
        14           Zn  tau(  14) = (  -0.5000000   1.4433757   1.6153812  )
        15           O   tau(  15) = (   0.0000000   1.1547005   3.0344713  )
        16           O   tau(  16) = (  -0.5000000   1.4433757   2.2272921  )
        17           Zn  tau(  17) = (  -0.5000000   2.0207259   0.8082020  )
        18           Zn  tau(  18) = (  -1.0000000   2.3094011   0.0010228  )
        19           O   tau(  19) = (  -0.5000000   2.0207259   1.4201130  )
        20           O   tau(  20) = (  -1.0000000   2.3094011   0.6129338  )
        21           Zn  tau(  21) = (  -0.5000000   2.0207259   2.4225604  )
        22           Zn  tau(  22) = (  -1.0000000   2.3094011   1.6153812  )
        23           O   tau(  23) = (  -0.5000000   2.0207259   3.0344713  )
        24           O   tau(  24) = (  -1.0000000   2.3094011   2.2272921  )

   Crystallographic axes

     site n.     atom                  positions (cryst. coord.)
         1           Zn  tau(   1) = (  0.6666667  0.1111111  0.2503168  )
         2           Zn  tau(   2) = (  0.3333333  0.2222222  0.0003168  )
         3           O   tau(   3) = (  0.6666667  0.1111111  0.4398382  )
         4           O   tau(   4) = (  0.3333333  0.2222222  0.1898382  )
         5           Zn  tau(   5) = (  0.6666667  0.1111111  0.7503168  )
         6           Zn  tau(   6) = (  0.3333333  0.2222222  0.5003168  )
         7           O   tau(   7) = (  0.6666667  0.1111111  0.9398382  )
         8           O   tau(   8) = (  0.3333333  0.2222222  0.6898382  )
         9           Zn  tau(   9) = (  0.6666667  0.4444444  0.2503168  )
        10           Zn  tau(  10) = (  0.3333333  0.5555556  0.0003168  )
        11           O   tau(  11) = (  0.6666667  0.4444444  0.4398382  )
        12           O   tau(  12) = (  0.3333333  0.5555556  0.1898382  )
        13           Zn  tau(  13) = (  0.6666667  0.4444444  0.7503168  )
        14           Zn  tau(  14) = (  0.3333333  0.5555556  0.5003168  )
        15           O   tau(  15) = (  0.6666667  0.4444444  0.9398382  )
        16           O   tau(  16) = (  0.3333333  0.5555556  0.6898382  )
        17           Zn  tau(  17) = (  0.6666667  0.7777778  0.2503168  )
        18           Zn  tau(  18) = (  0.3333333  0.8888889  0.0003168  )
        19           O   tau(  19) = (  0.6666667  0.7777778  0.4398382  )
        20           O   tau(  20) = (  0.3333333  0.8888889  0.1898382  )
        21           Zn  tau(  21) = (  0.6666667  0.7777778  0.7503168  )
        22           Zn  tau(  22) = (  0.3333333  0.8888889  0.5003168  )
        23           O   tau(  23) = (  0.6666667  0.7777778  0.9398382  )
        24           O   tau(  24) = (  0.3333333  0.8888889  0.6898382  )

     number of k points=    68
                       cart. coord. in units 2pi/alat
        k(    1) = (   0.0000000   0.0000000   0.0000000), wk =   0.0092593
        k(    2) = (   0.0000000   0.0000000   0.0516201), wk =   0.0185185
        k(    3) = (   0.0000000   0.0000000   0.1032402), wk =   0.0185185
        k(    4) = (   0.0000000   0.0000000  -0.1548603), wk =   0.0092593
        k(    5) = (   0.0000000   0.0641500   0.0000000), wk =   0.0185185
        k(    6) = (   0.0000000   0.0641500   0.0516201), wk =   0.0185185
        k(    7) = (   0.0000000   0.0641500   0.1032402), wk =   0.0185185
        k(    8) = (   0.0000000   0.0641500  -0.1548603), wk =   0.0185185
        k(    9) = (   0.0000000   0.1283001   0.0000000), wk =   0.0185185
        k(   10) = (   0.0000000   0.1283001   0.0516201), wk =   0.0185185
        k(   11) = (   0.0000000   0.1283001   0.1032402), wk =   0.0185185
        k(   12) = (   0.0000000   0.1283001  -0.1548603), wk =   0.0185185
        k(   13) = (   0.0000000  -0.1924501   0.0000000), wk =   0.0092593
        k(   14) = (   0.0000000  -0.1924501   0.0516201), wk =   0.0185185
        k(   15) = (   0.0000000  -0.1924501   0.1032402), wk =   0.0185185
        k(   16) = (   0.0000000  -0.1924501  -0.1548603), wk =   0.0092593
        k(   17) = (   0.1666667   0.0962250   0.0000000), wk =   0.0370370
        k(   18) = (   0.1666667   0.0962250   0.0516201), wk =   0.0370370
        k(   19) = (   0.1666667   0.0962250   0.1032402), wk =   0.0370370
        k(   20) = (   0.1666667   0.0962250  -0.1548603), wk =   0.0370370
        k(   21) = (   0.1666667   0.1603751   0.0000000), wk =   0.0370370
        k(   22) = (   0.1666667   0.1603751   0.0516201), wk =   0.0370370
        k(   23) = (   0.1666667   0.1603751   0.1032402), wk =   0.0370370
        k(   24) = (   0.1666667   0.1603751  -0.1548603), wk =   0.0370370
        k(   25) = (   0.1666667  -0.0320750   0.0000000), wk =   0.0370370
        k(   26) = (   0.1666667  -0.0320750   0.0516201), wk =   0.0370370
        k(   27) = (   0.1666667  -0.0320750   0.1032402), wk =   0.0370370
        k(   28) = (   0.1666667  -0.0320750  -0.1548603), wk =   0.0370370
        k(   29) = (   0.3333333   0.1924501   0.0000000), wk =   0.0185185
        k(   30) = (   0.3333333   0.1924501   0.0516201), wk =   0.0370370
        k(   31) = (   0.3333333   0.1924501   0.1032402), wk =   0.0370370
        k(   32) = (   0.3333333   0.1924501  -0.1548603), wk =   0.0185185
        k(   33) = (   0.3333333   0.2566001   0.0000000), wk =   0.0370370
        k(   34) = (   0.3333333   0.2566001   0.0516201), wk =   0.0370370
        k(   35) = (   0.3333333   0.2566001   0.1032402), wk =   0.0370370
        k(   36) = (   0.3333333   0.2566001  -0.1548603), wk =   0.0370370
        k(   37) = (   0.3333333   0.3207501   0.0000000), wk =   0.0370370
        k(   38) = (   0.3333333   0.3207501   0.0516201), wk =   0.0370370
        k(   39) = (   0.3333333   0.3207501   0.1032402), wk =   0.0370370
[...]

!    total energy              =   -2169.61309596 Ry
     estimated scf accuracy    <          3.8E-09 Ry

     The total energy is the sum of the following terms:
     one-electron contribution =   -1044.73043804 Ry
     hartree contribution      =     752.25914376 Ry
     xc contribution           =    -655.32891569 Ry
     ewald contribution        =   -1221.81288600 Ry

     convergence has been achieved in  21 iterations

     Forces acting on atoms (cartesian axes, Ry/au):

     atom    1 type  1   force =     0.00000000    0.00000399   -0.00011232
     atom    2 type  1   force =     0.00000000    0.00000385   -0.00010877
     atom    3 type  2   force =     0.00000000    0.00000549    0.00011126
     atom    4 type  2   force =     0.00000000   -0.00000580    0.00010964
     atom    5 type  1   force =     0.00000000    0.00000444   -0.00010937
     atom    6 type  1   force =     0.00000000    0.00000441   -0.00010952
     atom    7 type  2   force =     0.00000000    0.00000541    0.00010968
     atom    8 type  2   force =     0.00000000   -0.00000580    0.00011054
     atom    9 type  1   force =     0.00000000   -0.00000247   -0.00011371
     atom   10 type  1   force =     0.00000000   -0.00000561   -0.00011349
     atom   11 type  2   force =     0.00000000    0.00000569    0.00011049
     atom   12 type  2   force =     0.00000000   -0.00000670    0.00010993
     atom   13 type  1   force =     0.00000000   -0.00000110   -0.00010881
     atom   14 type  1   force =     0.00000000   -0.00000691   -0.00010797
     atom   15 type  2   force =     0.00000000    0.00000538    0.00010932
     atom   16 type  2   force =     0.00000000   -0.00000649    0.00011052
     atom   17 type  1   force =     0.00000000    0.00000180   -0.00011450
     atom   18 type  1   force =     0.00000000   -0.00000385   -0.00010977
     atom   19 type  2   force =     0.00000000    0.00000528    0.00011079
     atom   20 type  2   force =     0.00000000   -0.00000603    0.00011028
     atom   21 type  1   force =     0.00000000    0.00000623   -0.00011068
     atom   22 type  1   force =     0.00000000   -0.00000061   -0.00010354
     atom   23 type  2   force =     0.00000000    0.00000518    0.00010979
     atom   24 type  2   force =     0.00000000   -0.00000579    0.00011018
     The non-local contrib.  to forces
     atom    1 type  1   force =     0.00000000   -0.00001128   -0.00452371
     atom    2 type  1   force =     0.00000000    0.00001538   -0.00451931
     atom    3 type  2   force =     0.00000000    0.00024152    0.00632908
     atom    4 type  2   force =     0.00000000   -0.00024089    0.00632983
     atom    5 type  1   force =     0.00000000   -0.00001079   -0.00451687
     atom    6 type  1   force =     0.00000000    0.00001469   -0.00452071
     atom    7 type  2   force =     0.00000000    0.00023908    0.00633119
     atom    8 type  2   force =     0.00000000   -0.00024157    0.00632920
     atom    9 type  1   force =     0.00000000   -0.00001444   -0.00452429
     atom   10 type  1   force =     0.00000000    0.00001095   -0.00451957
     atom   11 type  2   force =     0.00000000    0.00024210    0.00632553
     atom   12 type  2   force =     0.00000000   -0.00024176    0.00632991
     atom   13 type  1   force =     0.00000000   -0.00001476   -0.00451778
     atom   14 type  1   force =     0.00000000    0.00001107   -0.00451938
     atom   15 type  2   force =     0.00000000    0.00024257    0.00633042
     atom   16 type  2   force =     0.00000000   -0.00024133    0.00633039
     atom   17 type  1   force =     0.00000000   -0.00001234   -0.00452374
     atom   18 type  1   force =     0.00000000    0.00001197   -0.00451871
     atom   19 type  2   force =     0.00000000    0.00024152    0.00632708
     atom   20 type  2   force =     0.00000000   -0.00024114    0.00633026
     atom   21 type  1   force =     0.00000000   -0.00001183   -0.00451766
     atom   22 type  1   force =     0.00000000    0.00001259   -0.00451832
     atom   23 type  2   force =     0.00000000    0.00024180    0.00633232
     atom   24 type  2   force =     0.00000000   -0.00023985    0.00632956
     The ionic contribution  to forces
     atom    1 type  1   force =    -0.00000000    0.00000001    0.05581775
     atom    2 type  1   force =     0.00000000    0.00000001    0.05581775
     atom    3 type  2   force =    -0.00000000    0.00000000   -0.05581775
     atom    4 type  2   force =     0.00000000    0.00000000   -0.05581775
     atom    5 type  1   force =    -0.00000000    0.00000001    0.05581775
     atom    6 type  1   force =     0.00000000    0.00000001    0.05581775
     atom    7 type  2   force =    -0.00000000    0.00000000   -0.05581775
     atom    8 type  2   force =     0.00000000    0.00000000   -0.05581775
     atom    9 type  1   force =    -0.00000001    0.00000001    0.05581774
     atom   10 type  1   force =     0.00000001   -0.00000001    0.05581774
     atom   11 type  2   force =    -0.00000001    0.00000000   -0.05581774
     atom   12 type  2   force =     0.00000001   -0.00000000   -0.05581774
     atom   13 type  1   force =    -0.00000001    0.00000001    0.05581774
     atom   14 type  1   force =     0.00000001   -0.00000001    0.05581774
     atom   15 type  2   force =    -0.00000001    0.00000000   -0.05581774
     atom   16 type  2   force =     0.00000001   -0.00000000   -0.05581774
     atom   17 type  1   force =    -0.00000000   -0.00000001    0.05581775
     atom   18 type  1   force =     0.00000000   -0.00000001    0.05581775
     atom   19 type  2   force =    -0.00000000   -0.00000000   -0.05581775
     atom   20 type  2   force =     0.00000000   -0.00000000   -0.05581775
     atom   21 type  1   force =    -0.00000000   -0.00000001    0.05581775
     atom   22 type  1   force =     0.00000000   -0.00000001    0.05581775
     atom   23 type  2   force =    -0.00000000   -0.00000000   -0.05581775
     atom   24 type  2   force =     0.00000000   -0.00000000   -0.05581775
     The local contribution  to forces
     atom    1 type  1   force =    -0.00000005    0.00000371   -0.05171378
     atom    2 type  1   force =     0.00000000   -0.00001407   -0.05171695
     atom    3 type  2   force =    -0.00000001   -0.00023334    0.04966652
     atom    4 type  2   force =     0.00000000    0.00022491    0.04967580
     atom    5 type  1   force =    -0.00000005    0.00000326   -0.05171968
     atom    6 type  1   force =     0.00000000   -0.00001267   -0.05172004
     atom    7 type  2   force =    -0.00000001   -0.00023463    0.04967101
     atom    8 type  2   force =     0.00000000    0.00022566    0.04966529
     atom    9 type  1   force =    -0.00000009    0.00001144   -0.05171318
     atom   10 type  1   force =     0.00000009   -0.00000247   -0.05171416
     atom   11 type  2   force =    -0.00000002   -0.00023079    0.04967087
     atom   12 type  2   force =     0.00000002    0.00023687    0.04967079
     atom   13 type  1   force =    -0.00000009    0.00001114   -0.05171893
     atom   14 type  1   force =     0.00000009   -0.00000245   -0.05172236
     atom   15 type  2   force =    -0.00000002   -0.00022576    0.04967142
     atom   16 type  2   force =     0.00000002    0.00023479    0.04966926
     atom   17 type  1   force =     0.00000000    0.00000605   -0.05171366
     atom   18 type  1   force =     0.00000005   -0.00000523   -0.05171740
     atom   19 type  2   force =    -0.00000000   -0.00022945    0.04966782
     atom   20 type  2   force =     0.00000001    0.00022911    0.04967198
     atom   21 type  1   force =     0.00000000    0.00000369   -0.05171794
     atom   22 type  1   force =     0.00000005   -0.00000738   -0.05172615
     atom   23 type  2   force =     0.00000000   -0.00022916    0.04966911
     atom   24 type  2   force =     0.00000001    0.00022801    0.04967140
     The core correction contribution to forces
     atom    1 type  1   force =     0.00000005    0.00000745    0.00030901
     atom    2 type  1   force =     0.00000004   -0.00000759    0.00030800
     atom    3 type  2   force =     0.00000000   -0.00000272   -0.00006951
     atom    4 type  2   force =    -0.00000000    0.00000270   -0.00007131
     atom    5 type  1   force =     0.00000006    0.00000738    0.00030551
     atom    6 type  1   force =     0.00000004   -0.00000763    0.00030665
     atom    7 type  2   force =     0.00000000   -0.00000270   -0.00007233
     atom    8 type  2   force =    -0.00000000    0.00000271   -0.00007050
     atom    9 type  1   force =    -0.00000001    0.00000777    0.00030909
     atom   10 type  1   force =     0.00000000   -0.00000781    0.00030798
     atom   11 type  2   force =    -0.00000000   -0.00000271   -0.00006945
     atom   12 type  2   force =     0.00000000    0.00000273   -0.00007133
     atom   13 type  1   force =    -0.00000000    0.00000778    0.00030555
     atom   14 type  1   force =     0.00000000   -0.00000781    0.00030659
     atom   15 type  2   force =     0.00000000   -0.00000270   -0.00007232
     atom   16 type  2   force =    -0.00000000    0.00000272   -0.00007050
     atom   17 type  1   force =    -0.00000004    0.00000761    0.00030911
     atom   18 type  1   force =    -0.00000006   -0.00000744    0.00030797
     atom   19 type  2   force =     0.00000000   -0.00000273   -0.00006948
     atom   20 type  2   force =    -0.00000001    0.00000271   -0.00007133
     atom   21 type  1   force =    -0.00000004    0.00000760    0.00030555
     atom   22 type  1   force =    -0.00000006   -0.00000743    0.00030662
     atom   23 type  2   force =     0.00000000   -0.00000273   -0.00007235
     atom   24 type  2   force =    -0.00000000    0.00000269   -0.00007048
     The Hubbard contrib.    to forces
     atom    1 type  1   force =     0.00000000    0.00000000    0.00000000
     atom    2 type  1   force =     0.00000000    0.00000000    0.00000000
     atom    3 type  2   force =     0.00000000    0.00000000    0.00000000
     atom    4 type  2   force =     0.00000000    0.00000000    0.00000000
     atom    5 type  1   force =     0.00000000    0.00000000    0.00000000
     atom    6 type  1   force =     0.00000000    0.00000000    0.00000000
     atom    7 type  2   force =     0.00000000    0.00000000    0.00000000
     atom    8 type  2   force =     0.00000000    0.00000000    0.00000000
     atom    9 type  1   force =     0.00000000    0.00000000    0.00000000
     atom   10 type  1   force =     0.00000000    0.00000000    0.00000000
     atom   11 type  2   force =     0.00000000    0.00000000    0.00000000
     atom   12 type  2   force =     0.00000000    0.00000000    0.00000000
     atom   13 type  1   force =     0.00000000    0.00000000    0.00000000
     atom   14 type  1   force =     0.00000000    0.00000000    0.00000000
     atom   15 type  2   force =     0.00000000    0.00000000    0.00000000
     atom   16 type  2   force =     0.00000000    0.00000000    0.00000000
     atom   17 type  1   force =     0.00000000    0.00000000    0.00000000
     atom   18 type  1   force =     0.00000000    0.00000000    0.00000000
     atom   19 type  2   force =     0.00000000    0.00000000    0.00000000
     atom   20 type  2   force =     0.00000000    0.00000000    0.00000000
     atom   21 type  1   force =     0.00000000    0.00000000    0.00000000
     atom   22 type  1   force =     0.00000000    0.00000000    0.00000000
     atom   23 type  2   force =     0.00000000    0.00000000    0.00000000
     atom   24 type  2   force =     0.00000000    0.00000000    0.00000000
     The SCF correction term to forces
     atom    1 type  1   force =    -0.00000000    0.00000449   -0.00000170
     atom    2 type  1   force =     0.00000000    0.00001051    0.00000162
     atom    3 type  2   force =    -0.00000000    0.00000040    0.00000280
     atom    4 type  2   force =     0.00000000    0.00000786   -0.00000704
     atom    5 type  1   force =    -0.00000000    0.00000497    0.00000381
     atom    6 type  1   force =     0.00000000    0.00001039    0.00000672
     atom    7 type  2   force =    -0.00000000    0.00000404   -0.00000256
     atom    8 type  2   force =    -0.00000000    0.00000778    0.00000418
     atom    9 type  1   force =    -0.00000000   -0.00000687   -0.00000319
     atom   10 type  1   force =     0.00000000   -0.00000588   -0.00000560
     atom   11 type  2   force =    -0.00000000   -0.00000252    0.00000116
     atom   12 type  2   force =     0.00000000   -0.00000415   -0.00000181
     atom   13 type  1   force =    -0.00000000   -0.00000489    0.00000448
     atom   14 type  1   force =     0.00000000   -0.00000733    0.00000932
     atom   15 type  2   force =    -0.00000000   -0.00000836   -0.00000257
     atom   16 type  2   force =     0.00000000   -0.00000228   -0.00000100
     atom   17 type  1   force =    -0.00000000    0.00000087   -0.00000407
     atom   18 type  1   force =     0.00000000   -0.00000276    0.00000051
     atom   19 type  2   force =     0.00000000   -0.00000368    0.00000300
     atom   20 type  2   force =     0.00000000    0.00000368   -0.00000300
     atom   21 type  1   force =    -0.00000000    0.00000717    0.00000151
     atom   22 type  1   force =     0.00000000    0.00000201    0.00001645
     atom   23 type  2   force =     0.00000000   -0.00000435   -0.00000165
     atom   24 type  2   force =     0.00000000    0.00000375   -0.00000266

     Total force =     0.000541     Total SCF correction =     0.000038

     General routines

     Parallel routines

   This run was terminated on:  18:31:19  31Aug2025

   JOB DONE.
Note: The following floating-point exceptions are signalling: IEEE_UNDERFLOW_FLAG IEEE_DENORMAL
Note: The following floating-point exceptions are signalling: IEEE_UNDERFLOW_FLAG IEEE_DENORMAL
Note: The following floating-point exceptions are signalling: IEEE_UNDERFLOW_FLAG IEEE_DENORMAL
Note: The following floating-point exceptions are signalling: IEEE_UNDERFLOW_FLAG IEEE_DENORMAL
Note: The following floating-point exceptions are signalling: IEEE_UNDERFLOW_FLAG IEEE_DENORMAL
Note: The following floating-point exceptions are signalling: IEEE_UNDERFLOW_FLAG IEEE_DENORMAL
Note: The following floating-point exceptions are signalling: IEEE_UNDERFLOW_FLAG IEEE_DENORMAL
Note: The following floating-point exceptions are signalling: IEEE_UNDERFLOW_FLAG IEEE_DENORMAL
Note: The following floating-point exceptions are signalling: IEEE_UNDERFLOW_FLAG IEEE_DENORMAL
Note: The following floating-point exceptions are signalling: IEEE_UNDERFLOW_FLAG IEEE_DENORMAL
Note: The following floating-point exceptions are signalling: IEEE_UNDERFLOW_FLAG IEEE_DENORMAL
Note: The following floating-point exceptions are signalling: IEEE_UNDERFLOW_FLAG IEEE_DENORMAL
Note: The following floating-point exceptions are signalling: IEEE_UNDERFLOW_FLAG IEEE_DENORMAL
Note: The following floating-point exceptions are signalling: IEEE_UNDERFLOW_FLAG IEEE_DENORMAL
Note: The following floating-point exceptions are signalling: IEEE_UNDERFLOW_FLAG IEEE_DENORMAL
Note: The following floating-point exceptions are signalling: IEEE_UNDERFLOW_FLAG IEEE_DENORMAL
Note: The following floating-point exceptions are signalling: IEEE_UNDERFLOW_FLAG IEEE_DENORMAL
Note: The following floating-point exceptions are signalling: IEEE_UNDERFLOW_FLAG IEEE_DENORMAL
Note: The following floating-point exceptions are signalling: IEEE_UNDERFLOW_FLAG IEEE_DENORMAL
Note: The following floating-point exceptions are signalling: IEEE_UNDERFLOW_FLAG IEEE_DENORMAL
Note: The following floating-point exceptions are signalling: IEEE_UNDERFLOW_FLAG IEEE_DENORMAL
Note: The following floating-point exceptions are signalling: IEEE_UNDERFLOW_FLAG IEEE_DENORMAL
Note: The following floating-point exceptions are signalling: IEEE_UNDERFLOW_FLAG IEEE_DENORMAL
Note: The following floating-point exceptions are signalling: IEEE_UNDERFLOW_FLAG IEEE_DENORMAL
Note: The following floating-point exceptions are signalling: IEEE_UNDERFLOW_FLAG IEEE_DENORMAL
Note: The following floating-point exceptions are signalling: IEEE_UNDERFLOW_FLAG IEEE_DENORMAL
Note: The following floating-point exceptions are signalling: IEEE_UNDERFLOW_FLAG IEEE_DENORMAL
Note: The following floating-point exceptions are signalling: IEEE_UNDERFLOW_FLAG IEEE_DENORMAL
Note: The following floating-point exceptions are signalling: IEEE_UNDERFLOW_FLAG IEEE_DENORMAL
Note: The following floating-point exceptions are signalling: IEEE_UNDERFLOW_FLAG IEEE_DENORMAL
Note: The following floating-point exceptions are signalling: IEEE_UNDERFLOW_FLAG IEEE_DENORMAL
Note: The following floating-point exceptions are signalling: IEEE_UNDERFLOW_FLAG IEEE_DENORMAL