     Program PWSCF v.7.0 starts on 30Aug2025 at 20:30: 1

     K-points division:     npool     =       8
     R & G space division:  proc/nbgrp/npool/nimage =       4

     Reading input from /home/jvc/QEspresso7.2/ZnO_database/scripts/cell132.in/ZnO-3.27-1.49-132.in
Warning: card &CELL ignored
Warning: card / ignored
Warning: card &FCP ignored
Warning: card / ignored
Warning: card &RISM ignored
Warning: card / ignored

     Current dimensions of program PWSCF are:
     Max number of different atomic species (ntypx) = 10
     Max number of k-points (npk) =  40000
     Max angular momentum in pseudopotentials (lmaxx) =  4
     file Zn.upf: wavefunction(s)  3D renormalized
     Found identity + (  0.0000  0.0000  0.5000) symmetry
     This is a supercell, fractional translations are disabled
     Message from routine setup:
     using ibrav=0 with symmetry is DISCOURAGED, use correct ibrav instead

     Using Slab Decomposition

     bravais-lattice index     =            0
     lattice parameter (alat)  =       6.1789  a.u.
     unit-cell volume          =    1820.5116 (a.u.)^3
     number of atoms/cell      =           24
     number of atomic types    =            2
     number of electrons       =       216.00
     number of Kohn-Sham states=          108
     kinetic-energy cutoff     =      50.0000  Ry
     charge density cutoff     =     400.0000  Ry
     scf convergence threshold =      1.0E-08
     mixing beta               =       0.3000
     number of iterations used =            8  plain     mixing
     Exchange-correlation= PBE
                           (   1   4   3   4   0   0   0)

     celldm(1)=   6.178854  celldm(2)=   0.000000  celldm(3)=   0.000000
     celldm(4)=   0.000000  celldm(5)=   0.000000  celldm(6)=   0.000000

     crystal axes: (cart. coord. in units of alat)
               a(1) = (   1.000000   0.000000   0.000000 )
               a(2) = (  -1.500000   2.598076   0.000000 )
               a(3) = (   0.000000   0.000000   2.970419 )

     reciprocal axes: (cart. coord. in units 2 pi/alat)
               b(1) = (  1.000000  0.577350 -0.000000 )
               b(2) = (  0.000000  0.384900  0.000000 )
               b(3) = (  0.000000 -0.000000  0.336653 )

     PseudoPot. # 1 for Zn read from file:
     /home/jvc/QEspresso7.2/ZnO_database/pseudos/Zn.upf
     MD5 check sum: 7f56cabf9682ed8c977c2f7d0c5985c5
     Pseudo is Ultrasoft + core correction, Zval = 12.0
     Generated using &quot;atomic&quot; code by A. Dal Corso  v.6.2.2
     Using radial grid of 1201 points,  6 beta functions with:
                l(1) =   0
                l(2) =   0
                l(3) =   1
                l(4) =   1
                l(5) =   2
                l(6) =   2
     Q(r) pseudized with 0 coefficients

     PseudoPot. # 2 for O  read from file:
     /home/jvc/QEspresso7.2/ZnO_database/pseudos/O.upf
     MD5 check sum: 91400c9766925bcf19f520983a725ff0
     Pseudo is Ultrasoft + core correction, Zval =  6.0
     Generated using &quot;atomic&quot; code by A. Dal Corso  v.6.3MaX
     Using radial grid of 1095 points,  4 beta functions with:
                l(1) =   0
                l(2) =   0
                l(3) =   1
                l(4) =   1
     Q(r) pseudized with 0 coefficients

     atomic species   valence    mass     pseudopotential
        Zn            12.00    65.38000     Zn( 1.00)
        O              6.00    15.99900     O ( 1.00)

      2 Sym. Ops. (no inversion) found

                                    s                        frac. trans.

      isym =  1     identity

 cryst.   s( 1) = (     1          0          0      )
                  (     0          1          0      )
                  (     0          0          1      )

 cart.    s( 1) = (  1.0000000  0.0000000  0.0000000 )
                  (  0.0000000  1.0000000  0.0000000 )
                  (  0.0000000  0.0000000  1.0000000 )

      isym =  2     inv. 180 deg rotation - cart. axis [1,0,0]

 cryst.   s( 2) = (    -1          0          0      )
                  (     3          1          0      )
                  (     0          0          1      )

 cart.    s( 2) = ( -1.0000000  0.0000000  0.0000000 )
                  (  0.0000000  1.0000000  0.0000000 )
                  (  0.0000000  0.0000000  1.0000000 )

   Cartesian axes

     site n.     atom                  positions (alat units)
         1           Zn  tau(   1) = (   0.5000000   0.2886751   0.7435459  )
         2           Zn  tau(   2) = (  -0.0000000   0.5773503   0.0009410  )
         3           O   tau(   3) = (   0.5000000   0.2886751   1.3065039  )
         4           O   tau(   4) = (  -0.0000000   0.5773503   0.5638991  )
         5           Zn  tau(   5) = (   0.5000000   0.2886751   2.2287555  )
         6           Zn  tau(   6) = (  -0.0000000   0.5773503   1.4861507  )
         7           O   tau(   7) = (   0.5000000   0.2886751   2.7917136  )
         8           O   tau(   8) = (  -0.0000000   0.5773503   2.0491088  )
         9           Zn  tau(   9) = (   0.0000000   1.1547005   0.7435459  )
        10           Zn  tau(  10) = (  -0.5000000   1.4433757   0.0009410  )
        11           O   tau(  11) = (   0.0000000   1.1547005   1.3065039  )
        12           O   tau(  12) = (  -0.5000000   1.4433757   0.5638991  )
        13           Zn  tau(  13) = (   0.0000000   1.1547005   2.2287555  )
        14           Zn  tau(  14) = (  -0.5000000   1.4433757   1.4861507  )
        15           O   tau(  15) = (   0.0000000   1.1547005   2.7917136  )
        16           O   tau(  16) = (  -0.5000000   1.4433757   2.0491088  )
        17           Zn  tau(  17) = (  -0.5000000   2.0207259   0.7435459  )
        18           Zn  tau(  18) = (  -1.0000000   2.3094011   0.0009410  )
        19           O   tau(  19) = (  -0.5000000   2.0207259   1.3065039  )
        20           O   tau(  20) = (  -1.0000000   2.3094011   0.5638991  )
        21           Zn  tau(  21) = (  -0.5000000   2.0207259   2.2287555  )
        22           Zn  tau(  22) = (  -1.0000000   2.3094011   1.4861507  )
        23           O   tau(  23) = (  -0.5000000   2.0207259   2.7917136  )
        24           O   tau(  24) = (  -1.0000000   2.3094011   2.0491088  )

   Crystallographic axes

     site n.     atom                  positions (cryst. coord.)
         1           Zn  tau(   1) = (  0.6666667  0.1111111  0.2503168  )
         2           Zn  tau(   2) = (  0.3333333  0.2222222  0.0003168  )
         3           O   tau(   3) = (  0.6666667  0.1111111  0.4398382  )
         4           O   tau(   4) = (  0.3333333  0.2222222  0.1898382  )
         5           Zn  tau(   5) = (  0.6666667  0.1111111  0.7503168  )
         6           Zn  tau(   6) = (  0.3333333  0.2222222  0.5003168  )
         7           O   tau(   7) = (  0.6666667  0.1111111  0.9398382  )
         8           O   tau(   8) = (  0.3333333  0.2222222  0.6898382  )
         9           Zn  tau(   9) = (  0.6666667  0.4444444  0.2503168  )
        10           Zn  tau(  10) = (  0.3333333  0.5555556  0.0003168  )
        11           O   tau(  11) = (  0.6666667  0.4444444  0.4398382  )
        12           O   tau(  12) = (  0.3333333  0.5555556  0.1898382  )
        13           Zn  tau(  13) = (  0.6666667  0.4444444  0.7503168  )
        14           Zn  tau(  14) = (  0.3333333  0.5555556  0.5003168  )
        15           O   tau(  15) = (  0.6666667  0.4444444  0.9398382  )
        16           O   tau(  16) = (  0.3333333  0.5555556  0.6898382  )
        17           Zn  tau(  17) = (  0.6666667  0.7777778  0.2503168  )
        18           Zn  tau(  18) = (  0.3333333  0.8888889  0.0003168  )
        19           O   tau(  19) = (  0.6666667  0.7777778  0.4398382  )
        20           O   tau(  20) = (  0.3333333  0.8888889  0.1898382  )
        21           Zn  tau(  21) = (  0.6666667  0.7777778  0.7503168  )
        22           Zn  tau(  22) = (  0.3333333  0.8888889  0.5003168  )
        23           O   tau(  23) = (  0.6666667  0.7777778  0.9398382  )
        24           O   tau(  24) = (  0.3333333  0.8888889  0.6898382  )

     number of k points=    68
                       cart. coord. in units 2pi/alat
        k(    1) = (   0.0000000   0.0000000   0.0000000), wk =   0.0092593
        k(    2) = (   0.0000000   0.0000000   0.0561088), wk =   0.0185185
        k(    3) = (   0.0000000   0.0000000   0.1122176), wk =   0.0185185
        k(    4) = (   0.0000000   0.0000000  -0.1683264), wk =   0.0092593
        k(    5) = (   0.0000000   0.0641500   0.0000000), wk =   0.0185185
        k(    6) = (   0.0000000   0.0641500   0.0561088), wk =   0.0185185
        k(    7) = (   0.0000000   0.0641500   0.1122176), wk =   0.0185185
        k(    8) = (   0.0000000   0.0641500  -0.1683264), wk =   0.0185185
        k(    9) = (   0.0000000   0.1283001   0.0000000), wk =   0.0185185
        k(   10) = (   0.0000000   0.1283001   0.0561088), wk =   0.0185185
        k(   11) = (   0.0000000   0.1283001   0.1122176), wk =   0.0185185
        k(   12) = (   0.0000000   0.1283001  -0.1683264), wk =   0.0185185
        k(   13) = (   0.0000000  -0.1924501   0.0000000), wk =   0.0092593
        k(   14) = (   0.0000000  -0.1924501   0.0561088), wk =   0.0185185
        k(   15) = (   0.0000000  -0.1924501   0.1122176), wk =   0.0185185
        k(   16) = (   0.0000000  -0.1924501  -0.1683264), wk =   0.0092593
        k(   17) = (   0.1666667   0.0962250   0.0000000), wk =   0.0370370
        k(   18) = (   0.1666667   0.0962250   0.0561088), wk =   0.0370370
        k(   19) = (   0.1666667   0.0962250   0.1122176), wk =   0.0370370
        k(   20) = (   0.1666667   0.0962250  -0.1683264), wk =   0.0370370
        k(   21) = (   0.1666667   0.1603751   0.0000000), wk =   0.0370370
        k(   22) = (   0.1666667   0.1603751   0.0561088), wk =   0.0370370
        k(   23) = (   0.1666667   0.1603751   0.1122176), wk =   0.0370370
        k(   24) = (   0.1666667   0.1603751  -0.1683264), wk =   0.0370370
        k(   25) = (   0.1666667  -0.0320750   0.0000000), wk =   0.0370370
        k(   26) = (   0.1666667  -0.0320750   0.0561088), wk =   0.0370370
        k(   27) = (   0.1666667  -0.0320750   0.1122176), wk =   0.0370370
        k(   28) = (   0.1666667  -0.0320750  -0.1683264), wk =   0.0370370
        k(   29) = (   0.3333333   0.1924501   0.0000000), wk =   0.0185185
        k(   30) = (   0.3333333   0.1924501   0.0561088), wk =   0.0370370
        k(   31) = (   0.3333333   0.1924501   0.1122176), wk =   0.0370370
        k(   32) = (   0.3333333   0.1924501  -0.1683264), wk =   0.0185185
        k(   33) = (   0.3333333   0.2566001   0.0000000), wk =   0.0370370
        k(   34) = (   0.3333333   0.2566001   0.0561088), wk =   0.0370370
        k(   35) = (   0.3333333   0.2566001   0.1122176), wk =   0.0370370
        k(   36) = (   0.3333333   0.2566001  -0.1683264), wk =   0.0370370
        k(   37) = (   0.3333333   0.3207501   0.0000000), wk =   0.0370370
        k(   38) = (   0.3333333   0.3207501   0.0561088), wk =   0.0370370
        k(   39) = (   0.3333333   0.3207501   0.1122176), wk =   0.0370370
[...]

!    total energy              =   -2169.65435091 Ry
     estimated scf accuracy    <          6.1E-09 Ry

     The total energy is the sum of the following terms:
     one-electron contribution =    -875.18342103 Ry
     hartree contribution      =     692.39237951 Ry
     xc contribution           =    -658.42562567 Ry
     ewald contribution        =   -1328.43768371 Ry

     convergence has been achieved in  28 iterations

     Forces acting on atoms (cartesian axes, Ry/au):

     atom    1 type  1   force =     0.00000000   -0.00001256   -0.05201678
     atom    2 type  1   force =     0.00000000    0.00001310   -0.05202768
     atom    3 type  2   force =     0.00000000    0.00000093    0.05201905
     atom    4 type  2   force =     0.00000000   -0.00000030    0.05201868
     atom    5 type  1   force =     0.00000000   -0.00000634   -0.05202228
     atom    6 type  1   force =     0.00000000    0.00001280   -0.05200867
     atom    7 type  2   force =     0.00000000    0.00000047    0.05201904
     atom    8 type  2   force =     0.00000000   -0.00000111    0.05201967
     atom    9 type  1   force =     0.00000000   -0.00000883   -0.05201701
     atom   10 type  1   force =     0.00000000    0.00001204   -0.05202106
     atom   11 type  2   force =     0.00000000    0.00000066    0.05201920
     atom   12 type  2   force =     0.00000000   -0.00000088    0.05201875
     atom   13 type  1   force =     0.00000000   -0.00001906   -0.05202225
     atom   14 type  1   force =     0.00000000    0.00000952   -0.05201749
     atom   15 type  2   force =     0.00000000    0.00000112    0.05201890
     atom   16 type  2   force =     0.00000000   -0.00000046    0.05201930
     atom   17 type  1   force =     0.00000000   -0.00001489   -0.05201813
     atom   18 type  1   force =     0.00000000    0.00001071   -0.05202259
     atom   19 type  2   force =     0.00000000    0.00000071    0.05201953
     atom   20 type  2   force =     0.00000000   -0.00000070    0.05201893
     atom   21 type  1   force =     0.00000000   -0.00001081   -0.05201956
     atom   22 type  1   force =     0.00000000    0.00001333   -0.05201594
     atom   23 type  2   force =     0.00000000    0.00000071    0.05201905
     atom   24 type  2   force =     0.00000000   -0.00000018    0.05201936
     The non-local contrib.  to forces
     atom    1 type  1   force =     0.00000000    0.00001179   -0.25815803
     atom    2 type  1   force =     0.00000000   -0.00001075   -0.25816487
     atom    3 type  2   force =     0.00000000    0.00018865   -0.18020558
     atom    4 type  2   force =     0.00000000   -0.00018945   -0.18020165
     atom    5 type  1   force =     0.00000000    0.00001489   -0.25816056
     atom    6 type  1   force =     0.00000000   -0.00001109   -0.25815243
     atom    7 type  2   force =     0.00000000    0.00018808   -0.18019708
     atom    8 type  2   force =     0.00000000   -0.00019016   -0.18020071
     atom    9 type  1   force =     0.00000000    0.00001335   -0.25815775
     atom   10 type  1   force =     0.00000000   -0.00001147   -0.25816043
     atom   11 type  2   force =     0.00000000    0.00018957   -0.18020346
     atom   12 type  2   force =     0.00000000   -0.00019001   -0.18020190
     atom   13 type  1   force =     0.00000000    0.00000777   -0.25816070
     atom   14 type  1   force =     0.00000000   -0.00001300   -0.25815789
     atom   15 type  2   force =     0.00000000    0.00019058   -0.18019935
     atom   16 type  2   force =     0.00000000   -0.00018719   -0.18020086
     atom   17 type  1   force =     0.00000000    0.00000986   -0.25815872
     atom   18 type  1   force =     0.00000000   -0.00001286   -0.25816141
     atom   19 type  2   force =     0.00000000    0.00018958   -0.18020193
     atom   20 type  2   force =     0.00000000   -0.00018852   -0.18020117
     atom   21 type  1   force =     0.00000000    0.00001272   -0.25815933
     atom   22 type  1   force =     0.00000000   -0.00001084   -0.25815718
     atom   23 type  2   force =     0.00000000    0.00018908   -0.18020073
     atom   24 type  2   force =     0.00000000   -0.00019073   -0.18020093
     The ionic contribution  to forces
     atom    1 type  1   force =    -0.00000000    0.00000001   -1.74836659
     atom    2 type  1   force =     0.00000000    0.00000001   -1.74836659
     atom    3 type  2   force =    -0.00000000    0.00000001    1.74836659
     atom    4 type  2   force =     0.00000000    0.00000000    1.74836659
     atom    5 type  1   force =    -0.00000000    0.00000001   -1.74836659
     atom    6 type  1   force =     0.00000000    0.00000001   -1.74836659
     atom    7 type  2   force =    -0.00000000    0.00000001    1.74836659
     atom    8 type  2   force =     0.00000000    0.00000000    1.74836659
     atom    9 type  1   force =    -0.00000001    0.00000001   -1.74836659
     atom   10 type  1   force =     0.00000001   -0.00000001   -1.74836659
     atom   11 type  2   force =    -0.00000001    0.00000000    1.74836659
     atom   12 type  2   force =     0.00000001   -0.00000000    1.74836659
     atom   13 type  1   force =    -0.00000001    0.00000001   -1.74836659
     atom   14 type  1   force =     0.00000001   -0.00000001   -1.74836659
     atom   15 type  2   force =    -0.00000001    0.00000000    1.74836659
     atom   16 type  2   force =     0.00000001   -0.00000000    1.74836659
     atom   17 type  1   force =    -0.00000000   -0.00000001   -1.74836659
     atom   18 type  1   force =     0.00000000   -0.00000001   -1.74836659
     atom   19 type  2   force =    -0.00000000   -0.00000000    1.74836659
     atom   20 type  2   force =     0.00000000   -0.00000001    1.74836659
     atom   21 type  1   force =    -0.00000000   -0.00000001   -1.74836659
     atom   22 type  1   force =     0.00000000   -0.00000001   -1.74836659
     atom   23 type  2   force =    -0.00000000   -0.00000000    1.74836659
     atom   24 type  2   force =     0.00000000   -0.00000001    1.74836659
     The local contribution  to forces
     atom    1 type  1   force =    -0.00000004   -0.00002591    1.93342781
     atom    2 type  1   force =     0.00000000    0.00002484    1.93344633
     atom    3 type  2   force =    -0.00000001   -0.00018653   -1.51737434
     atom    4 type  2   force =     0.00000000    0.00018617   -1.51737238
     atom    5 type  1   force =    -0.00000004   -0.00003738    1.93343763
     atom    6 type  1   force =     0.00000000    0.00002527    1.93341299
     atom    7 type  2   force =    -0.00000001   -0.00018798   -1.51736911
     atom    8 type  2   force =     0.00000000    0.00018598   -1.51737085
     atom    9 type  1   force =    -0.00000009   -0.00003231    1.93342799
     atom   10 type  1   force =     0.00000009    0.00002604    1.93343489
     atom   11 type  2   force =    -0.00000002   -0.00018747   -1.51737378
     atom   12 type  2   force =     0.00000002    0.00018506   -1.51737358
     atom   13 type  1   force =    -0.00000009   -0.00001422    1.93343658
     atom   14 type  1   force =     0.00000009    0.00003008    1.93342939
     atom   15 type  2   force =    -0.00000002   -0.00018525   -1.51736888
     atom   16 type  2   force =     0.00000002    0.00018904   -1.51736870
     atom   17 type  1   force =     0.00000000   -0.00002179    1.93343022
     atom   18 type  1   force =     0.00000004    0.00002947    1.93343823
     atom   19 type  2   force =     0.00000000   -0.00018587   -1.51737263
     atom   20 type  2   force =     0.00000001    0.00018857   -1.51737263
     atom   21 type  1   force =     0.00000000   -0.00002892    1.93343184
     atom   22 type  1   force =     0.00000004    0.00002489    1.93342731
     atom   23 type  2   force =    -0.00000000   -0.00018659   -1.51736985
     atom   24 type  2   force =     0.00000001    0.00018625   -1.51736897
     The core correction contribution to forces
     atom    1 type  1   force =    -0.00000001    0.00000360    0.02108351
     atom    2 type  1   force =     0.00000000   -0.00000368    0.02108331
     atom    3 type  2   force =     0.00000000   -0.00000215    0.00122321
     atom    4 type  2   force =    -0.00000000    0.00000216    0.00122317
     atom    5 type  1   force =    -0.00000001    0.00000391    0.02108319
     atom    6 type  1   force =     0.00000000   -0.00000366    0.02108360
     atom    7 type  2   force =     0.00000000   -0.00000215    0.00122312
     atom    8 type  2   force =    -0.00000000    0.00000217    0.00122316
     atom    9 type  1   force =    -0.00000001    0.00000378    0.02108345
     atom   10 type  1   force =     0.00000001   -0.00000364    0.02108339
     atom   11 type  2   force =     0.00000000   -0.00000216    0.00122319
     atom   12 type  2   force =    -0.00000000    0.00000216    0.00122317
     atom   13 type  1   force =    -0.00000001    0.00000343    0.02108332
     atom   14 type  1   force =     0.00000001   -0.00000367    0.02108336
     atom   15 type  2   force =     0.00000000   -0.00000217    0.00122314
     atom   16 type  2   force =    -0.00000000    0.00000214    0.00122316
     atom   17 type  1   force =     0.00000000    0.00000362    0.02108343
     atom   18 type  1   force =     0.00000001   -0.00000368    0.02108332
     atom   19 type  2   force =     0.00000000   -0.00000216    0.00122317
     atom   20 type  2   force =    -0.00000000    0.00000215    0.00122316
     atom   21 type  1   force =    -0.00000000    0.00000366    0.02108341
     atom   22 type  1   force =     0.00000001   -0.00000367    0.02108338
     atom   23 type  2   force =     0.00000000   -0.00000215    0.00122316
     atom   24 type  2   force =    -0.00000000    0.00000217    0.00122316
     The Hubbard contrib.    to forces
     atom    1 type  1   force =     0.00000000    0.00000000    0.00000000
     atom    2 type  1   force =     0.00000000    0.00000000    0.00000000
     atom    3 type  2   force =     0.00000000    0.00000000    0.00000000
     atom    4 type  2   force =     0.00000000    0.00000000    0.00000000
     atom    5 type  1   force =     0.00000000    0.00000000    0.00000000
     atom    6 type  1   force =     0.00000000    0.00000000    0.00000000
     atom    7 type  2   force =     0.00000000    0.00000000    0.00000000
     atom    8 type  2   force =     0.00000000    0.00000000    0.00000000
     atom    9 type  1   force =     0.00000000    0.00000000    0.00000000
     atom   10 type  1   force =     0.00000000    0.00000000    0.00000000
     atom   11 type  2   force =     0.00000000    0.00000000    0.00000000
     atom   12 type  2   force =     0.00000000    0.00000000    0.00000000
     atom   13 type  1   force =     0.00000000    0.00000000    0.00000000
     atom   14 type  1   force =     0.00000000    0.00000000    0.00000000
     atom   15 type  2   force =     0.00000000    0.00000000    0.00000000
     atom   16 type  2   force =     0.00000000    0.00000000    0.00000000
     atom   17 type  1   force =     0.00000000    0.00000000    0.00000000
     atom   18 type  1   force =     0.00000000    0.00000000    0.00000000
     atom   19 type  2   force =     0.00000000    0.00000000    0.00000000
     atom   20 type  2   force =     0.00000000    0.00000000    0.00000000
     atom   21 type  1   force =     0.00000000    0.00000000    0.00000000
     atom   22 type  1   force =     0.00000000    0.00000000    0.00000000
     atom   23 type  2   force =     0.00000000    0.00000000    0.00000000
     atom   24 type  2   force =     0.00000000    0.00000000    0.00000000
     The SCF correction term to forces
     atom    1 type  1   force =    -0.00000000   -0.00000213   -0.00000729
     atom    2 type  1   force =     0.00000000    0.00000260   -0.00002966
     atom    3 type  2   force =    -0.00000000    0.00000087    0.00000536
     atom    4 type  2   force =     0.00000000    0.00000075   -0.00000085
     atom    5 type  1   force =    -0.00000000    0.00001215   -0.00001976
     atom    6 type  1   force =     0.00000000    0.00000218    0.00000995
     atom    7 type  2   force =    -0.00000000    0.00000243   -0.00000829
     atom    8 type  2   force =     0.00000000    0.00000081   -0.00000232
     atom    9 type  1   force =    -0.00000000    0.00000625   -0.00000791
     atom   10 type  1   force =     0.00000000    0.00000104   -0.00001612
     atom   11 type  2   force =    -0.00000000    0.00000064    0.00000285
     atom   12 type  2   force =     0.00000000    0.00000183    0.00000066
     atom   13 type  1   force =    -0.00000000   -0.00001612   -0.00001866
     atom   14 type  1   force =     0.00000000   -0.00000397   -0.00000956
     atom   15 type  2   force =    -0.00000000   -0.00000212   -0.00000642
     atom   16 type  2   force =     0.00000000   -0.00000452   -0.00000471
     atom   17 type  1   force =    -0.00000000   -0.00000664   -0.00001026
     atom   18 type  1   force =     0.00000000   -0.00000229   -0.00001994
     atom   19 type  2   force =    -0.00000000   -0.00000092    0.00000053
     atom   20 type  2   force =     0.00000000   -0.00000297   -0.00000082
     atom   21 type  1   force =    -0.00000000    0.00000167   -0.00001268
     atom   22 type  1   force =     0.00000000    0.00000288   -0.00000667
     atom   23 type  2   force =    -0.00000000    0.00000030   -0.00000392
     atom   24 type  2   force =     0.00000000    0.00000205   -0.00000431

     Total force =     0.254841     Total SCF correction =     0.000061

     General routines

     Parallel routines

   This run was terminated on:  21: 8: 6  30Aug2025

   JOB DONE.
Note: The following floating-point exceptions are signalling: IEEE_UNDERFLOW_FLAG IEEE_DENORMAL
Note: The following floating-point exceptions are signalling: IEEE_UNDERFLOW_FLAG IEEE_DENORMAL
Note: The following floating-point exceptions are signalling: IEEE_UNDERFLOW_FLAG IEEE_DENORMAL
Note: The following floating-point exceptions are signalling: IEEE_UNDERFLOW_FLAG IEEE_DENORMAL
Note: The following floating-point exceptions are signalling: IEEE_UNDERFLOW_FLAG IEEE_DENORMAL
Note: The following floating-point exceptions are signalling: IEEE_UNDERFLOW_FLAG IEEE_DENORMAL
Note: The following floating-point exceptions are signalling: IEEE_UNDERFLOW_FLAG IEEE_DENORMAL
Note: The following floating-point exceptions are signalling: IEEE_UNDERFLOW_FLAG IEEE_DENORMAL
Note: The following floating-point exceptions are signalling: IEEE_UNDERFLOW_FLAG IEEE_DENORMAL
Note: The following floating-point exceptions are signalling: IEEE_UNDERFLOW_FLAG IEEE_DENORMAL
Note: The following floating-point exceptions are signalling: IEEE_UNDERFLOW_FLAG IEEE_DENORMAL
Note: The following floating-point exceptions are signalling: IEEE_UNDERFLOW_FLAG IEEE_DENORMAL
Note: The following floating-point exceptions are signalling: IEEE_UNDERFLOW_FLAG IEEE_DENORMAL
Note: The following floating-point exceptions are signalling: IEEE_UNDERFLOW_FLAG IEEE_DENORMAL
Note: The following floating-point exceptions are signalling: IEEE_UNDERFLOW_FLAG IEEE_DENORMAL
Note: The following floating-point exceptions are signalling: IEEE_UNDERFLOW_FLAG IEEE_DENORMAL
Note: The following floating-point exceptions are signalling: IEEE_UNDERFLOW_FLAG IEEE_DENORMAL
Note: The following floating-point exceptions are signalling: IEEE_UNDERFLOW_FLAG IEEE_DENORMAL
Note: The following floating-point exceptions are signalling: IEEE_UNDERFLOW_FLAG IEEE_DENORMAL
Note: The following floating-point exceptions are signalling: IEEE_UNDERFLOW_FLAG IEEE_DENORMAL
Note: The following floating-point exceptions are signalling: IEEE_UNDERFLOW_FLAG IEEE_DENORMAL
Note: The following floating-point exceptions are signalling: IEEE_UNDERFLOW_FLAG IEEE_DENORMAL
Note: The following floating-point exceptions are signalling: IEEE_UNDERFLOW_FLAG IEEE_DENORMAL
Note: The following floating-point exceptions are signalling: IEEE_UNDERFLOW_FLAG IEEE_DENORMAL
Note: The following floating-point exceptions are signalling: IEEE_UNDERFLOW_FLAG IEEE_DENORMAL
Note: The following floating-point exceptions are signalling: IEEE_UNDERFLOW_FLAG IEEE_DENORMAL
Note: The following floating-point exceptions are signalling: IEEE_UNDERFLOW_FLAG IEEE_DENORMAL
Note: The following floating-point exceptions are signalling: IEEE_UNDERFLOW_FLAG IEEE_DENORMAL
Note: The following floating-point exceptions are signalling: IEEE_UNDERFLOW_FLAG IEEE_DENORMAL
Note: The following floating-point exceptions are signalling: IEEE_UNDERFLOW_FLAG IEEE_DENORMAL
Note: The following floating-point exceptions are signalling: IEEE_UNDERFLOW_FLAG IEEE_DENORMAL
Note: The following floating-point exceptions are signalling: IEEE_UNDERFLOW_FLAG IEEE_DENORMAL