     Program PWSCF v.7.2 starts on 19Jul2025 at 21: 2:58

     Reading input from /home/jvc/QEspresso7.2/ZnO_database/scripts/cell132.in/ZnO-2.94-1.61-132.in
Warning: card &CELL ignored
Warning: card / ignored
Warning: card &FCP ignored
Warning: card / ignored
Warning: card &RISM ignored
Warning: card / ignored

     Current dimensions of program PWSCF are:
     Max number of different atomic species (ntypx) = 10
     Max number of k-points (npk) =  40000
     Max angular momentum in pseudopotentials (lmaxx) =  4
     file Zn.upf: wavefunction(s)  3D renormalized
     Found identity + (  0.0000  0.0000 -0.5000) symmetry
     This is a supercell, fractional translations are disabled
     Message from routine setup:
     using ibrav=0 with symmetry is DISCOURAGED, use correct ibrav instead

     K-points division:     npool     =       8
     R & G space division:  proc/nbgrp/npool/nimage =       4
     Subspace diagonalization in iterative solution of the eigenvalue problem:
     a serial algorithm will be used

     Using Slab Decomposition

     bravais-lattice index     =            0
     lattice parameter (alat)  =       6.1788  a.u.
     unit-cell volume          =    1978.7861 (a.u.)^3
     number of atoms/cell      =           24
     number of atomic types    =            2
     number of electrons       =       216.00
     number of Kohn-Sham states=          108
     kinetic-energy cutoff     =      50.0000  Ry
     charge density cutoff     =     400.0000  Ry
     scf convergence threshold =      1.0E-08
     mixing beta               =       0.3000
     number of iterations used =            8  plain     mixing
     Exchange-correlation= PBE
                           (   1   4   3   4   0   0   0)

     celldm(1)=   6.178822  celldm(2)=   0.000000  celldm(3)=   0.000000
     celldm(4)=   0.000000  celldm(5)=   0.000000  celldm(6)=   0.000000

     crystal axes: (cart. coord. in units of alat)
               a(1) = (   1.000000   0.000000   0.000000 )
               a(2) = (  -1.500000   2.598076   0.000000 )
               a(3) = (   0.000000   0.000000   3.228717 )

     reciprocal axes: (cart. coord. in units 2 pi/alat)
               b(1) = (  1.000000  0.577350 -0.000000 )
               b(2) = (  0.000000  0.384900  0.000000 )
               b(3) = (  0.000000 -0.000000  0.309721 )

     PseudoPot. # 1 for Zn read from file:
     /home/jvc/QEspresso7.2/ZnO_database/pseudos/Zn.upf
     MD5 check sum: 7f56cabf9682ed8c977c2f7d0c5985c5
     Pseudo is Ultrasoft + core correction, Zval = 12.0
     Generated using &quot;atomic&quot; code by A. Dal Corso  v.6.2.2
     Using radial grid of 1201 points,  6 beta functions with:
                l(1) =   0
                l(2) =   0
                l(3) =   1
                l(4) =   1
                l(5) =   2
                l(6) =   2
     Q(r) pseudized with 0 coefficients

     PseudoPot. # 2 for O  read from file:
     /home/jvc/QEspresso7.2/ZnO_database/pseudos/O.upf
     MD5 check sum: 91400c9766925bcf19f520983a725ff0
     Pseudo is Ultrasoft + core correction, Zval =  6.0
     Generated using &quot;atomic&quot; code by A. Dal Corso  v.6.3MaX
     Using radial grid of 1095 points,  4 beta functions with:
                l(1) =   0
                l(2) =   0
                l(3) =   1
                l(4) =   1
     Q(r) pseudized with 0 coefficients

     atomic species   valence    mass     pseudopotential
        Zn            12.00    65.38000     Zn( 1.00)
        O              6.00    15.99900     O ( 1.00)

      2 Sym. Ops. (no inversion) found

                                    s                        frac. trans.

      isym =  1     identity

 cryst.   s( 1) = (     1          0          0      )
                  (     0          1          0      )
                  (     0          0          1      )

 cart.    s( 1) = (  1.0000000  0.0000000  0.0000000 )
                  (  0.0000000  1.0000000  0.0000000 )
                  (  0.0000000  0.0000000  1.0000000 )

      isym =  2     inv. 180 deg rotation - cart. axis [1,0,0]

 cryst.   s( 2) = (    -1          0          0      )
                  (     3          1          0      )
                  (     0          0          1      )

 cart.    s( 2) = ( -1.0000000  0.0000000  0.0000000 )
                  (  0.0000000  1.0000000  0.0000000 )
                  (  0.0000000  0.0000000  1.0000000 )

   Cartesian axes

     site n.     atom                  positions (alat units)
         1           Zn  tau(   1) = (   0.5000000   0.2886751   0.8082020  )
         2           Zn  tau(   2) = (   0.0000000   0.5773503   0.0010228  )
         3           O   tau(   3) = (   0.5000000   0.2886751   1.4201130  )
         4           O   tau(   4) = (   0.0000000   0.5773503   0.6129338  )
         5           Zn  tau(   5) = (   0.5000000   0.2886751   2.4225604  )
         6           Zn  tau(   6) = (   0.0000000   0.5773503   1.6153812  )
         7           O   tau(   7) = (   0.5000000   0.2886751   3.0344713  )
         8           O   tau(   8) = (   0.0000000   0.5773503   2.2272921  )
         9           Zn  tau(   9) = (   0.0000000   1.1547005   0.8082020  )
        10           Zn  tau(  10) = (  -0.5000000   1.4433757   0.0010228  )
        11           O   tau(  11) = (   0.0000000   1.1547005   1.4201130  )
        12           O   tau(  12) = (  -0.5000000   1.4433757   0.6129338  )
        13           Zn  tau(  13) = (   0.0000000   1.1547005   2.4225604  )
        14           Zn  tau(  14) = (  -0.5000000   1.4433757   1.6153812  )
        15           O   tau(  15) = (   0.0000000   1.1547005   3.0344713  )
        16           O   tau(  16) = (  -0.5000000   1.4433757   2.2272921  )
        17           Zn  tau(  17) = (  -0.5000000   2.0207259   0.8082020  )
        18           Zn  tau(  18) = (  -1.0000000   2.3094011   0.0010228  )
        19           O   tau(  19) = (  -0.5000000   2.0207259   1.4201130  )
        20           O   tau(  20) = (  -1.0000000   2.3094011   0.6129338  )
        21           Zn  tau(  21) = (  -0.5000000   2.0207259   2.4225604  )
        22           Zn  tau(  22) = (  -1.0000000   2.3094011   1.6153812  )
        23           O   tau(  23) = (  -0.5000000   2.0207259   3.0344713  )
        24           O   tau(  24) = (  -1.0000000   2.3094011   2.2272921  )

   Crystallographic axes

     site n.     atom                  positions (cryst. coord.)
         1           Zn  tau(   1) = (  0.6666667  0.1111111  0.2503168  )
         2           Zn  tau(   2) = (  0.3333333  0.2222222  0.0003168  )
         3           O   tau(   3) = (  0.6666667  0.1111111  0.4398382  )
         4           O   tau(   4) = (  0.3333333  0.2222222  0.1898382  )
         5           Zn  tau(   5) = (  0.6666667  0.1111111  0.7503168  )
         6           Zn  tau(   6) = (  0.3333333  0.2222222  0.5003168  )
         7           O   tau(   7) = (  0.6666667  0.1111111  0.9398382  )
         8           O   tau(   8) = (  0.3333333  0.2222222  0.6898382  )
         9           Zn  tau(   9) = (  0.6666667  0.4444444  0.2503168  )
        10           Zn  tau(  10) = (  0.3333333  0.5555556  0.0003168  )
        11           O   tau(  11) = (  0.6666667  0.4444444  0.4398382  )
        12           O   tau(  12) = (  0.3333333  0.5555556  0.1898382  )
        13           Zn  tau(  13) = (  0.6666667  0.4444444  0.7503168  )
        14           Zn  tau(  14) = (  0.3333333  0.5555556  0.5003168  )
        15           O   tau(  15) = (  0.6666667  0.4444444  0.9398382  )
        16           O   tau(  16) = (  0.3333333  0.5555556  0.6898382  )
        17           Zn  tau(  17) = (  0.6666667  0.7777778  0.2503168  )
        18           Zn  tau(  18) = (  0.3333333  0.8888889  0.0003168  )
        19           O   tau(  19) = (  0.6666667  0.7777778  0.4398382  )
        20           O   tau(  20) = (  0.3333333  0.8888889  0.1898382  )
        21           Zn  tau(  21) = (  0.6666667  0.7777778  0.7503168  )
        22           Zn  tau(  22) = (  0.3333333  0.8888889  0.5003168  )
        23           O   tau(  23) = (  0.6666667  0.7777778  0.9398382  )
        24           O   tau(  24) = (  0.3333333  0.8888889  0.6898382  )

     number of k points=    13
                       cart. coord. in units 2pi/alat
        k(    1) = (   0.0000000   0.0000000   0.0000000), wk =   0.0555556
        k(    2) = (   0.0000000   0.0000000   0.1032402), wk =   0.1111111
        k(    3) = (   0.0000000  -0.1924501   0.0000000), wk =   0.0555556
        k(    4) = (   0.0000000  -0.1924501   0.1032402), wk =   0.1111111
        k(    5) = (   0.1666667   0.0962250   0.0000000), wk =   0.2222222
        k(    6) = (   0.1666667   0.0962250   0.1032402), wk =   0.2222222
        k(    7) = (   0.3333333   0.1924501   0.0000000), wk =   0.1111111
        k(    8) = (   0.3333333   0.1924501   0.1032402), wk =   0.2222222
        k(    9) = (   0.3333333  -0.0000000   0.0000000), wk =   0.1111111
        k(   10) = (   0.3333333  -0.0000000   0.1032402), wk =   0.2222222
        k(   11) = (  -0.5000000  -0.2886751   0.0000000), wk =   0.1111111
        k(   12) = (  -0.5000000  -0.2886751   0.1032402), wk =   0.2222222
        k(   13) = (  -0.1666667   0.0962250  -0.1032402), wk =   0.2222222

                       cryst. coord.
        k(    1) = (   0.0000000   0.0000000   0.0000000), wk =   0.0555556
        k(    2) = (   0.0000000   0.0000000   0.3333333), wk =   0.1111111
        k(    3) = (   0.0000000  -0.5000000   0.0000000), wk =   0.0555556
        k(    4) = (   0.0000000  -0.5000000   0.3333333), wk =   0.1111111
        k(    5) = (   0.1666667   0.0000000   0.0000000), wk =   0.2222222
        k(    6) = (   0.1666667   0.0000000   0.3333333), wk =   0.2222222
        k(    7) = (   0.3333333   0.0000000   0.0000000), wk =   0.1111111
        k(    8) = (   0.3333333   0.0000000   0.3333333), wk =   0.2222222
        k(    9) = (   0.3333333  -0.5000000   0.0000000), wk =   0.1111111
        k(   10) = (   0.3333333  -0.5000000   0.3333333), wk =   0.2222222
        k(   11) = (  -0.5000000  -0.0000000   0.0000000), wk =   0.1111111
        k(   12) = (  -0.5000000  -0.0000000   0.3333333), wk =   0.2222222
        k(   13) = (  -0.1666667   0.5000000  -0.3333333), wk =   0.2222222

     Check: negative core charge=   -0.000002

     Initial potential from superposition of free atoms

     starting charge     215.9553, renormalised to     216.0000
     Starting wfcs are  156 randomized atomic wfcs

     Self-consistent Calculation

     iteration #  1     ecut=    50.00 Ry     beta= 0.30
     Davidson diagonalization with overlap

     ethr =  1.00E-02,  avg # of iterations =  2.0

     total energy              =   -2168.87653470 Ry
     estimated scf accuracy    <       4.14486984 Ry

[...]

     c_bands:  1 eigenvalues not converged
     c_bands:  1 eigenvalues not converged
     ethr =  1.45E-07,  avg # of iterations = 15.9

[...]

     total energy              =   -2169.82132745 Ry
     estimated scf accuracy    <       0.00000002 Ry

     iteration # 33     ecut=    50.00 Ry     beta= 0.30
[...]
     1.0000   1.0000   1.0000   1.0000

[...]

          k = 0.3333-0.0000 0.1032 ( 11848 PWs)   bands (ev):

[...]

          k =-0.5000-0.2887 0.0000 ( 11826 PWs)   bands (ev):

[...]

          k =-0.1667 0.0962-0.1032 ( 11800 PWs)   bands (ev):

   -10.8203 -10.7128 -10.6016 -10.5179 -10.4121 -10.3402 -10.2996 -10.2962
   -10.2905 -10.2082 -10.1859 -10.1495   1.0368   1.0820   1.1038   1.1086
     1.1268   1.1443   1.1496   1.1780   1.1968   1.2850   1.3367   1.3762
     1.4035   1.4331   1.4425   1.4548   1.5169   1.5188   1.5221   1.5381
     1.5437   1.5573   1.5637   1.5839   1.5905   1.5969   1.6853   1.7338
     1.7417   1.7730   1.8092   1.8094   1.8904   1.9133   1.9824   2.0290
     2.3643   2.4014   2.4172   2.4440   2.4609   2.4695   2.4789   2.4884
     2.4958   2.5183   2.5393   2.5677   2.5935   2.6056   2.6172   2.6256
     2.6364   2.6725   2.6725   2.6804   2.6913   2.7501   2.8116   2.8696
     3.1154   3.2560   3.2568   3.3752   3.5916   3.6971   3.8659   3.9343
     4.2091   4.4657   4.5350   4.5551   4.6101   4.6168   4.9825   5.0817
     5.1229   5.2328   5.2750   5.3664   5.3813   5.5972   5.5974   5.6314
     5.7986   5.8447   5.8520   5.9570   6.0234   6.0904   6.1732   6.2738
     6.2837   6.4800   6.5472   6.6436

     occupation numbers
     1.0000   1.0000   1.0000   1.0000   1.0000   1.0000   1.0000   1.0000
     1.0000   1.0000   1.0000   1.0000   1.0000   1.0000   1.0000   1.0000
     1.0000   1.0000   1.0000   1.0000   1.0000   1.0000   1.0000   1.0000
     1.0000   1.0000   1.0000   1.0000   1.0000   1.0000   1.0000   1.0000
     1.0000   1.0000   1.0000   1.0000   1.0000   1.0000   1.0000   1.0000
     1.0000   1.0000   1.0000   1.0000   1.0000   1.0000   1.0000   1.0000
     1.0000   1.0000   1.0000   1.0000   1.0000   1.0000   1.0000   1.0000
     1.0000   1.0000   1.0000   1.0000   1.0000   1.0000   1.0000   1.0000
     1.0000   1.0000   1.0000   1.0000   1.0000   1.0000   1.0000   1.0000
     1.0000   1.0000   1.0000   1.0000   1.0000   1.0000   1.0000   1.0000
     1.0000   1.0000   1.0000   1.0000   1.0000   1.0000   1.0000   1.0000
     1.0000   1.0000   1.0000   1.0000   1.0000   1.0000   1.0000   1.0000
     1.0000   1.0000   1.0000   1.0000   1.0000   1.0000   1.0000   1.0000
     1.0000   1.0000   1.0000   1.0000

     highest occupied level (ev):     6.8873

!    total energy              =   -2169.82132745 Ry
     estimated scf accuracy    <          5.2E-09 Ry

     The total energy is the sum of the following terms:
     one-electron contribution =    -927.15157697 Ry
     hartree contribution      =     709.73545411 Ry
     xc contribution           =    -657.27681267 Ry
     ewald contribution        =   -1295.12839192 Ry

     convergence has been achieved in  33 iterations

     Forces acting on atoms (cartesian axes, Ry/au):

     atom    1 type  1   force =     0.00000000    0.00000245    0.00006206
     atom    2 type  1   force =     0.00000000    0.00000352    0.00005622
     atom    3 type  2   force =     0.00000000   -0.00000123   -0.00006028
     atom    4 type  2   force =     0.00000000   -0.00000027   -0.00006382
     atom    5 type  1   force =     0.00000000   -0.00000053    0.00006209
     atom    6 type  1   force =     0.00000000    0.00000131    0.00006467
     atom    7 type  2   force =     0.00000000   -0.00000120   -0.00006025
     atom    8 type  2   force =     0.00000000   -0.00000002   -0.00006057
     atom    9 type  1   force =     0.00000000   -0.00000013    0.00006201
     atom   10 type  1   force =     0.00000000   -0.00000369    0.00005651
     atom   11 type  2   force =     0.00000000   -0.00000144   -0.00006132
     atom   12 type  2   force =     0.00000000    0.00000042   -0.00006450
     atom   13 type  1   force =     0.00000000    0.00000044    0.00006333
     atom   14 type  1   force =     0.00000000    0.00000048    0.00006457
     atom   15 type  2   force =     0.00000000   -0.00000024   -0.00006069
     atom   16 type  2   force =     0.00000000   -0.00000079   -0.00006050
     atom   17 type  1   force =     0.00000000   -0.00000103    0.00006250
     atom   18 type  1   force =     0.00000000   -0.00000242    0.00005566
     atom   19 type  2   force =     0.00000000    0.00000154   -0.00006189
     atom   20 type  2   force =     0.00000000    0.00000116   -0.00006447
     atom   21 type  1   force =     0.00000000    0.00000039    0.00006116
     atom   22 type  1   force =     0.00000000   -0.00000197    0.00006788
     atom   23 type  2   force =     0.00000000    0.00000097   -0.00006107
     atom   24 type  2   force =     0.00000000    0.00000227   -0.00005929
     The non-local contrib.  to forces
     atom    1 type  1   force =     0.00000000    0.00000254   -0.00482975
     atom    2 type  1   force =     0.00000000    0.00000638   -0.00483808
     atom    3 type  2   force =     0.00000000   -0.00000149    0.00575202
     atom    4 type  2   force =     0.00000000   -0.00000078    0.00575358
     atom    5 type  1   force =     0.00000000    0.00000055   -0.00483245
     atom    6 type  1   force =     0.00000000    0.00000272   -0.00483105
     atom    7 type  2   force =     0.00000000   -0.00000098    0.00575627
     atom    8 type  2   force =     0.00000000   -0.00000010    0.00575319
     atom    9 type  1   force =     0.00000000    0.00000117   -0.00483033
     atom   10 type  1   force =     0.00000000   -0.00000333   -0.00483863
     atom   11 type  2   force =     0.00000000   -0.00000042    0.00575229
     atom   12 type  2   force =     0.00000000    0.00000140    0.00575337
     atom   13 type  1   force =     0.00000000    0.00000242   -0.00483046
     atom   14 type  1   force =     0.00000000    0.00000165   -0.00483072
     atom   15 type  2   force =     0.00000000   -0.00000046    0.00575592
     atom   16 type  2   force =     0.00000000   -0.00000032    0.00575212
     atom   17 type  1   force =     0.00000000   -0.00000208   -0.00482876
     atom   18 type  1   force =     0.00000000   -0.00000314   -0.00483792
     atom   19 type  2   force =     0.00000000    0.00000062    0.00575099
     atom   20 type  2   force =     0.00000000    0.00000015    0.00575288
     atom   21 type  1   force =     0.00000000   -0.00000243   -0.00483488
     atom   22 type  1   force =     0.00000000   -0.00000446   -0.00482822
     atom   23 type  2   force =     0.00000000   -0.00000024    0.00575631
     atom   24 type  2   force =     0.00000000    0.00000028    0.00575257
     The ionic contribution  to forces
     atom    1 type  1   force =     0.00000000    0.00000001    0.06271747
     atom    2 type  1   force =    -0.00000000    0.00000001    0.06271747
     atom    3 type  2   force =     0.00000000    0.00000000   -0.06271747
     atom    4 type  2   force =    -0.00000000    0.00000001   -0.06271747
     atom    5 type  1   force =     0.00000000    0.00000001    0.06271747
     atom    6 type  1   force =    -0.00000000    0.00000001    0.06271747
     atom    7 type  2   force =     0.00000000    0.00000000   -0.06271747
     atom    8 type  2   force =    -0.00000000    0.00000001   -0.06271747
     atom    9 type  1   force =    -0.00000001    0.00000001    0.06271747
     atom   10 type  1   force =     0.00000001   -0.00000001    0.06271747
     atom   11 type  2   force =    -0.00000000    0.00000000   -0.06271747
     atom   12 type  2   force =     0.00000000   -0.00000000   -0.06271747
     atom   13 type  1   force =    -0.00000001    0.00000001    0.06271747
     atom   14 type  1   force =     0.00000001   -0.00000001    0.06271747
     atom   15 type  2   force =    -0.00000000    0.00000000   -0.06271747
     atom   16 type  2   force =     0.00000000   -0.00000000   -0.06271747
     atom   17 type  1   force =     0.00000000   -0.00000001    0.06271747
     atom   18 type  1   force =    -0.00000000   -0.00000001    0.06271747
     atom   19 type  2   force =     0.00000000   -0.00000001   -0.06271747
     atom   20 type  2   force =    -0.00000000   -0.00000000   -0.06271747
     atom   21 type  1   force =     0.00000000   -0.00000001    0.06271747
     atom   22 type  1   force =    -0.00000000   -0.00000001    0.06271747
     atom   23 type  2   force =     0.00000000   -0.00000001   -0.06271747
     atom   24 type  2   force =    -0.00000000   -0.00000000   -0.06271747
     The local contribution  to forces
     atom    1 type  1   force =    -0.00000004   -0.00000560   -0.05829482
     atom    2 type  1   force =     0.00000000   -0.00001299   -0.05827576
     atom    3 type  2   force =    -0.00000001   -0.00000213    0.05696296
     atom    4 type  2   force =     0.00000000   -0.00000176    0.05696112
     atom    5 type  1   force =    -0.00000004    0.00000126   -0.05828934
     atom    6 type  1   force =     0.00000000   -0.00000590   -0.05829230
     atom    7 type  2   force =    -0.00000001   -0.00000330    0.05696675
     atom    8 type  2   force =     0.00000000   -0.00000019    0.05696339
     atom    9 type  1   force =    -0.00000009   -0.00000184   -0.05829401
     atom   10 type  1   force =     0.00000009    0.00000834   -0.05827442
     atom   11 type  2   force =    -0.00000002   -0.00000262    0.05696166
     atom   12 type  2   force =     0.00000002    0.00000146    0.05696085
     atom   13 type  1   force =    -0.00000009   -0.00000477   -0.05829503
     atom   14 type  1   force =     0.00000009   -0.00000234   -0.05829325
     atom   15 type  2   force =    -0.00000002   -0.00000023    0.05696572
     atom   16 type  2   force =     0.00000002   -0.00000086    0.05696526
     atom   17 type  1   force =    -0.00000000    0.00000529   -0.05829758
     atom   18 type  1   force =     0.00000004    0.00000587   -0.05827500
     atom   19 type  2   force =    -0.00000000    0.00000234    0.05696045
     atom   20 type  2   force =     0.00000001    0.00000243    0.05696065
     atom   21 type  1   force =    -0.00000000    0.00000303   -0.05828485
     atom   22 type  1   force =     0.00000004    0.00000843   -0.05829923
     atom   23 type  2   force =    -0.00000000    0.00000296    0.05696686
     atom   24 type  2   force =     0.00000001    0.00000433    0.05696627
     The core correction contribution to forces
     atom    1 type  1   force =    -0.00000001    0.00000005    0.00046415
     atom    2 type  1   force =    -0.00000000    0.00000020    0.00046377
     atom    3 type  2   force =     0.00000000    0.00000002   -0.00006500
     atom    4 type  2   force =    -0.00000000    0.00000001   -0.00006504
     atom    5 type  1   force =    -0.00000001   -0.00000016    0.00046402
     atom    6 type  1   force =    -0.00000000    0.00000011    0.00046396
     atom    7 type  2   force =     0.00000000    0.00000001   -0.00006506
     atom    8 type  2   force =    -0.00000000    0.00000001   -0.00006502
     atom    9 type  1   force =    -0.00000001    0.00000006    0.00046421
     atom   10 type  1   force =     0.00000001   -0.00000017    0.00046370
     atom   11 type  2   force =     0.00000000    0.00000000   -0.00006501
     atom   12 type  2   force =    -0.00000000   -0.00000002   -0.00006503
     atom   13 type  1   force =    -0.00000001    0.00000013    0.00046423
     atom   14 type  1   force =     0.00000001   -0.00000002    0.00046402
     atom   15 type  2   force =     0.00000000    0.00000000   -0.00006506
     atom   16 type  2   force =    -0.00000000    0.00000000   -0.00006500
     atom   17 type  1   force =     0.00000000   -0.00000016    0.00046429
     atom   18 type  1   force =     0.00000001    0.00000002    0.00046372
     atom   19 type  2   force =     0.00000000   -0.00000001   -0.00006499
     atom   20 type  2   force =    -0.00000000   -0.00000000   -0.00006502
     atom   21 type  1   force =     0.00000000    0.00000004    0.00046399
     atom   22 type  1   force =     0.00000001   -0.00000010    0.00046404
     atom   23 type  2   force =     0.00000000    0.00000000   -0.00006506
     atom   24 type  2   force =    -0.00000000    0.00000000   -0.00006501
     The Hubbard contrib.    to forces
     atom    1 type  1   force =     0.00000000    0.00000000    0.00000000
     atom    2 type  1   force =     0.00000000    0.00000000    0.00000000
     atom    3 type  2   force =     0.00000000    0.00000000    0.00000000
     atom    4 type  2   force =     0.00000000    0.00000000    0.00000000
     atom    5 type  1   force =     0.00000000    0.00000000    0.00000000
     atom    6 type  1   force =     0.00000000    0.00000000    0.00000000
     atom    7 type  2   force =     0.00000000    0.00000000    0.00000000
     atom    8 type  2   force =     0.00000000    0.00000000    0.00000000
     atom    9 type  1   force =     0.00000000    0.00000000    0.00000000
     atom   10 type  1   force =     0.00000000    0.00000000    0.00000000
     atom   11 type  2   force =     0.00000000    0.00000000    0.00000000
     atom   12 type  2   force =     0.00000000    0.00000000    0.00000000
     atom   13 type  1   force =     0.00000000    0.00000000    0.00000000
     atom   14 type  1   force =     0.00000000    0.00000000    0.00000000
     atom   15 type  2   force =     0.00000000    0.00000000    0.00000000
     atom   16 type  2   force =     0.00000000    0.00000000    0.00000000
     atom   17 type  1   force =     0.00000000    0.00000000    0.00000000
     atom   18 type  1   force =     0.00000000    0.00000000    0.00000000
     atom   19 type  2   force =     0.00000000    0.00000000    0.00000000
     atom   20 type  2   force =     0.00000000    0.00000000    0.00000000
     atom   21 type  1   force =     0.00000000    0.00000000    0.00000000
     atom   22 type  1   force =     0.00000000    0.00000000    0.00000000
     atom   23 type  2   force =     0.00000000    0.00000000    0.00000000
     atom   24 type  2   force =     0.00000000    0.00000000    0.00000000
     The SCF correction term to forces
     atom    1 type  1   force =     0.00000000    0.00000538    0.00000285
     atom    2 type  1   force =    -0.00000000    0.00000982   -0.00001334
     atom    3 type  2   force =     0.00000000    0.00000229    0.00000507
     atom    4 type  2   force =     0.00000000    0.00000216    0.00000184
     atom    5 type  1   force =     0.00000000   -0.00000228    0.00000024
     atom    6 type  1   force =    -0.00000000    0.00000428    0.00000443
     atom    7 type  2   force =     0.00000000    0.00000298   -0.00000288
     atom    8 type  2   force =     0.00000000    0.00000016    0.00000318
     atom    9 type  1   force =     0.00000000    0.00000038    0.00000251
     atom   10 type  1   force =    -0.00000000   -0.00000861   -0.00001377
     atom   11 type  2   force =     0.00000000    0.00000151    0.00000505
     atom   12 type  2   force =    -0.00000000   -0.00000251    0.00000162
     atom   13 type  1   force =     0.00000000    0.00000257    0.00000496
     atom   14 type  1   force =    -0.00000000    0.00000111    0.00000489
     atom   15 type  2   force =     0.00000000    0.00000035   -0.00000196
     atom   16 type  2   force =    -0.00000000    0.00000030    0.00000244
     atom   17 type  1   force =     0.00000000   -0.00000416    0.00000491
     atom   18 type  1   force =    -0.00000000   -0.00000525   -0.00001477
     atom   19 type  2   force =     0.00000000   -0.00000150    0.00000698
     atom   20 type  2   force =    -0.00000000   -0.00000149    0.00000235
     atom   21 type  1   force =     0.00000000   -0.00000033   -0.00000273
     atom   22 type  1   force =    -0.00000000   -0.00000593    0.00001166
     atom   23 type  2   force =     0.00000000   -0.00000184   -0.00000385
     atom   24 type  2   force =    -0.00000000   -0.00000243    0.00000220

     Total force =     0.000302     Total SCF correction =     0.000037
     SCF correction compared to forces is large: reduce conv_thr to get better values

     General routines

     Parallel routines

   This run was terminated on:  21: 7:31  19Jul2025

   JOB DONE.
Note: The following floating-point exceptions are signalling: IEEE_INVALID_FLAG
Note: The following floating-point exceptions are signalling: IEEE_INVALID_FLAG
Note: The following floating-point exceptions are signalling: IEEE_INVALID_FLAG
Note: The following floating-point exceptions are signalling: IEEE_INVALID_FLAG
Note: The following floating-point exceptions are signalling: IEEE_INVALID_FLAG
Note: The following floating-point exceptions are signalling: IEEE_INVALID_FLAG
Note: The following floating-point exceptions are signalling: IEEE_INVALID_FLAG
Note: The following floating-point exceptions are signalling: IEEE_INVALID_FLAG