     Program PWSCF v.7.2 starts on 19Jul2025 at 21:29:50

     Reading input from /home/jvc/QEspresso7.2/ZnO_database/scripts/cell132.in/ZnO-3.01-1.45-132.in
Warning: card &CELL ignored
Warning: card / ignored
Warning: card &FCP ignored
Warning: card / ignored
Warning: card &RISM ignored
Warning: card / ignored

     Current dimensions of program PWSCF are:
     Max number of different atomic species (ntypx) = 10
     Max number of k-points (npk) =  40000
     Max angular momentum in pseudopotentials (lmaxx) =  4
     file Zn.upf: wavefunction(s)  3D renormalized
     Found identity + (  0.0000  0.0000 -0.5000) symmetry
     This is a supercell, fractional translations are disabled
     Message from routine setup:
     using ibrav=0 with symmetry is DISCOURAGED, use correct ibrav instead

     K-points division:     npool     =       8
     R & G space division:  proc/nbgrp/npool/nimage =       4
     Subspace diagonalization in iterative solution of the eigenvalue problem:
     a serial algorithm will be used

     Using Slab Decomposition

     bravais-lattice index     =            0
     lattice parameter (alat)  =       6.1788  a.u.
     unit-cell volume          =    1978.7861 (a.u.)^3
     number of atoms/cell      =           24
     number of atomic types    =            2
     number of electrons       =       216.00
     number of Kohn-Sham states=          108
     kinetic-energy cutoff     =      50.0000  Ry
     charge density cutoff     =     400.0000  Ry
     scf convergence threshold =      1.0E-08
     mixing beta               =       0.3000
     number of iterations used =            8  plain     mixing
     Exchange-correlation= PBE
                           (   1   4   3   4   0   0   0)

     celldm(1)=   6.178822  celldm(2)=   0.000000  celldm(3)=   0.000000
     celldm(4)=   0.000000  celldm(5)=   0.000000  celldm(6)=   0.000000

     crystal axes: (cart. coord. in units of alat)
               a(1) = (   1.000000   0.000000   0.000000 )
               a(2) = (  -1.500000   2.598076   0.000000 )
               a(3) = (   0.000000   0.000000   3.228717 )

     reciprocal axes: (cart. coord. in units 2 pi/alat)
               b(1) = (  1.000000  0.577350 -0.000000 )
               b(2) = (  0.000000  0.384900  0.000000 )
               b(3) = (  0.000000 -0.000000  0.309721 )

     PseudoPot. # 1 for Zn read from file:
     /home/jvc/QEspresso7.2/ZnO_database/pseudos/Zn.upf
     MD5 check sum: 7f56cabf9682ed8c977c2f7d0c5985c5
     Pseudo is Ultrasoft + core correction, Zval = 12.0
     Generated using &quot;atomic&quot; code by A. Dal Corso  v.6.2.2
     Using radial grid of 1201 points,  6 beta functions with:
                l(1) =   0
                l(2) =   0
                l(3) =   1
                l(4) =   1
                l(5) =   2
                l(6) =   2
     Q(r) pseudized with 0 coefficients

     PseudoPot. # 2 for O  read from file:
     /home/jvc/QEspresso7.2/ZnO_database/pseudos/O.upf
     MD5 check sum: 91400c9766925bcf19f520983a725ff0
     Pseudo is Ultrasoft + core correction, Zval =  6.0
     Generated using &quot;atomic&quot; code by A. Dal Corso  v.6.3MaX
     Using radial grid of 1095 points,  4 beta functions with:
                l(1) =   0
                l(2) =   0
                l(3) =   1
                l(4) =   1
     Q(r) pseudized with 0 coefficients

     atomic species   valence    mass     pseudopotential
        Zn            12.00    65.38000     Zn( 1.00)
        O              6.00    15.99900     O ( 1.00)

      2 Sym. Ops. (no inversion) found

                                    s                        frac. trans.

      isym =  1     identity

 cryst.   s( 1) = (     1          0          0      )
                  (     0          1          0      )
                  (     0          0          1      )

 cart.    s( 1) = (  1.0000000  0.0000000  0.0000000 )
                  (  0.0000000  1.0000000  0.0000000 )
                  (  0.0000000  0.0000000  1.0000000 )

      isym =  2     inv. 180 deg rotation - cart. axis [1,0,0]

 cryst.   s( 2) = (    -1          0          0      )
                  (     3          1          0      )
                  (     0          0          1      )

 cart.    s( 2) = ( -1.0000000  0.0000000  0.0000000 )
                  (  0.0000000  1.0000000  0.0000000 )
                  (  0.0000000  0.0000000  1.0000000 )

   Cartesian axes

     site n.     atom                  positions (alat units)
         1           Zn  tau(   1) = (   0.5000000   0.2886751   0.8082020  )
         2           Zn  tau(   2) = (   0.0000000   0.5773503   0.0010228  )
         3           O   tau(   3) = (   0.5000000   0.2886751   1.4201130  )
         4           O   tau(   4) = (   0.0000000   0.5773503   0.6129338  )
         5           Zn  tau(   5) = (   0.5000000   0.2886751   2.4225604  )
         6           Zn  tau(   6) = (   0.0000000   0.5773503   1.6153812  )
         7           O   tau(   7) = (   0.5000000   0.2886751   3.0344713  )
         8           O   tau(   8) = (   0.0000000   0.5773503   2.2272921  )
         9           Zn  tau(   9) = (   0.0000000   1.1547005   0.8082020  )
        10           Zn  tau(  10) = (  -0.5000000   1.4433757   0.0010228  )
        11           O   tau(  11) = (   0.0000000   1.1547005   1.4201130  )
        12           O   tau(  12) = (  -0.5000000   1.4433757   0.6129338  )
        13           Zn  tau(  13) = (   0.0000000   1.1547005   2.4225604  )
        14           Zn  tau(  14) = (  -0.5000000   1.4433757   1.6153812  )
        15           O   tau(  15) = (   0.0000000   1.1547005   3.0344713  )
        16           O   tau(  16) = (  -0.5000000   1.4433757   2.2272921  )
        17           Zn  tau(  17) = (  -0.5000000   2.0207259   0.8082020  )
        18           Zn  tau(  18) = (  -1.0000000   2.3094011   0.0010228  )
        19           O   tau(  19) = (  -0.5000000   2.0207259   1.4201130  )
        20           O   tau(  20) = (  -1.0000000   2.3094011   0.6129338  )
        21           Zn  tau(  21) = (  -0.5000000   2.0207259   2.4225604  )
        22           Zn  tau(  22) = (  -1.0000000   2.3094011   1.6153812  )
        23           O   tau(  23) = (  -0.5000000   2.0207259   3.0344713  )
        24           O   tau(  24) = (  -1.0000000   2.3094011   2.2272921  )

   Crystallographic axes

     site n.     atom                  positions (cryst. coord.)
         1           Zn  tau(   1) = (  0.6666667  0.1111111  0.2503168  )
         2           Zn  tau(   2) = (  0.3333333  0.2222222  0.0003168  )
         3           O   tau(   3) = (  0.6666667  0.1111111  0.4398382  )
         4           O   tau(   4) = (  0.3333333  0.2222222  0.1898382  )
         5           Zn  tau(   5) = (  0.6666667  0.1111111  0.7503168  )
         6           Zn  tau(   6) = (  0.3333333  0.2222222  0.5003168  )
         7           O   tau(   7) = (  0.6666667  0.1111111  0.9398382  )
         8           O   tau(   8) = (  0.3333333  0.2222222  0.6898382  )
         9           Zn  tau(   9) = (  0.6666667  0.4444444  0.2503168  )
        10           Zn  tau(  10) = (  0.3333333  0.5555556  0.0003168  )
        11           O   tau(  11) = (  0.6666667  0.4444444  0.4398382  )
        12           O   tau(  12) = (  0.3333333  0.5555556  0.1898382  )
        13           Zn  tau(  13) = (  0.6666667  0.4444444  0.7503168  )
        14           Zn  tau(  14) = (  0.3333333  0.5555556  0.5003168  )
        15           O   tau(  15) = (  0.6666667  0.4444444  0.9398382  )
        16           O   tau(  16) = (  0.3333333  0.5555556  0.6898382  )
        17           Zn  tau(  17) = (  0.6666667  0.7777778  0.2503168  )
        18           Zn  tau(  18) = (  0.3333333  0.8888889  0.0003168  )
        19           O   tau(  19) = (  0.6666667  0.7777778  0.4398382  )
        20           O   tau(  20) = (  0.3333333  0.8888889  0.1898382  )
        21           Zn  tau(  21) = (  0.6666667  0.7777778  0.7503168  )
        22           Zn  tau(  22) = (  0.3333333  0.8888889  0.5003168  )
        23           O   tau(  23) = (  0.6666667  0.7777778  0.9398382  )
        24           O   tau(  24) = (  0.3333333  0.8888889  0.6898382  )

     number of k points=    13
                       cart. coord. in units 2pi/alat
        k(    1) = (   0.0000000   0.0000000   0.0000000), wk =   0.0555556
        k(    2) = (   0.0000000   0.0000000   0.1032402), wk =   0.1111111
        k(    3) = (   0.0000000  -0.1924501   0.0000000), wk =   0.0555556
        k(    4) = (   0.0000000  -0.1924501   0.1032402), wk =   0.1111111
        k(    5) = (   0.1666667   0.0962250   0.0000000), wk =   0.2222222
        k(    6) = (   0.1666667   0.0962250   0.1032402), wk =   0.2222222
        k(    7) = (   0.3333333   0.1924501   0.0000000), wk =   0.1111111
        k(    8) = (   0.3333333   0.1924501   0.1032402), wk =   0.2222222
        k(    9) = (   0.3333333  -0.0000000   0.0000000), wk =   0.1111111
        k(   10) = (   0.3333333  -0.0000000   0.1032402), wk =   0.2222222
        k(   11) = (  -0.5000000  -0.2886751   0.0000000), wk =   0.1111111
        k(   12) = (  -0.5000000  -0.2886751   0.1032402), wk =   0.2222222
        k(   13) = (  -0.1666667   0.0962250  -0.1032402), wk =   0.2222222

                       cryst. coord.
        k(    1) = (   0.0000000   0.0000000   0.0000000), wk =   0.0555556
        k(    2) = (   0.0000000   0.0000000   0.3333333), wk =   0.1111111
        k(    3) = (   0.0000000  -0.5000000   0.0000000), wk =   0.0555556
        k(    4) = (   0.0000000  -0.5000000   0.3333333), wk =   0.1111111
        k(    5) = (   0.1666667   0.0000000   0.0000000), wk =   0.2222222
        k(    6) = (   0.1666667   0.0000000   0.3333333), wk =   0.2222222
        k(    7) = (   0.3333333   0.0000000   0.0000000), wk =   0.1111111
        k(    8) = (   0.3333333   0.0000000   0.3333333), wk =   0.2222222
        k(    9) = (   0.3333333  -0.5000000   0.0000000), wk =   0.1111111
        k(   10) = (   0.3333333  -0.5000000   0.3333333), wk =   0.2222222
        k(   11) = (  -0.5000000  -0.0000000   0.0000000), wk =   0.1111111
        k(   12) = (  -0.5000000  -0.0000000   0.3333333), wk =   0.2222222
        k(   13) = (  -0.1666667   0.5000000  -0.3333333), wk =   0.2222222

     Check: negative core charge=   -0.000002

     Initial potential from superposition of free atoms

     starting charge     215.9553, renormalised to     216.0000
     Starting wfcs are  156 randomized atomic wfcs

     Self-consistent Calculation

     iteration #  1     ecut=    50.00 Ry     beta= 0.30
     Davidson diagonalization with overlap

     ethr =  1.00E-02,  avg # of iterations =  2.0

     total energy              =   -2168.87653470 Ry
     estimated scf accuracy    <       4.14486984 Ry

[...]

     c_bands:  1 eigenvalues not converged
     c_bands:  1 eigenvalues not converged
     ethr =  1.45E-07,  avg # of iterations = 15.9

[...]

     total energy              =   -2169.82132744 Ry
     estimated scf accuracy    <       0.00000001 Ry

     iteration # 30     ecut=    50.00 Ry     beta= 0.30
[...]
     1.0000   1.0000   1.0000   1.0000

[...]

          k = 0.3333-0.0000 0.1032 ( 11848 PWs)   bands (ev):

[...]

          k =-0.5000-0.2887 0.0000 ( 11826 PWs)   bands (ev):

[...]

          k =-0.1667 0.0962-0.1032 ( 11800 PWs)   bands (ev):

   -10.8203 -10.7127 -10.6015 -10.5178 -10.4120 -10.3401 -10.2995 -10.2961
   -10.2904 -10.2081 -10.1858 -10.1494   1.0368   1.0821   1.1038   1.1086
     1.1268   1.1443   1.1496   1.1781   1.1968   1.2850   1.3367   1.3763
     1.4035   1.4332   1.4425   1.4548   1.5169   1.5188   1.5221   1.5381
     1.5437   1.5573   1.5637   1.5839   1.5905   1.5969   1.6853   1.7338
     1.7418   1.7730   1.8092   1.8094   1.8904   1.9134   1.9824   2.0291
     2.3642   2.4014   2.4172   2.4440   2.4609   2.4695   2.4789   2.4884
     2.4958   2.5183   2.5393   2.5677   2.5935   2.6056   2.6172   2.6255
     2.6363   2.6724   2.6725   2.6804   2.6913   2.7501   2.8116   2.8696
     3.1154   3.2560   3.2568   3.3752   3.5916   3.6971   3.8660   3.9343
     4.2092   4.4657   4.5350   4.5551   4.6101   4.6168   4.9825   5.0817
     5.1229   5.2328   5.2751   5.3664   5.3814   5.5973   5.5975   5.6315
     5.7987   5.8448   5.8520   5.9570   6.0235   6.0905   6.1733   6.2739
     6.2838   6.4801   6.5473   6.6436

     occupation numbers
     1.0000   1.0000   1.0000   1.0000   1.0000   1.0000   1.0000   1.0000
     1.0000   1.0000   1.0000   1.0000   1.0000   1.0000   1.0000   1.0000
     1.0000   1.0000   1.0000   1.0000   1.0000   1.0000   1.0000   1.0000
     1.0000   1.0000   1.0000   1.0000   1.0000   1.0000   1.0000   1.0000
     1.0000   1.0000   1.0000   1.0000   1.0000   1.0000   1.0000   1.0000
     1.0000   1.0000   1.0000   1.0000   1.0000   1.0000   1.0000   1.0000
     1.0000   1.0000   1.0000   1.0000   1.0000   1.0000   1.0000   1.0000
     1.0000   1.0000   1.0000   1.0000   1.0000   1.0000   1.0000   1.0000
     1.0000   1.0000   1.0000   1.0000   1.0000   1.0000   1.0000   1.0000
     1.0000   1.0000   1.0000   1.0000   1.0000   1.0000   1.0000   1.0000
     1.0000   1.0000   1.0000   1.0000   1.0000   1.0000   1.0000   1.0000
     1.0000   1.0000   1.0000   1.0000   1.0000   1.0000   1.0000   1.0000
     1.0000   1.0000   1.0000   1.0000   1.0000   1.0000   1.0000   1.0000
     1.0000   1.0000   1.0000   1.0000

     highest occupied level (ev):     6.8874

!    total energy              =   -2169.82132745 Ry
     estimated scf accuracy    <          6.2E-09 Ry

     The total energy is the sum of the following terms:
     one-electron contribution =    -927.15058777 Ry
     hartree contribution      =     709.73400809 Ry
     xc contribution           =    -657.27635586 Ry
     ewald contribution        =   -1295.12839192 Ry

     convergence has been achieved in  30 iterations

     Forces acting on atoms (cartesian axes, Ry/au):

     atom    1 type  1   force =     0.00000000   -0.00000252    0.00004920
     atom    2 type  1   force =     0.00000000   -0.00001242    0.00006728
     atom    3 type  2   force =     0.00000000    0.00000011   -0.00005989
     atom    4 type  2   force =     0.00000000    0.00000007   -0.00006044
     atom    5 type  1   force =     0.00000000   -0.00000039    0.00006263
     atom    6 type  1   force =     0.00000000   -0.00000179    0.00006080
     atom    7 type  2   force =     0.00000000    0.00000007   -0.00005992
     atom    8 type  2   force =     0.00000000    0.00000047   -0.00006049
     atom    9 type  1   force =     0.00000000   -0.00000423    0.00004560
     atom   10 type  1   force =     0.00000000   -0.00000032    0.00007627
     atom   11 type  2   force =     0.00000000    0.00000088   -0.00005920
     atom   12 type  2   force =     0.00000000    0.00000040   -0.00006051
     atom   13 type  1   force =     0.00000000   -0.00001003    0.00005850
     atom   14 type  1   force =     0.00000000   -0.00000871    0.00006134
     atom   15 type  2   force =     0.00000000    0.00000054   -0.00005993
     atom   16 type  2   force =     0.00000000    0.00000053   -0.00006080
     atom   17 type  1   force =     0.00000000    0.00000820    0.00004268
     atom   18 type  1   force =     0.00000000    0.00000685    0.00007013
     atom   19 type  2   force =     0.00000000   -0.00000017   -0.00005923
     atom   20 type  2   force =     0.00000000    0.00000031   -0.00006065
     atom   21 type  1   force =     0.00000000    0.00001139    0.00006870
     atom   22 type  1   force =     0.00000000    0.00001086    0.00005901
     atom   23 type  2   force =     0.00000000   -0.00000016   -0.00006037
     atom   24 type  2   force =     0.00000000    0.00000006   -0.00006071
     The non-local contrib.  to forces
     atom    1 type  1   force =     0.00000000   -0.00000111   -0.00483996
     atom    2 type  1   force =     0.00000000   -0.00000586   -0.00482834
     atom    3 type  2   force =     0.00000000   -0.00000230    0.00575904
     atom    4 type  2   force =     0.00000000    0.00000271    0.00575368
     atom    5 type  1   force =     0.00000000   -0.00000021   -0.00483173
     atom    6 type  1   force =     0.00000000   -0.00000106   -0.00483540
     atom    7 type  2   force =     0.00000000    0.00000096    0.00575361
     atom    8 type  2   force =     0.00000000    0.00000206    0.00575334
     atom    9 type  1   force =     0.00000000   -0.00000264   -0.00483931
     atom   10 type  1   force =     0.00000000   -0.00000011   -0.00482455
     atom   11 type  2   force =     0.00000000    0.00000571    0.00575904
     atom   12 type  2   force =     0.00000000   -0.00000024    0.00575479
     atom   13 type  1   force =     0.00000000   -0.00000517   -0.00483420
     atom   14 type  1   force =     0.00000000   -0.00000589   -0.00483470
     atom   15 type  2   force =     0.00000000    0.00000267    0.00575281
     atom   16 type  2   force =     0.00000000    0.00000250    0.00575171
     atom   17 type  1   force =     0.00000000    0.00000455   -0.00484226
     atom   18 type  1   force =     0.00000000    0.00000411   -0.00482708
     atom   19 type  2   force =     0.00000000   -0.00000298    0.00576136
     atom   20 type  2   force =     0.00000000   -0.00000293    0.00575525
     atom   21 type  1   force =     0.00000000    0.00000686   -0.00482774
     atom   22 type  1   force =     0.00000000    0.00000590   -0.00483769
     atom   23 type  2   force =     0.00000000   -0.00000531    0.00575031
     atom   24 type  2   force =     0.00000000   -0.00000535    0.00574936
     The ionic contribution  to forces
     atom    1 type  1   force =     0.00000000    0.00000001    0.06271747
     atom    2 type  1   force =    -0.00000000    0.00000001    0.06271747
     atom    3 type  2   force =     0.00000000    0.00000000   -0.06271747
     atom    4 type  2   force =    -0.00000000    0.00000001   -0.06271747
     atom    5 type  1   force =     0.00000000    0.00000001    0.06271747
     atom    6 type  1   force =    -0.00000000    0.00000001    0.06271747
     atom    7 type  2   force =     0.00000000    0.00000000   -0.06271747
     atom    8 type  2   force =    -0.00000000    0.00000001   -0.06271747
     atom    9 type  1   force =    -0.00000001    0.00000001    0.06271747
     atom   10 type  1   force =     0.00000001   -0.00000001    0.06271747
     atom   11 type  2   force =    -0.00000000    0.00000000   -0.06271747
     atom   12 type  2   force =     0.00000000   -0.00000000   -0.06271747
     atom   13 type  1   force =    -0.00000001    0.00000001    0.06271747
     atom   14 type  1   force =     0.00000001   -0.00000001    0.06271747
     atom   15 type  2   force =    -0.00000000    0.00000000   -0.06271747
     atom   16 type  2   force =     0.00000000   -0.00000000   -0.06271747
     atom   17 type  1   force =     0.00000000   -0.00000001    0.06271747
     atom   18 type  1   force =    -0.00000000   -0.00000001    0.06271747
     atom   19 type  2   force =     0.00000000   -0.00000001   -0.06271747
     atom   20 type  2   force =    -0.00000000   -0.00000000   -0.06271747
     atom   21 type  1   force =     0.00000000   -0.00000001    0.06271747
     atom   22 type  1   force =    -0.00000000   -0.00000001    0.06271747
     atom   23 type  2   force =     0.00000000   -0.00000001   -0.06271747
     atom   24 type  2   force =    -0.00000000   -0.00000000   -0.06271747
     The local contribution  to forces
     atom    1 type  1   force =    -0.00000004    0.00000392   -0.05826768
     atom    2 type  1   force =     0.00000000    0.00001887   -0.05830384
     atom    3 type  2   force =    -0.00000001   -0.00000361    0.05696060
     atom    4 type  2   force =     0.00000000    0.00000291    0.05696815
     atom    5 type  1   force =    -0.00000004   -0.00000216   -0.05829002
     atom    6 type  1   force =     0.00000000    0.00000456   -0.05828776
     atom    7 type  2   force =    -0.00000001    0.00000302    0.05695916
     atom    8 type  2   force =     0.00000000    0.00000280    0.05695516
     atom    9 type  1   force =    -0.00000009    0.00000752   -0.05826577
     atom   10 type  1   force =     0.00000009   -0.00000366   -0.05831441
     atom   11 type  2   force =    -0.00000002    0.00000374    0.05695868
     atom   12 type  2   force =     0.00000002    0.00000215    0.05696999
     atom   13 type  1   force =    -0.00000009    0.00001640   -0.05828058
     atom   14 type  1   force =     0.00000009    0.00001385   -0.05828675
     atom   15 type  2   force =    -0.00000002    0.00000174    0.05695975
     atom   16 type  2   force =     0.00000002    0.00000508    0.05695813
     atom   17 type  1   force =    -0.00000000   -0.00001229   -0.05825837
     atom   18 type  1   force =     0.00000004   -0.00001135   -0.05830674
     atom   19 type  2   force =    -0.00000000   -0.00000560    0.05696012
     atom   20 type  2   force =     0.00000001   -0.00000574    0.05697067
     atom   21 type  1   force =    -0.00000000   -0.00001526   -0.05829959
     atom   22 type  1   force =     0.00000004   -0.00001709   -0.05828140
     atom   23 type  2   force =    -0.00000000   -0.00000423    0.05696144
     atom   24 type  2   force =     0.00000001   -0.00000572    0.05695176
     The core correction contribution to forces
     atom    1 type  1   force =    -0.00000001   -0.00000006    0.00046373
     atom    2 type  1   force =    -0.00000000   -0.00000030    0.00046450
     atom    3 type  2   force =     0.00000000    0.00000002   -0.00006511
     atom    4 type  2   force =    -0.00000000   -0.00000003   -0.00006502
     atom    5 type  1   force =    -0.00000001    0.00000028    0.00046399
     atom    6 type  1   force =    -0.00000000   -0.00000017    0.00046434
     atom    7 type  2   force =     0.00000000   -0.00000001   -0.00006504
     atom    8 type  2   force =    -0.00000000   -0.00000002   -0.00006505
     atom    9 type  1   force =    -0.00000001   -0.00000009    0.00046367
     atom   10 type  1   force =     0.00000001    0.00000031    0.00046452
     atom   11 type  2   force =     0.00000000   -0.00000007   -0.00006512
     atom   12 type  2   force =    -0.00000000    0.00000001   -0.00006504
     atom   13 type  1   force =    -0.00000001   -0.00000026    0.00046372
     atom   14 type  1   force =     0.00000001   -0.00000001    0.00046414
     atom   15 type  2   force =     0.00000000   -0.00000003   -0.00006502
     atom   16 type  2   force =    -0.00000000   -0.00000003   -0.00006502
     atom   17 type  1   force =     0.00000000    0.00000011    0.00046348
     atom   18 type  1   force =     0.00000001    0.00000014    0.00046450
     atom   19 type  2   force =     0.00000000    0.00000003   -0.00006514
     atom   20 type  2   force =    -0.00000000    0.00000002   -0.00006504
     atom   21 type  1   force =     0.00000000   -0.00000004    0.00046402
     atom   22 type  1   force =     0.00000001    0.00000022    0.00046420
     atom   23 type  2   force =     0.00000000    0.00000006   -0.00006499
     atom   24 type  2   force =    -0.00000000    0.00000006   -0.00006501
     The Hubbard contrib.    to forces
     atom    1 type  1   force =     0.00000000    0.00000000    0.00000000
     atom    2 type  1   force =     0.00000000    0.00000000    0.00000000
     atom    3 type  2   force =     0.00000000    0.00000000    0.00000000
     atom    4 type  2   force =     0.00000000    0.00000000    0.00000000
     atom    5 type  1   force =     0.00000000    0.00000000    0.00000000
     atom    6 type  1   force =     0.00000000    0.00000000    0.00000000
     atom    7 type  2   force =     0.00000000    0.00000000    0.00000000
     atom    8 type  2   force =     0.00000000    0.00000000    0.00000000
     atom    9 type  1   force =     0.00000000    0.00000000    0.00000000
     atom   10 type  1   force =     0.00000000    0.00000000    0.00000000
     atom   11 type  2   force =     0.00000000    0.00000000    0.00000000
     atom   12 type  2   force =     0.00000000    0.00000000    0.00000000
     atom   13 type  1   force =     0.00000000    0.00000000    0.00000000
     atom   14 type  1   force =     0.00000000    0.00000000    0.00000000
     atom   15 type  2   force =     0.00000000    0.00000000    0.00000000
     atom   16 type  2   force =     0.00000000    0.00000000    0.00000000
     atom   17 type  1   force =     0.00000000    0.00000000    0.00000000
     atom   18 type  1   force =     0.00000000    0.00000000    0.00000000
     atom   19 type  2   force =     0.00000000    0.00000000    0.00000000
     atom   20 type  2   force =     0.00000000    0.00000000    0.00000000
     atom   21 type  1   force =     0.00000000    0.00000000    0.00000000
     atom   22 type  1   force =     0.00000000    0.00000000    0.00000000
     atom   23 type  2   force =     0.00000000    0.00000000    0.00000000
     atom   24 type  2   force =     0.00000000    0.00000000    0.00000000
     The SCF correction term to forces
     atom    1 type  1   force =     0.00000000   -0.00000558   -0.00002707
     atom    2 type  1   force =    -0.00000000   -0.00002545    0.00001479
     atom    3 type  2   force =    -0.00000000    0.00000569    0.00000036
     atom    4 type  2   force =    -0.00000000   -0.00000584   -0.00000247
     atom    5 type  1   force =     0.00000000    0.00000138    0.00000023
     atom    6 type  1   force =     0.00000000   -0.00000544   -0.00000054
     atom    7 type  2   force =    -0.00000000   -0.00000422    0.00000713
     atom    8 type  2   force =    -0.00000000   -0.00000470    0.00001084
     atom    9 type  1   force =     0.00000000   -0.00000935   -0.00003315
     atom   10 type  1   force =    -0.00000000    0.00000283    0.00003054
     atom   11 type  2   force =    -0.00000000   -0.00000881    0.00000296
     atom   12 type  2   force =     0.00000000   -0.00000182   -0.00000548
     atom   13 type  1   force =     0.00000000   -0.00002132   -0.00001060
     atom   14 type  1   force =    -0.00000000   -0.00001696   -0.00000152
     atom   15 type  2   force =     0.00000000   -0.00000416    0.00000730
     atom   16 type  2   force =     0.00000000   -0.00000734    0.00000915
     atom   17 type  1   force =    -0.00000000    0.00001554   -0.00004034
     atom   18 type  1   force =    -0.00000000    0.00001365    0.00001928
     atom   19 type  2   force =     0.00000000    0.00000809   -0.00000079
     atom   20 type  2   force =     0.00000000    0.00000865   -0.00000676
     atom   21 type  1   force =    -0.00000000    0.00001953    0.00001184
     atom   22 type  1   force =    -0.00000000    0.00002152   -0.00000627
     atom   23 type  2   force =     0.00000000    0.00000902    0.00000765
     atom   24 type  2   force =     0.00000000    0.00001077    0.00001796

     Total force =     0.000298     Total SCF correction =     0.000097
     SCF correction compared to forces is large: reduce conv_thr to get better values

     General routines

     Parallel routines

   This run was terminated on:  21:34: 5  19Jul2025

   JOB DONE.
Note: The following floating-point exceptions are signalling: IEEE_INVALID_FLAG
Note: The following floating-point exceptions are signalling: IEEE_INVALID_FLAG
Note: The following floating-point exceptions are signalling: IEEE_INVALID_FLAG
Note: The following floating-point exceptions are signalling: IEEE_INVALID_FLAG
Note: The following floating-point exceptions are signalling: IEEE_INVALID_FLAG
Note: The following floating-point exceptions are signalling: IEEE_INVALID_FLAG
Note: The following floating-point exceptions are signalling: IEEE_INVALID_FLAG
Note: The following floating-point exceptions are signalling: IEEE_INVALID_FLAG