     Program PWSCF v.7.2 starts on 20Jul2025 at  2:10:10

     Reading input from /home/jvc/QEspresso7.2/ZnO_database/scripts/cell132.in/ZnO-3.34-1.74-132.in
Warning: card &CELL ignored
Warning: card / ignored
Warning: card &FCP ignored
Warning: card / ignored
Warning: card &RISM ignored
Warning: card / ignored

     Current dimensions of program PWSCF are:
     Max number of different atomic species (ntypx) = 10
     Max number of k-points (npk) =  40000
     Max angular momentum in pseudopotentials (lmaxx) =  4
     file Zn.upf: wavefunction(s)  3D renormalized
     Found identity + (  0.0000  0.0000 -0.5000) symmetry
     This is a supercell, fractional translations are disabled
     Message from routine setup:
     using ibrav=0 with symmetry is DISCOURAGED, use correct ibrav instead

     K-points division:     npool     =       8
     R & G space division:  proc/nbgrp/npool/nimage =       4
     Subspace diagonalization in iterative solution of the eigenvalue problem:
     a serial algorithm will be used

     Using Slab Decomposition

     bravais-lattice index     =            0
     lattice parameter (alat)  =       6.1788  a.u.
     unit-cell volume          =    1978.7861 (a.u.)^3
     number of atoms/cell      =           24
     number of atomic types    =            2
     number of electrons       =       216.00
     number of Kohn-Sham states=          108
     kinetic-energy cutoff     =      50.0000  Ry
     charge density cutoff     =     400.0000  Ry
     scf convergence threshold =      1.0E-08
     mixing beta               =       0.3000
     number of iterations used =            8  plain     mixing
     Exchange-correlation= PBE
                           (   1   4   3   4   0   0   0)

     celldm(1)=   6.178822  celldm(2)=   0.000000  celldm(3)=   0.000000
     celldm(4)=   0.000000  celldm(5)=   0.000000  celldm(6)=   0.000000

     crystal axes: (cart. coord. in units of alat)
               a(1) = (   1.000000   0.000000   0.000000 )
               a(2) = (  -1.500000   2.598076   0.000000 )
               a(3) = (   0.000000   0.000000   3.228717 )

     reciprocal axes: (cart. coord. in units 2 pi/alat)
               b(1) = (  1.000000  0.577350 -0.000000 )
               b(2) = (  0.000000  0.384900  0.000000 )
               b(3) = (  0.000000 -0.000000  0.309721 )

     PseudoPot. # 1 for Zn read from file:
     /home/jvc/QEspresso7.2/ZnO_database/pseudos/Zn.upf
     MD5 check sum: 7f56cabf9682ed8c977c2f7d0c5985c5
     Pseudo is Ultrasoft + core correction, Zval = 12.0
     Generated using &quot;atomic&quot; code by A. Dal Corso  v.6.2.2
     Using radial grid of 1201 points,  6 beta functions with:
                l(1) =   0
                l(2) =   0
                l(3) =   1
                l(4) =   1
                l(5) =   2
                l(6) =   2
     Q(r) pseudized with 0 coefficients

     PseudoPot. # 2 for O  read from file:
     /home/jvc/QEspresso7.2/ZnO_database/pseudos/O.upf
     MD5 check sum: 91400c9766925bcf19f520983a725ff0
     Pseudo is Ultrasoft + core correction, Zval =  6.0
     Generated using &quot;atomic&quot; code by A. Dal Corso  v.6.3MaX
     Using radial grid of 1095 points,  4 beta functions with:
                l(1) =   0
                l(2) =   0
                l(3) =   1
                l(4) =   1
     Q(r) pseudized with 0 coefficients

     atomic species   valence    mass     pseudopotential
        Zn            12.00    65.38000     Zn( 1.00)
        O              6.00    15.99900     O ( 1.00)

      2 Sym. Ops. (no inversion) found

                                    s                        frac. trans.

      isym =  1     identity

 cryst.   s( 1) = (     1          0          0      )
                  (     0          1          0      )
                  (     0          0          1      )

 cart.    s( 1) = (  1.0000000  0.0000000  0.0000000 )
                  (  0.0000000  1.0000000  0.0000000 )
                  (  0.0000000  0.0000000  1.0000000 )

      isym =  2     inv. 180 deg rotation - cart. axis [1,0,0]

 cryst.   s( 2) = (    -1          0          0      )
                  (     3          1          0      )
                  (     0          0          1      )

 cart.    s( 2) = ( -1.0000000  0.0000000  0.0000000 )
                  (  0.0000000  1.0000000  0.0000000 )
                  (  0.0000000  0.0000000  1.0000000 )

   Cartesian axes

     site n.     atom                  positions (alat units)
         1           Zn  tau(   1) = (   0.5000000   0.2886751   0.8082020  )
         2           Zn  tau(   2) = (   0.0000000   0.5773503   0.0010228  )
         3           O   tau(   3) = (   0.5000000   0.2886751   1.4201130  )
         4           O   tau(   4) = (   0.0000000   0.5773503   0.6129338  )
         5           Zn  tau(   5) = (   0.5000000   0.2886751   2.4225604  )
         6           Zn  tau(   6) = (   0.0000000   0.5773503   1.6153812  )
         7           O   tau(   7) = (   0.5000000   0.2886751   3.0344713  )
         8           O   tau(   8) = (   0.0000000   0.5773503   2.2272921  )
         9           Zn  tau(   9) = (   0.0000000   1.1547005   0.8082020  )
        10           Zn  tau(  10) = (  -0.5000000   1.4433757   0.0010228  )
        11           O   tau(  11) = (   0.0000000   1.1547005   1.4201130  )
        12           O   tau(  12) = (  -0.5000000   1.4433757   0.6129338  )
        13           Zn  tau(  13) = (   0.0000000   1.1547005   2.4225604  )
        14           Zn  tau(  14) = (  -0.5000000   1.4433757   1.6153812  )
        15           O   tau(  15) = (   0.0000000   1.1547005   3.0344713  )
        16           O   tau(  16) = (  -0.5000000   1.4433757   2.2272921  )
        17           Zn  tau(  17) = (  -0.5000000   2.0207259   0.8082020  )
        18           Zn  tau(  18) = (  -1.0000000   2.3094011   0.0010228  )
        19           O   tau(  19) = (  -0.5000000   2.0207259   1.4201130  )
        20           O   tau(  20) = (  -1.0000000   2.3094011   0.6129338  )
        21           Zn  tau(  21) = (  -0.5000000   2.0207259   2.4225604  )
        22           Zn  tau(  22) = (  -1.0000000   2.3094011   1.6153812  )
        23           O   tau(  23) = (  -0.5000000   2.0207259   3.0344713  )
        24           O   tau(  24) = (  -1.0000000   2.3094011   2.2272921  )

   Crystallographic axes

     site n.     atom                  positions (cryst. coord.)
         1           Zn  tau(   1) = (  0.6666667  0.1111111  0.2503168  )
         2           Zn  tau(   2) = (  0.3333333  0.2222222  0.0003168  )
         3           O   tau(   3) = (  0.6666667  0.1111111  0.4398382  )
         4           O   tau(   4) = (  0.3333333  0.2222222  0.1898382  )
         5           Zn  tau(   5) = (  0.6666667  0.1111111  0.7503168  )
         6           Zn  tau(   6) = (  0.3333333  0.2222222  0.5003168  )
         7           O   tau(   7) = (  0.6666667  0.1111111  0.9398382  )
         8           O   tau(   8) = (  0.3333333  0.2222222  0.6898382  )
         9           Zn  tau(   9) = (  0.6666667  0.4444444  0.2503168  )
        10           Zn  tau(  10) = (  0.3333333  0.5555556  0.0003168  )
        11           O   tau(  11) = (  0.6666667  0.4444444  0.4398382  )
        12           O   tau(  12) = (  0.3333333  0.5555556  0.1898382  )
        13           Zn  tau(  13) = (  0.6666667  0.4444444  0.7503168  )
        14           Zn  tau(  14) = (  0.3333333  0.5555556  0.5003168  )
        15           O   tau(  15) = (  0.6666667  0.4444444  0.9398382  )
        16           O   tau(  16) = (  0.3333333  0.5555556  0.6898382  )
        17           Zn  tau(  17) = (  0.6666667  0.7777778  0.2503168  )
        18           Zn  tau(  18) = (  0.3333333  0.8888889  0.0003168  )
        19           O   tau(  19) = (  0.6666667  0.7777778  0.4398382  )
        20           O   tau(  20) = (  0.3333333  0.8888889  0.1898382  )
        21           Zn  tau(  21) = (  0.6666667  0.7777778  0.7503168  )
        22           Zn  tau(  22) = (  0.3333333  0.8888889  0.5003168  )
        23           O   tau(  23) = (  0.6666667  0.7777778  0.9398382  )
        24           O   tau(  24) = (  0.3333333  0.8888889  0.6898382  )

     number of k points=    13
                       cart. coord. in units 2pi/alat
        k(    1) = (   0.0000000   0.0000000   0.0000000), wk =   0.0555556
        k(    2) = (   0.0000000   0.0000000   0.1032402), wk =   0.1111111
        k(    3) = (   0.0000000  -0.1924501   0.0000000), wk =   0.0555556
        k(    4) = (   0.0000000  -0.1924501   0.1032402), wk =   0.1111111
        k(    5) = (   0.1666667   0.0962250   0.0000000), wk =   0.2222222
        k(    6) = (   0.1666667   0.0962250   0.1032402), wk =   0.2222222
        k(    7) = (   0.3333333   0.1924501   0.0000000), wk =   0.1111111
        k(    8) = (   0.3333333   0.1924501   0.1032402), wk =   0.2222222
        k(    9) = (   0.3333333  -0.0000000   0.0000000), wk =   0.1111111
        k(   10) = (   0.3333333  -0.0000000   0.1032402), wk =   0.2222222
        k(   11) = (  -0.5000000  -0.2886751   0.0000000), wk =   0.1111111
        k(   12) = (  -0.5000000  -0.2886751   0.1032402), wk =   0.2222222
        k(   13) = (  -0.1666667   0.0962250  -0.1032402), wk =   0.2222222

                       cryst. coord.
        k(    1) = (   0.0000000   0.0000000   0.0000000), wk =   0.0555556
        k(    2) = (   0.0000000   0.0000000   0.3333333), wk =   0.1111111
        k(    3) = (   0.0000000  -0.5000000   0.0000000), wk =   0.0555556
        k(    4) = (   0.0000000  -0.5000000   0.3333333), wk =   0.1111111
        k(    5) = (   0.1666667   0.0000000   0.0000000), wk =   0.2222222
        k(    6) = (   0.1666667   0.0000000   0.3333333), wk =   0.2222222
        k(    7) = (   0.3333333   0.0000000   0.0000000), wk =   0.1111111
        k(    8) = (   0.3333333   0.0000000   0.3333333), wk =   0.2222222
        k(    9) = (   0.3333333  -0.5000000   0.0000000), wk =   0.1111111
        k(   10) = (   0.3333333  -0.5000000   0.3333333), wk =   0.2222222
        k(   11) = (  -0.5000000  -0.0000000   0.0000000), wk =   0.1111111
        k(   12) = (  -0.5000000  -0.0000000   0.3333333), wk =   0.2222222
        k(   13) = (  -0.1666667   0.5000000  -0.3333333), wk =   0.2222222

     Check: negative core charge=   -0.000002

     Initial potential from superposition of free atoms

     starting charge     215.9553, renormalised to     216.0000
     Starting wfcs are  156 randomized atomic wfcs

     Self-consistent Calculation

     iteration #  1     ecut=    50.00 Ry     beta= 0.30
     Davidson diagonalization with overlap

     ethr =  1.00E-02,  avg # of iterations =  2.0

     total energy              =   -2168.87653470 Ry
     estimated scf accuracy    <       4.14486984 Ry

[...]

     c_bands:  1 eigenvalues not converged
     c_bands:  1 eigenvalues not converged
     ethr =  1.45E-07,  avg # of iterations = 15.9

[...]

     total energy              =   -2169.82132745 Ry
     estimated scf accuracy    <       0.00000002 Ry

     iteration # 33     ecut=    50.00 Ry     beta= 0.30
[...]
     1.0000   1.0000   1.0000   1.0000

[...]

          k = 0.3333-0.0000 0.1032 ( 11848 PWs)   bands (ev):

[...]

          k =-0.5000-0.2887 0.0000 ( 11826 PWs)   bands (ev):

[...]

          k =-0.1667 0.0962-0.1032 ( 11800 PWs)   bands (ev):

   -10.8203 -10.7128 -10.6016 -10.5179 -10.4121 -10.3402 -10.2996 -10.2962
   -10.2905 -10.2082 -10.1859 -10.1495   1.0368   1.0820   1.1038   1.1086
     1.1268   1.1443   1.1496   1.1780   1.1968   1.2850   1.3367   1.3762
     1.4035   1.4331   1.4425   1.4548   1.5169   1.5188   1.5221   1.5381
     1.5437   1.5573   1.5637   1.5839   1.5905   1.5969   1.6853   1.7338
     1.7417   1.7730   1.8092   1.8094   1.8904   1.9133   1.9824   2.0290
     2.3643   2.4014   2.4172   2.4440   2.4609   2.4695   2.4789   2.4884
     2.4958   2.5183   2.5393   2.5677   2.5935   2.6056   2.6172   2.6256
     2.6364   2.6725   2.6725   2.6804   2.6913   2.7501   2.8116   2.8696
     3.1154   3.2560   3.2568   3.3752   3.5916   3.6971   3.8659   3.9343
     4.2091   4.4657   4.5350   4.5551   4.6101   4.6168   4.9825   5.0817
     5.1229   5.2328   5.2750   5.3664   5.3813   5.5972   5.5974   5.6314
     5.7986   5.8447   5.8520   5.9570   6.0234   6.0904   6.1732   6.2738
     6.2837   6.4800   6.5472   6.6436

     occupation numbers
     1.0000   1.0000   1.0000   1.0000   1.0000   1.0000   1.0000   1.0000
     1.0000   1.0000   1.0000   1.0000   1.0000   1.0000   1.0000   1.0000
     1.0000   1.0000   1.0000   1.0000   1.0000   1.0000   1.0000   1.0000
     1.0000   1.0000   1.0000   1.0000   1.0000   1.0000   1.0000   1.0000
     1.0000   1.0000   1.0000   1.0000   1.0000   1.0000   1.0000   1.0000
     1.0000   1.0000   1.0000   1.0000   1.0000   1.0000   1.0000   1.0000
     1.0000   1.0000   1.0000   1.0000   1.0000   1.0000   1.0000   1.0000
     1.0000   1.0000   1.0000   1.0000   1.0000   1.0000   1.0000   1.0000
     1.0000   1.0000   1.0000   1.0000   1.0000   1.0000   1.0000   1.0000
     1.0000   1.0000   1.0000   1.0000   1.0000   1.0000   1.0000   1.0000
     1.0000   1.0000   1.0000   1.0000   1.0000   1.0000   1.0000   1.0000
     1.0000   1.0000   1.0000   1.0000   1.0000   1.0000   1.0000   1.0000
     1.0000   1.0000   1.0000   1.0000   1.0000   1.0000   1.0000   1.0000
     1.0000   1.0000   1.0000   1.0000

     highest occupied level (ev):     6.8873

!    total energy              =   -2169.82132745 Ry
     estimated scf accuracy    <          5.3E-09 Ry

     The total energy is the sum of the following terms:
     one-electron contribution =    -927.15158028 Ry
     hartree contribution      =     709.73545908 Ry
     xc contribution           =    -657.27681433 Ry
     ewald contribution        =   -1295.12839192 Ry

     convergence has been achieved in  33 iterations

     Forces acting on atoms (cartesian axes, Ry/au):

     atom    1 type  1   force =     0.00000000    0.00000246    0.00006226
     atom    2 type  1   force =     0.00000000    0.00000368    0.00005611
     atom    3 type  2   force =     0.00000000   -0.00000119   -0.00006030
     atom    4 type  2   force =     0.00000000   -0.00000027   -0.00006383
     atom    5 type  1   force =     0.00000000   -0.00000060    0.00006204
     atom    6 type  1   force =     0.00000000    0.00000140    0.00006474
     atom    7 type  2   force =     0.00000000   -0.00000117   -0.00006021
     atom    8 type  2   force =     0.00000000    0.00000007   -0.00006055
     atom    9 type  1   force =     0.00000000   -0.00000010    0.00006212
     atom   10 type  1   force =     0.00000000   -0.00000376    0.00005631
     atom   11 type  2   force =     0.00000000   -0.00000136   -0.00006133
     atom   12 type  2   force =     0.00000000    0.00000038   -0.00006455
     atom   13 type  1   force =     0.00000000    0.00000054    0.00006340
     atom   14 type  1   force =     0.00000000    0.00000054    0.00006457
     atom   15 type  2   force =     0.00000000   -0.00000026   -0.00006068
     atom   16 type  2   force =     0.00000000   -0.00000078   -0.00006058
     atom   17 type  1   force =     0.00000000   -0.00000112    0.00006273
     atom   18 type  1   force =     0.00000000   -0.00000254    0.00005547
     atom   19 type  2   force =     0.00000000    0.00000155   -0.00006187
     atom   20 type  2   force =     0.00000000    0.00000110   -0.00006451
     atom   21 type  1   force =     0.00000000    0.00000027    0.00006112
     atom   22 type  1   force =     0.00000000   -0.00000208    0.00006790
     atom   23 type  2   force =     0.00000000    0.00000099   -0.00006108
     atom   24 type  2   force =     0.00000000    0.00000222   -0.00005927
     The non-local contrib.  to forces
     atom    1 type  1   force =     0.00000000    0.00000254   -0.00482956
     atom    2 type  1   force =     0.00000000    0.00000645   -0.00483812
     atom    3 type  2   force =     0.00000000   -0.00000146    0.00575198
     atom    4 type  2   force =     0.00000000   -0.00000091    0.00575348
     atom    5 type  1   force =     0.00000000    0.00000049   -0.00483237
     atom    6 type  1   force =     0.00000000    0.00000281   -0.00483091
     atom    7 type  2   force =     0.00000000   -0.00000097    0.00575633
     atom    8 type  2   force =     0.00000000   -0.00000009    0.00575309
     atom    9 type  1   force =     0.00000000    0.00000115   -0.00483027
     atom   10 type  1   force =     0.00000000   -0.00000337   -0.00483877
     atom   11 type  2   force =     0.00000000   -0.00000032    0.00575230
     atom   12 type  2   force =     0.00000000    0.00000120    0.00575323
     atom   13 type  1   force =     0.00000000    0.00000248   -0.00483027
     atom   14 type  1   force =     0.00000000    0.00000165   -0.00483075
     atom   15 type  2   force =     0.00000000   -0.00000048    0.00575591
     atom   16 type  2   force =     0.00000000   -0.00000031    0.00575192
     atom   17 type  1   force =     0.00000000   -0.00000213   -0.00482850
     atom   18 type  1   force =     0.00000000   -0.00000323   -0.00483806
     atom   19 type  2   force =     0.00000000    0.00000069    0.00575097
     atom   20 type  2   force =     0.00000000    0.00000015    0.00575273
     atom   21 type  1   force =     0.00000000   -0.00000250   -0.00483483
     atom   22 type  1   force =     0.00000000   -0.00000451   -0.00482820
     atom   23 type  2   force =     0.00000000   -0.00000029    0.00575631
     atom   24 type  2   force =     0.00000000    0.00000029    0.00575249
     The ionic contribution  to forces
     atom    1 type  1   force =     0.00000000    0.00000001    0.06271747
     atom    2 type  1   force =    -0.00000000    0.00000001    0.06271747
     atom    3 type  2   force =     0.00000000    0.00000000   -0.06271747
     atom    4 type  2   force =    -0.00000000    0.00000001   -0.06271747
     atom    5 type  1   force =     0.00000000    0.00000001    0.06271747
     atom    6 type  1   force =    -0.00000000    0.00000001    0.06271747
     atom    7 type  2   force =     0.00000000    0.00000000   -0.06271747
     atom    8 type  2   force =    -0.00000000    0.00000001   -0.06271747
     atom    9 type  1   force =    -0.00000001    0.00000001    0.06271747
     atom   10 type  1   force =     0.00000001   -0.00000001    0.06271747
     atom   11 type  2   force =    -0.00000000    0.00000000   -0.06271747
     atom   12 type  2   force =     0.00000000   -0.00000000   -0.06271747
     atom   13 type  1   force =    -0.00000001    0.00000001    0.06271747
     atom   14 type  1   force =     0.00000001   -0.00000001    0.06271747
     atom   15 type  2   force =    -0.00000000    0.00000000   -0.06271747
     atom   16 type  2   force =     0.00000000   -0.00000000   -0.06271747
     atom   17 type  1   force =     0.00000000   -0.00000001    0.06271747
     atom   18 type  1   force =    -0.00000000   -0.00000001    0.06271747
     atom   19 type  2   force =     0.00000000   -0.00000001   -0.06271747
     atom   20 type  2   force =    -0.00000000   -0.00000000   -0.06271747
     atom   21 type  1   force =     0.00000000   -0.00000001    0.06271747
     atom   22 type  1   force =    -0.00000000   -0.00000001    0.06271747
     atom   23 type  2   force =     0.00000000   -0.00000001   -0.06271747
     atom   24 type  2   force =    -0.00000000   -0.00000000   -0.06271747
     The local contribution  to forces
     atom    1 type  1   force =    -0.00000004   -0.00000563   -0.05829518
     atom    2 type  1   force =     0.00000000   -0.00001317   -0.05827557
     atom    3 type  2   force =    -0.00000001   -0.00000210    0.05696291
     atom    4 type  2   force =     0.00000000   -0.00000168    0.05696110
     atom    5 type  1   force =    -0.00000004    0.00000133   -0.05828936
     atom    6 type  1   force =     0.00000000   -0.00000608   -0.05829252
     atom    7 type  2   force =    -0.00000001   -0.00000330    0.05696679
     atom    8 type  2   force =     0.00000000   -0.00000009    0.05696365
     atom    9 type  1   force =    -0.00000009   -0.00000186   -0.05829422
     atom   10 type  1   force =     0.00000009    0.00000844   -0.05827409
     atom   11 type  2   force =    -0.00000002   -0.00000266    0.05696157
     atom   12 type  2   force =     0.00000002    0.00000164    0.05696083
     atom   13 type  1   force =    -0.00000009   -0.00000491   -0.05829526
     atom   14 type  1   force =     0.00000009   -0.00000237   -0.05829320
     atom   15 type  2   force =    -0.00000002   -0.00000028    0.05696584
     atom   16 type  2   force =     0.00000002   -0.00000087    0.05696535
     atom   17 type  1   force =    -0.00000000    0.00000545   -0.05829807
     atom   18 type  1   force =     0.00000004    0.00000609   -0.05827469
     atom   19 type  2   force =    -0.00000000    0.00000229    0.05696047
     atom   20 type  2   force =     0.00000001    0.00000243    0.05696055
     atom   21 type  1   force =    -0.00000000    0.00000316   -0.05828481
     atom   22 type  1   force =     0.00000004    0.00000858   -0.05829924
     atom   23 type  2   force =    -0.00000000    0.00000317    0.05696693
     atom   24 type  2   force =     0.00000001    0.00000431    0.05696646
     The core correction contribution to forces
     atom    1 type  1   force =    -0.00000001    0.00000005    0.00046415
     atom    2 type  1   force =    -0.00000000    0.00000021    0.00046377
     atom    3 type  2   force =     0.00000000    0.00000002   -0.00006500
     atom    4 type  2   force =    -0.00000000    0.00000002   -0.00006503
     atom    5 type  1   force =    -0.00000001   -0.00000016    0.00046401
     atom    6 type  1   force =    -0.00000000    0.00000011    0.00046396
     atom    7 type  2   force =     0.00000000    0.00000001   -0.00006506
     atom    8 type  2   force =    -0.00000000    0.00000001   -0.00006502
     atom    9 type  1   force =    -0.00000001    0.00000006    0.00046421
     atom   10 type  1   force =     0.00000001   -0.00000017    0.00046370
     atom   11 type  2   force =     0.00000000   -0.00000000   -0.00006501
     atom   12 type  2   force =    -0.00000000   -0.00000001   -0.00006503
     atom   13 type  1   force =    -0.00000001    0.00000013    0.00046423
     atom   14 type  1   force =     0.00000001   -0.00000002    0.00046403
     atom   15 type  2   force =     0.00000000    0.00000000   -0.00006506
     atom   16 type  2   force =    -0.00000000    0.00000000   -0.00006500
     atom   17 type  1   force =     0.00000000   -0.00000016    0.00046429
     atom   18 type  1   force =     0.00000001    0.00000002    0.00046372
     atom   19 type  2   force =     0.00000000   -0.00000001   -0.00006499
     atom   20 type  2   force =    -0.00000000   -0.00000000   -0.00006502
     atom   21 type  1   force =     0.00000000    0.00000004    0.00046399
     atom   22 type  1   force =     0.00000001   -0.00000010    0.00046405
     atom   23 type  2   force =     0.00000000    0.00000000   -0.00006506
     atom   24 type  2   force =    -0.00000000    0.00000000   -0.00006501
     The Hubbard contrib.    to forces
     atom    1 type  1   force =     0.00000000    0.00000000    0.00000000
     atom    2 type  1   force =     0.00000000    0.00000000    0.00000000
     atom    3 type  2   force =     0.00000000    0.00000000    0.00000000
     atom    4 type  2   force =     0.00000000    0.00000000    0.00000000
     atom    5 type  1   force =     0.00000000    0.00000000    0.00000000
     atom    6 type  1   force =     0.00000000    0.00000000    0.00000000
     atom    7 type  2   force =     0.00000000    0.00000000    0.00000000
     atom    8 type  2   force =     0.00000000    0.00000000    0.00000000
     atom    9 type  1   force =     0.00000000    0.00000000    0.00000000
     atom   10 type  1   force =     0.00000000    0.00000000    0.00000000
     atom   11 type  2   force =     0.00000000    0.00000000    0.00000000
     atom   12 type  2   force =     0.00000000    0.00000000    0.00000000
     atom   13 type  1   force =     0.00000000    0.00000000    0.00000000
     atom   14 type  1   force =     0.00000000    0.00000000    0.00000000
     atom   15 type  2   force =     0.00000000    0.00000000    0.00000000
     atom   16 type  2   force =     0.00000000    0.00000000    0.00000000
     atom   17 type  1   force =     0.00000000    0.00000000    0.00000000
     atom   18 type  1   force =     0.00000000    0.00000000    0.00000000
     atom   19 type  2   force =     0.00000000    0.00000000    0.00000000
     atom   20 type  2   force =     0.00000000    0.00000000    0.00000000
     atom   21 type  1   force =     0.00000000    0.00000000    0.00000000
     atom   22 type  1   force =     0.00000000    0.00000000    0.00000000
     atom   23 type  2   force =     0.00000000    0.00000000    0.00000000
     atom   24 type  2   force =     0.00000000    0.00000000    0.00000000
     The SCF correction term to forces
     atom    1 type  1   force =     0.00000000    0.00000541    0.00000321
     atom    2 type  1   force =    -0.00000000    0.00001009   -0.00001360
     atom    3 type  2   force =     0.00000000    0.00000226    0.00000513
     atom    4 type  2   force =     0.00000000    0.00000221    0.00000194
     atom    5 type  1   force =     0.00000000   -0.00000235    0.00000013
     atom    6 type  1   force =    -0.00000000    0.00000445    0.00000458
     atom    7 type  2   force =     0.00000000    0.00000300   -0.00000296
     atom    8 type  2   force =     0.00000000    0.00000015    0.00000304
     atom    9 type  1   force =    -0.00000000    0.00000045    0.00000277
     atom   10 type  1   force =    -0.00000000   -0.00000874   -0.00001416
     atom   11 type  2   force =     0.00000000    0.00000153    0.00000511
     atom   12 type  2   force =    -0.00000000   -0.00000253    0.00000173
     atom   13 type  1   force =    -0.00000000    0.00000275    0.00000507
     atom   14 type  1   force =     0.00000000    0.00000120    0.00000486
     atom   15 type  2   force =     0.00000000    0.00000041   -0.00000206
     atom   16 type  2   force =    -0.00000000    0.00000031    0.00000246
     atom   17 type  1   force =     0.00000000   -0.00000436    0.00000538
     atom   18 type  1   force =    -0.00000000   -0.00000550   -0.00001513
     atom   19 type  2   force =    -0.00000000   -0.00000151    0.00000700
     atom   20 type  2   force =    -0.00000000   -0.00000157    0.00000254
     atom   21 type  1   force =     0.00000000   -0.00000050   -0.00000286
     atom   22 type  1   force =    -0.00000000   -0.00000613    0.00001166
     atom   23 type  2   force =    -0.00000000   -0.00000199   -0.00000394
     atom   24 type  2   force =    -0.00000000   -0.00000247    0.00000210

     Total force =     0.000302     Total SCF correction =     0.000038
     SCF correction compared to forces is large: reduce conv_thr to get better values

     General routines

     Parallel routines

   This run was terminated on:   2:14:43  20Jul2025

   JOB DONE.
Note: The following floating-point exceptions are signalling: IEEE_INVALID_FLAG
Note: The following floating-point exceptions are signalling: IEEE_INVALID_FLAG
Note: The following floating-point exceptions are signalling: IEEE_INVALID_FLAG
Note: The following floating-point exceptions are signalling: IEEE_INVALID_FLAG
Note: The following floating-point exceptions are signalling: IEEE_INVALID_FLAG
Note: The following floating-point exceptions are signalling: IEEE_INVALID_FLAG
Note: The following floating-point exceptions are signalling: IEEE_INVALID_FLAG
Note: The following floating-point exceptions are signalling: IEEE_INVALID_FLAG