     Program PWSCF v.7.2 starts on 13Jun2025 at 17:59:35

     Reading input from /home/jvc/QEspresso7.2/ZnO_database_python/SCFs.in/scf-6.36-1.58.in

     Current dimensions of program PWSCF are:
     Max number of different atomic species (ntypx) = 10
     Max number of k-points (npk) =  40000
     Max angular momentum in pseudopotentials (lmaxx) =  4
     file Zn.upf: wavefunction(s)  3D renormalized

     R & G space division:  proc/nbgrp/npool/nimage =       8
     Subspace diagonalization in iterative solution of the eigenvalue problem:
     a serial algorithm will be used

     Using Slab Decomposition

     bravais-lattice index     =            4
     lattice parameter (alat)  =       6.3642  a.u.
     unit-cell volume          =     353.1712 (a.u.)^3
     number of atoms/cell      =            4
     number of atomic types    =            2
     number of electrons       =        36.00
     number of Kohn-Sham states=           18
     kinetic-energy cutoff     =      50.0000  Ry
     charge density cutoff     =     400.0000  Ry
     scf convergence threshold =      1.0E-08
     mixing beta               =       0.3000
     number of iterations used =            8  plain     mixing
     Exchange-correlation= PBE
                           (   1   4   3   4   0   0   0)

     celldm(1)=   6.364186  celldm(2)=   0.000000  celldm(3)=   1.582071
     celldm(4)=   0.000000  celldm(5)=   0.000000  celldm(6)=   0.000000

     crystal axes: (cart. coord. in units of alat)
               a(1) = (   1.000000   0.000000   0.000000 )
               a(2) = (  -0.500000   0.866025   0.000000 )
               a(3) = (   0.000000   0.000000   1.582071 )

     reciprocal axes: (cart. coord. in units 2 pi/alat)
               b(1) = (  1.000000  0.577350 -0.000000 )
               b(2) = (  0.000000  1.154701  0.000000 )
               b(3) = (  0.000000 -0.000000  0.632083 )

     PseudoPot. # 1 for Zn read from file:
     /home/jvc/QEspresso7.2/ZnO_database/pseudos/Zn.upf
     MD5 check sum: 7f56cabf9682ed8c977c2f7d0c5985c5
     Pseudo is Ultrasoft + core correction, Zval = 12.0
     Generated using &quot;atomic&quot; code by A. Dal Corso  v.6.2.2
     Using radial grid of 1201 points,  6 beta functions with:
                l(1) =   0
                l(2) =   0
                l(3) =   1
                l(4) =   1
                l(5) =   2
                l(6) =   2
     Q(r) pseudized with 0 coefficients

     PseudoPot. # 2 for O  read from file:
     /home/jvc/QEspresso7.2/ZnO_database/pseudos/O.upf
     MD5 check sum: 91400c9766925bcf19f520983a725ff0
     Pseudo is Ultrasoft + core correction, Zval =  6.0
     Generated using &quot;atomic&quot; code by A. Dal Corso  v.6.3MaX
     Using radial grid of 1095 points,  4 beta functions with:
                l(1) =   0
                l(2) =   0
                l(3) =   1
                l(4) =   1
     Q(r) pseudized with 0 coefficients

     atomic species   valence    mass     pseudopotential
        Zn            12.00    63.38000     Zn( 1.00)
        O              6.00    15.99900     O ( 1.00)

     12 Sym. Ops. (no inversion) found ( 6 have fractional translation)

   Cartesian axes

     site n.     atom                  positions (alat units)
         1           Zn  tau(   1) = (   0.5000000   0.2886751   0.7920380  )
         2           Zn  tau(   2) = (  -0.0000000   0.5773503   0.0010024  )
         3           O   tau(   3) = (   0.5000000   0.2886751   1.3917107  )
         4           O   tau(   4) = (  -0.0000000   0.5773503   0.6006751  )

     number of k points=    28
                       cart. coord. in units 2pi/alat
        k(    1) = (   0.0000000   0.0000000   0.0000000), wk =   0.0092593
        k(    2) = (   0.0000000   0.0000000   0.1053471), wk =   0.0185185
        k(    3) = (   0.0000000   0.0000000   0.2106943), wk =   0.0185185
        k(    4) = (   0.0000000   0.0000000  -0.3160414), wk =   0.0092593
        k(    5) = (   0.0000000   0.1924501   0.0000000), wk =   0.0555556
        k(    6) = (   0.0000000   0.1924501   0.1053471), wk =   0.1111111
        k(    7) = (   0.0000000   0.1924501   0.2106943), wk =   0.1111111
        k(    8) = (   0.0000000   0.1924501  -0.3160414), wk =   0.0555556
        k(    9) = (   0.0000000   0.3849002   0.0000000), wk =   0.0555556
        k(   10) = (   0.0000000   0.3849002   0.1053471), wk =   0.1111111
        k(   11) = (   0.0000000   0.3849002   0.2106943), wk =   0.1111111
        k(   12) = (   0.0000000   0.3849002  -0.3160414), wk =   0.0555556
        k(   13) = (   0.0000000  -0.5773503   0.0000000), wk =   0.0277778
        k(   14) = (   0.0000000  -0.5773503   0.1053471), wk =   0.0555556
        k(   15) = (   0.0000000  -0.5773503   0.2106943), wk =   0.0555556
        k(   16) = (   0.0000000  -0.5773503  -0.3160414), wk =   0.0277778
        k(   17) = (   0.1666667   0.2886751   0.0000000), wk =   0.0555556
        k(   18) = (   0.1666667   0.2886751   0.1053471), wk =   0.1111111
        k(   19) = (   0.1666667   0.2886751   0.2106943), wk =   0.1111111
        k(   20) = (   0.1666667   0.2886751  -0.3160414), wk =   0.0555556
        k(   21) = (   0.1666667   0.4811252   0.0000000), wk =   0.1111111
        k(   22) = (   0.1666667   0.4811252   0.1053471), wk =   0.2222222
        k(   23) = (   0.1666667   0.4811252   0.2106943), wk =   0.2222222
        k(   24) = (   0.1666667   0.4811252  -0.3160414), wk =   0.1111111
        k(   25) = (   0.3333333   0.5773503   0.0000000), wk =   0.0185185
        k(   26) = (   0.3333333   0.5773503   0.1053471), wk =   0.0370370
        k(   27) = (   0.3333333   0.5773503   0.2106943), wk =   0.0370370
        k(   28) = (   0.3333333   0.5773503  -0.3160414), wk =   0.0185185

     Check: negative core charge=   -0.000002

     Initial potential from superposition of free atoms

     starting charge      35.9925, renormalised to      36.0000
     Starting wfcs are   26 randomized atomic wfcs

     Self-consistent Calculation

     iteration #  1     ecut=    50.00 Ry     beta= 0.30
     Davidson diagonalization with overlap
     ethr =  1.00E-02,  avg # of iterations =  1.8

     total energy              =    -361.46377502 Ry
     estimated scf accuracy    <       0.72034602 Ry

[...]

     iteration # 23     ecut=    50.00 Ry     beta= 0.30
     Davidson diagonalization with overlap
     c_bands:  2 eigenvalues not converged
     ethr =  2.68E-08,  avg # of iterations = 13.9

[...]

     iteration # 26     ecut=    50.00 Ry     beta= 0.30
     Davidson diagonalization with overlap
     c_bands:  1 eigenvalues not converged
     ethr =  1.81E-08,  avg # of iterations = 12.7

[...]

     total energy              =    -361.63163864 Ry
     estimated scf accuracy    <       0.00000001 Ry

     iteration # 36     ecut=    50.00 Ry     beta= 0.30
     Davidson diagonalization with overlap
     ethr =  3.27E-11,  avg # of iterations =  1.4

     End of self-consistent calculation

          k = 0.0000 0.0000 0.0000 (  2093 PWs)   bands (ev):

   -11.4571 -10.8449   0.6415   0.6415   0.6633   0.8150   0.8150   1.0016
     1.5473   1.5473   1.7261   1.7261   1.9608   5.1744   5.1744   5.8848
     5.9072   5.9072

[...]

          k = 0.3333 0.5774-0.3160 (  2136 PWs)   bands (ev):

   -10.7619 -10.7619   0.6634   0.6634   0.8758   0.8758   1.2767   1.2767
     1.5663   1.5663   1.9733   1.9733   2.4475   2.4475   3.5346   3.5346
     4.8969   4.8969

     highest occupied level (ev):     5.9072

!    total energy              =    -361.63163863 Ry
     estimated scf accuracy    <          7.3E-09 Ry

     The total energy is the sum of the following terms:
     one-electron contribution =    -162.41755471 Ry
     hartree contribution      =     121.13030097 Ry
     xc contribution           =    -109.41259327 Ry
     ewald contribution        =    -210.93179163 Ry

     convergence has been achieved in  36 iterations

     Forces acting on atoms (cartesian axes, Ry/au):

     atom    1 type  1   force =     0.00000000    0.00000000   -0.00412366
     atom    2 type  1   force =     0.00000000    0.00000000   -0.00412366
     atom    3 type  2   force =     0.00000000    0.00000000    0.00412366
     atom    4 type  2   force =     0.00000000    0.00000000    0.00412366
     The non-local contrib.  to forces
     atom    1 type  1   force =    -0.00000000   -0.00000000   -0.06054678
     atom    2 type  1   force =     0.00000000   -0.00000000   -0.06054678
     atom    3 type  2   force =     0.00000000    0.00000000   -0.04345440
     atom    4 type  2   force =     0.00000000   -0.00000000   -0.04345440
     The ionic contribution  to forces
     atom    1 type  1   force =    -0.00000000    0.00000000   -0.33767044
     atom    2 type  1   force =     0.00000000   -0.00000000   -0.33767044
     atom    3 type  2   force =    -0.00000000    0.00000000    0.33767044
     atom    4 type  2   force =     0.00000000   -0.00000000    0.33767044
     The local contribution  to forces
     atom    1 type  1   force =    -0.00000002    0.00000001    0.38984041
     atom    2 type  1   force =     0.00000007   -0.00000004    0.38984040
     atom    3 type  2   force =    -0.00000001    0.00000000   -0.29042922
     atom    4 type  2   force =     0.00000002   -0.00000001   -0.29042921
     The core correction contribution to forces
     atom    1 type  1   force =    -0.00000000    0.00000000    0.00425376
     atom    2 type  1   force =     0.00000001   -0.00000001    0.00425376
     atom    3 type  2   force =     0.00000000   -0.00000000    0.00033398
     atom    4 type  2   force =    -0.00000000    0.00000000    0.00033398
     The Hubbard contrib.    to forces
     atom    1 type  1   force =     0.00000000    0.00000000    0.00000000
     atom    2 type  1   force =     0.00000000    0.00000000    0.00000000
     atom    3 type  2   force =     0.00000000    0.00000000    0.00000000
     atom    4 type  2   force =     0.00000000    0.00000000    0.00000000
     The SCF correction term to forces
     atom    1 type  1   force =    -0.00000000    0.00000000   -0.00000196
     atom    2 type  1   force =     0.00000000   -0.00000000   -0.00000196
     atom    3 type  2   force =    -0.00000000    0.00000000    0.00000150
     atom    4 type  2   force =    -0.00000000    0.00000000    0.00000150

     Total force =     0.008247     Total SCF correction =     0.000003

     Computing stress (Cartesian axis) and pressure

          total   stress  (Ry/bohr**3)                   (kbar)     P=      -78.95
  -0.00061261   0.00000000   0.00000000          -90.12        0.00        0.00
   0.00000000  -0.00061261   0.00000000            0.00      -90.12        0.00
   0.00000000   0.00000000  -0.00038484            0.00        0.00      -56.61

     Writing all to output data dir ./ZnO_ANN.save/

     General routines

     Parallel routines

   This run was terminated on:  18: 0:30  13Jun2025

   JOB DONE.
Note: The following floating-point exceptions are signalling: IEEE_INVALID_FLAG