     Program PWSCF v.7.2 starts on 24Jun2025 at 17:50:42

     Reading input from /home/jvc/QEspresso7.2/ZnO_DataBase/scf_025_NOSYM.in/scf-6.30-1.65-0.25-5.in

     Current dimensions of program PWSCF are:
     Max number of different atomic species (ntypx) = 10
     Max number of k-points (npk) =  40000
     Max angular momentum in pseudopotentials (lmaxx) =  4
     file Zn.upf: wavefunction(s)  3D renormalized

     R & G space division:  proc/nbgrp/npool/nimage =       8
     Subspace diagonalization in iterative solution of the eigenvalue problem:
     a serial algorithm will be used

     Using Slab Decomposition

     bravais-lattice index     =            0
     lattice parameter (alat)  =       6.3024  a.u.
     unit-cell volume          =     346.8711 (a.u.)^3
     number of atoms/cell      =            4
     number of atomic types    =            2
     number of electrons       =        36.00
     number of Kohn-Sham states=           18
     kinetic-energy cutoff     =      50.0000  Ry
     charge density cutoff     =     400.0000  Ry
     scf convergence threshold =      1.0E-08
     mixing beta               =       0.3000
     number of iterations used =            8  plain     mixing
     Exchange-correlation= PBE
                           (   1   4   3   4   0   0   0)

     celldm(1)=   6.302398  celldm(2)=   0.000000  celldm(3)=   0.000000
     celldm(4)=   0.000000  celldm(5)=   0.000000  celldm(6)=   0.000000

     crystal axes: (cart. coord. in units of alat)
               a(1) = (   1.000000   0.000000   0.000000 )
               a(2) = (  -0.500000   0.866025   0.000000 )
               a(3) = (   0.000000   0.000000   1.600000 )

     reciprocal axes: (cart. coord. in units 2 pi/alat)
               b(1) = (  1.000000  0.577350 -0.000000 )
               b(2) = (  0.000000  1.154701  0.000000 )
               b(3) = (  0.000000 -0.000000  0.625000 )

     PseudoPot. # 1 for Zn read from file:
     ./pseudos/Zn.upf
     MD5 check sum: 7f56cabf9682ed8c977c2f7d0c5985c5
     Pseudo is Ultrasoft + core correction, Zval = 12.0
     Generated using &quot;atomic&quot; code by A. Dal Corso  v.6.2.2
     Using radial grid of 1201 points,  6 beta functions with:
                l(1) =   0
                l(2) =   0
                l(3) =   1
                l(4) =   1
                l(5) =   2
                l(6) =   2
     Q(r) pseudized with 0 coefficients

     PseudoPot. # 2 for O  read from file:
     ./pseudos/O.upf
     MD5 check sum: 91400c9766925bcf19f520983a725ff0
     Pseudo is Ultrasoft + core correction, Zval =  6.0
     Generated using &quot;atomic&quot; code by A. Dal Corso  v.6.3MaX
     Using radial grid of 1095 points,  4 beta functions with:
                l(1) =   0
                l(2) =   0
                l(3) =   1
                l(4) =   1
     Q(r) pseudized with 0 coefficients

     atomic species   valence    mass     pseudopotential
        Zn            12.00    63.38000     Zn( 1.00)
        O              6.00    15.99900     O ( 1.00)

     No symmetry found

   Cartesian axes

     site n.     atom                  positions (alat units)
         1           Zn  tau(   1) = (   0.6108089   0.3973711   0.4854034  )
         2           Zn  tau(   2) = (   0.0048829   0.5990368   0.3147573  )
         3           O   tau(   3) = (   0.2756124   0.2662695   1.8000108  )
         4           O   tau(   4) = (  -0.1491919   0.5327127   0.6891634  )

     number of k points=   112

     Number of k-points >= 100: set verbosity='high' to print them.

     Check: negative core charge=   -0.000003

     Initial potential from superposition of free atoms

     starting charge      35.9925, renormalised to      36.0000
     Starting wfcs are   26 randomized atomic wfcs

     Self-consistent Calculation

     iteration #  1     ecut=    50.00 Ry     beta= 0.30
     Davidson diagonalization with overlap
     ethr =  1.00E-02,  avg # of iterations =  3.0

     total energy              =    -358.45585413 Ry
     estimated scf accuracy    <       1.59916875 Ry

[...]

     total energy              =    -358.73309507 Ry
     estimated scf accuracy    <       0.00000027 Ry

     iteration # 26     ecut=    50.00 Ry     beta= 0.30
     Davidson diagonalization with overlap
     ethr =  2.72E-10,  avg # of iterations =  5.2

     End of self-consistent calculation

     Number of k-points >= 100: set verbosity='high' to print the bands.

     highest occupied level (ev):     7.4327

!    total energy              =    -358.73309511 Ry
     estimated scf accuracy    <          6.1E-09 Ry

     The total energy is the sum of the following terms:
     one-electron contribution =    -392.51304039 Ry
     hartree contribution      =     233.10338827 Ry
     xc contribution           =    -111.49370651 Ry
     ewald contribution        =     -87.82973650 Ry

     convergence has been achieved in  26 iterations

     Forces acting on atoms (cartesian axes, Ry/au):

     atom    1 type  1   force =    -3.34391165   -1.87499909   -1.37990951
     atom    2 type  1   force =     1.08378344    1.22798366   -1.51365541
     atom    3 type  2   force =     0.13368754   -0.64430146   -0.58205926
     atom    4 type  2   force =     2.12644067    1.29131689    3.47562418
     The non-local contrib.  to forces
     atom    1 type  1   force =     0.40218802    0.14440058   -0.38429669
     atom    2 type  1   force =    -0.51226544    0.43613762   -0.43628664
     atom    3 type  2   force =     0.48849030    0.54562764    0.64802454
     atom    4 type  2   force =    -0.41457642   -0.16565275   -1.16716148
     The ionic contribution  to forces
     atom    1 type  1   force =   -21.97981379  -13.39373318   11.01543992
     atom    2 type  1   force =    12.19584945   14.85232550  -31.65433678
     atom    3 type  2   force =    -1.21987210   -8.75506030  -24.86036838
     atom    4 type  2   force =    11.00383644    7.29646798   45.49926524
     The local contribution  to forces
     atom    1 type  1   force =    18.02446181   11.23867721  -12.12098394
     atom    2 type  1   force =   -10.55278830  -13.92762658   30.41662528
     atom    3 type  2   force =     0.86957909    7.56655520   23.63150119
     atom    4 type  2   force =    -8.45855871   -5.83592655  -40.85104341
     The core correction contribution to forces
     atom    1 type  1   force =     0.20920822    0.13559783    0.10995801
     atom    2 type  1   force =    -0.04702206   -0.13274579    0.16026224
     atom    3 type  2   force =    -0.00448063   -0.00143272   -0.00124939
     atom    4 type  2   force =    -0.00427649   -0.00358754   -0.00540311
     The Hubbard contrib.    to forces
     atom    1 type  1   force =     0.00000000    0.00000000    0.00000000
     atom    2 type  1   force =     0.00000000    0.00000000    0.00000000
     atom    3 type  2   force =     0.00000000    0.00000000    0.00000000
     atom    4 type  2   force =     0.00000000    0.00000000    0.00000000
     The SCF correction term to forces
     atom    1 type  1   force =     0.00005484    0.00005131   -0.00002377
     atom    2 type  1   force =     0.00002052   -0.00011427    0.00008355
     atom    3 type  2   force =    -0.00001837    0.00000155    0.00003584
     atom    4 type  2   force =     0.00002660    0.00000857   -0.00003000

     Total force =     6.373084     Total SCF correction =     0.000173

     Writing all to output data dir ./ZnO_ANN.save/

     General routines

     Parallel routines

   This run was terminated on:  17:54: 2  24Jun2025

   JOB DONE.
Note: The following floating-point exceptions are signalling: IEEE_INVALID_FLAG