     Program PWSCF v.7.2 starts on 24Jun2025 at 20:59: 9

     Reading input from /home/jvc/QEspresso7.2/ZnO_DataBase/scf_025_NOSYM.in/scf-6.80-1.61-0.25-5.in

     Current dimensions of program PWSCF are:
     Max number of different atomic species (ntypx) = 10
     Max number of k-points (npk) =  40000
     Max angular momentum in pseudopotentials (lmaxx) =  4
     file Zn.upf: wavefunction(s)  3D renormalized

     R & G space division:  proc/nbgrp/npool/nimage =       8
     Subspace diagonalization in iterative solution of the eigenvalue problem:
     a serial algorithm will be used

     Using Slab Decomposition

     bravais-lattice index     =            0
     lattice parameter (alat)  =       6.7967  a.u.
     unit-cell volume          =     435.0564 (a.u.)^3
     number of atoms/cell      =            4
     number of atomic types    =            2
     number of electrons       =        36.00
     number of Kohn-Sham states=           18
     kinetic-energy cutoff     =      50.0000  Ry
     charge density cutoff     =     400.0000  Ry
     scf convergence threshold =      1.0E-08
     mixing beta               =       0.3000
     number of iterations used =            8  plain     mixing
     Exchange-correlation= PBE
                           (   1   4   3   4   0   0   0)

     celldm(1)=   6.796704  celldm(2)=   0.000000  celldm(3)=   0.000000
     celldm(4)=   0.000000  celldm(5)=   0.000000  celldm(6)=   0.000000

     crystal axes: (cart. coord. in units of alat)
               a(1) = (   1.000000   0.000000   0.000000 )
               a(2) = (  -0.500000   0.866025   0.000000 )
               a(3) = (   0.000000   0.000000   1.600000 )

     reciprocal axes: (cart. coord. in units 2 pi/alat)
               b(1) = (  1.000000  0.577350 -0.000000 )
               b(2) = (  0.000000  1.154701  0.000000 )
               b(3) = (  0.000000 -0.000000  0.625000 )

     PseudoPot. # 1 for Zn read from file:
     ./pseudos/Zn.upf
     MD5 check sum: 7f56cabf9682ed8c977c2f7d0c5985c5
     Pseudo is Ultrasoft + core correction, Zval = 12.0
     Generated using &quot;atomic&quot; code by A. Dal Corso  v.6.2.2
     Using radial grid of 1201 points,  6 beta functions with:
                l(1) =   0
                l(2) =   0
                l(3) =   1
                l(4) =   1
                l(5) =   2
                l(6) =   2
     Q(r) pseudized with 0 coefficients

     PseudoPot. # 2 for O  read from file:
     ./pseudos/O.upf
     MD5 check sum: 91400c9766925bcf19f520983a725ff0
     Pseudo is Ultrasoft + core correction, Zval =  6.0
     Generated using &quot;atomic&quot; code by A. Dal Corso  v.6.3MaX
     Using radial grid of 1095 points,  4 beta functions with:
                l(1) =   0
                l(2) =   0
                l(3) =   1
                l(4) =   1
     Q(r) pseudized with 0 coefficients

     atomic species   valence    mass     pseudopotential
        Zn            12.00    63.38000     Zn( 1.00)
        O              6.00    15.99900     O ( 1.00)

     No symmetry found

   Cartesian axes

     site n.     atom                  positions (alat units)
         1           Zn  tau(   1) = (   0.3563026   0.1669912   0.9516597  )
         2           Zn  tau(   2) = (  -0.1260829   0.7901703   0.1457924  )
         3           O   tau(   3) = (   0.5172921   0.3678888   1.4105787  )
         4           O   tau(   4) = (   0.1505776   0.5581315   0.5714824  )

     number of k points=   112

     Number of k-points >= 100: set verbosity='high' to print them.

     Check: negative core charge=   -0.000002

     Initial potential from superposition of free atoms

     starting charge      35.9925, renormalised to      36.0000
     Starting wfcs are   26 randomized atomic wfcs

     Self-consistent Calculation

     iteration #  1     ecut=    50.00 Ry     beta= 0.30
     Davidson diagonalization with overlap
     ethr =  1.00E-02,  avg # of iterations =  1.2

     total energy              =    -361.20015601 Ry
     estimated scf accuracy    <       1.00060340 Ry

[...]

     iteration #  8     ecut=    50.00 Ry     beta= 0.30
     Davidson diagonalization with overlap
     c_bands:  2 eigenvalues not converged
     c_bands:  3 eigenvalues not converged
     c_bands:  5 eigenvalues not converged
     c_bands:  2 eigenvalues not converged
     ethr =  1.61E-07,  avg # of iterations = 14.4

[...]

     iteration # 18     ecut=    50.00 Ry     beta= 0.30
     Davidson diagonalization with overlap
     c_bands:  1 eigenvalues not converged
     ethr =  4.19E-10,  avg # of iterations =  6.3

[...]

     total energy              =    -361.44864591 Ry
     estimated scf accuracy    <       0.00000010 Ry

     iteration # 20     ecut=    50.00 Ry     beta= 0.30
     Davidson diagonalization with overlap
     ethr =  2.69E-10,  avg # of iterations =  5.2

     End of self-consistent calculation

     Number of k-points >= 100: set verbosity='high' to print the bands.

     highest occupied level (ev):     3.5860

!    total energy              =    -361.44864593 Ry
     estimated scf accuracy    <          1.1E-09 Ry

     The total energy is the sum of the following terms:
     one-electron contribution =    -184.76037061 Ry
     hartree contribution      =     128.97252882 Ry
     xc contribution           =    -109.01945252 Ry
     ewald contribution        =    -196.64135163 Ry

     convergence has been achieved in  20 iterations

     Forces acting on atoms (cartesian axes, Ry/au):

     atom    1 type  1   force =     0.01030043    0.01799640   -0.04837108
     atom    2 type  1   force =     0.02094948   -0.01041894   -0.00837734
     atom    3 type  2   force =    -0.00540312   -0.02841500    0.03211040
     atom    4 type  2   force =    -0.02584678    0.02083754    0.02463802
     The non-local contrib.  to forces
     atom    1 type  1   force =    -0.19965499   -0.43795501   -0.24433117
     atom    2 type  1   force =    -0.33505169   -0.02914181   -0.03144431
     atom    3 type  2   force =    -0.21719780   -0.62536429   -0.19777762
     atom    4 type  2   force =    -0.39585153    0.03668801    0.05254781
     The ionic contribution  to forces
     atom    1 type  1   force =    -1.27869119   -2.68355810   -1.86660329
     atom    2 type  1   force =    -2.03530535   -0.86533368    0.01295322
     atom    3 type  2   force =     1.97382449    3.77110921    0.99111344
     atom    4 type  2   force =     1.34017206   -0.22221743    0.86253663
     The local contribution  to forces
     atom    1 type  1   force =     1.47710233    3.11289147    2.04557890
     atom    2 type  1   force =     2.37189243    0.88191176    0.00781366
     atom    3 type  2   force =    -1.76391638   -3.17997162   -0.76276959
     atom    4 type  2   force =    -0.97416334    0.20670977   -0.88974301
     The core correction contribution to forces
     atom    1 type  1   force =     0.01153658    0.02662428    0.01695046
     atom    2 type  1   force =     0.01942067    0.00213489    0.00233111
     atom    3 type  2   force =     0.00188539    0.00580495    0.00154198
     atom    4 type  2   force =     0.00399554   -0.00034648   -0.00070839
     The Hubbard contrib.    to forces
     atom    1 type  1   force =     0.00000000    0.00000000    0.00000000
     atom    2 type  1   force =     0.00000000    0.00000000    0.00000000
     atom    3 type  2   force =     0.00000000    0.00000000    0.00000000
     atom    4 type  2   force =     0.00000000    0.00000000    0.00000000
     The SCF correction term to forces
     atom    1 type  1   force =     0.00000617   -0.00001036    0.00003044
     atom    2 type  1   force =    -0.00000810    0.00000578   -0.00003461
     atom    3 type  2   force =    -0.00000036    0.00000262   -0.00000139
     atom    4 type  2   force =    -0.00000104   -0.00000046    0.00000139

     Total force =     0.083453     Total SCF correction =     0.000049

     Writing all to output data dir ./ZnO_ANN.save/

     General routines

     Parallel routines

   This run was terminated on:  21: 2:37  24Jun2025

   JOB DONE.
Note: The following floating-point exceptions are signalling: IEEE_INVALID_FLAG