     Program PWSCF v.7.2 starts on 24Jun2025 at 16:57:15

     Reading input from /home/jvc/QEspresso7.2/ZnO_DataBase/scf_025_NOSYM.in/scf-6.18-1.55-0.25-2.in

     Current dimensions of program PWSCF are:
     Max number of different atomic species (ntypx) = 10
     Max number of k-points (npk) =  40000
     Max angular momentum in pseudopotentials (lmaxx) =  4
     file Zn.upf: wavefunction(s)  3D renormalized

     R & G space division:  proc/nbgrp/npool/nimage =       8
     Subspace diagonalization in iterative solution of the eigenvalue problem:
     a serial algorithm will be used

     Using Slab Decomposition

     bravais-lattice index     =            0
     lattice parameter (alat)  =       6.1788  a.u.
     unit-cell volume          =     326.8643 (a.u.)^3
     number of atoms/cell      =            4
     number of atomic types    =            2
     number of electrons       =        36.00
     number of Kohn-Sham states=           18
     kinetic-energy cutoff     =      50.0000  Ry
     charge density cutoff     =     400.0000  Ry
     scf convergence threshold =      1.0E-08
     mixing beta               =       0.3000
     number of iterations used =            8  plain     mixing
     Exchange-correlation= PBE
                           (   1   4   3   4   0   0   0)

     celldm(1)=   6.178821  celldm(2)=   0.000000  celldm(3)=   0.000000
     celldm(4)=   0.000000  celldm(5)=   0.000000  celldm(6)=   0.000000

     crystal axes: (cart. coord. in units of alat)
               a(1) = (   1.000000   0.000000   0.000000 )
               a(2) = (  -0.500000   0.866025   0.000000 )
               a(3) = (   0.000000   0.000000   1.600000 )

     reciprocal axes: (cart. coord. in units 2 pi/alat)
               b(1) = (  1.000000  0.577350 -0.000000 )
               b(2) = (  0.000000  1.154701  0.000000 )
               b(3) = (  0.000000 -0.000000  0.625000 )

     PseudoPot. # 1 for Zn read from file:
     ./pseudos/Zn.upf
     MD5 check sum: 7f56cabf9682ed8c977c2f7d0c5985c5
     Pseudo is Ultrasoft + core correction, Zval = 12.0
     Generated using &quot;atomic&quot; code by A. Dal Corso  v.6.2.2
     Using radial grid of 1201 points,  6 beta functions with:
                l(1) =   0
                l(2) =   0
                l(3) =   1
                l(4) =   1
                l(5) =   2
                l(6) =   2
     Q(r) pseudized with 0 coefficients

     PseudoPot. # 2 for O  read from file:
     ./pseudos/O.upf
     MD5 check sum: 91400c9766925bcf19f520983a725ff0
     Pseudo is Ultrasoft + core correction, Zval =  6.0
     Generated using &quot;atomic&quot; code by A. Dal Corso  v.6.3MaX
     Using radial grid of 1095 points,  4 beta functions with:
                l(1) =   0
                l(2) =   0
                l(3) =   1
                l(4) =   1
     Q(r) pseudized with 0 coefficients

     atomic species   valence    mass     pseudopotential
        Zn            12.00    63.38000     Zn( 1.00)
        O              6.00    15.99900     O ( 1.00)

     No symmetry found

   Cartesian axes

     site n.     atom                  positions (alat units)
         1           Zn  tau(   1) = (   0.3511039   0.4935387   0.7321732  )
         2           Zn  tau(   2) = (   0.0093794   0.4728006  -0.1062198  )
         3           O   tau(   3) = (   0.5636265   0.4683622   1.1368396  )
         4           O   tau(   4) = (   0.2704330   0.4239089   0.6678752  )

     number of k points=   112

     Number of k-points >= 100: set verbosity='high' to print them.

     Check: negative core charge=   -0.000002

     Initial potential from superposition of free atoms

     starting charge      35.9925, renormalised to      36.0000
     Starting wfcs are   26 randomized atomic wfcs

     Self-consistent Calculation

     iteration #  1     ecut=    50.00 Ry     beta= 0.30
     Davidson diagonalization with overlap
     ethr =  1.00E-02,  avg # of iterations =  5.6

     total energy              =    -305.21470522 Ry
     estimated scf accuracy    <       2.47911164 Ry

[...]

     total energy              =    -305.21509592 Ry
     estimated scf accuracy    <       0.00000010 Ry

     iteration # 25     ecut=    50.00 Ry     beta= 0.30
     Davidson diagonalization with overlap
     ethr =  2.68E-10,  avg # of iterations =  7.0

     End of self-consistent calculation

     Number of k-points >= 100: set verbosity='high' to print the bands.

     highest occupied level (ev):    11.5900

!    total energy              =    -305.21509595 Ry
     estimated scf accuracy    <          5.4E-09 Ry

     The total energy is the sum of the following terms:
     one-electron contribution =    -286.23200908 Ry
     hartree contribution      =     174.00418640 Ry
     xc contribution           =    -115.19418136 Ry
     ewald contribution        =     -77.79309190 Ry

     convergence has been achieved in  25 iterations

     Forces acting on atoms (cartesian axes, Ry/au):

     atom    1 type  1   force =   109.96472336   95.16740658   87.28191521
     atom    2 type  1   force =     0.02432605    0.00104416    0.06399987
     atom    3 type  2   force =     0.33994194   -0.01681659    0.68448767
     atom    4 type  2   force =  -110.32899136  -95.15163415  -88.03040275
     The non-local contrib.  to forces
     atom    1 type  1   force =   -25.15302515  -22.05436394  -19.75184380
     atom    2 type  1   force =     0.31743687   -0.01904957   -0.08962818
     atom    3 type  2   force =    -0.19963736    0.07840194   -0.58726517
     atom    4 type  2   force =     3.10576360    2.60429112    2.52351420
     The ionic contribution  to forces
     atom    1 type  1   force =   151.68789431  135.50694627  106.32085606
     atom    2 type  1   force =     0.38114812    0.08592120   13.21906283
     atom    3 type  2   force =     5.01786965   -0.45648087   11.74262157
     atom    4 type  2   force =  -157.08691208 -135.13638661 -131.28254046
     The local contribution  to forces
     atom    1 type  1   force =   -15.18684285  -17.08672860    1.80152010
     atom    2 type  1   force =    -0.65865991   -0.06628764  -13.04981949
     atom    3 type  2   force =    -4.47759975    0.36190409  -10.47192186
     atom    4 type  2   force =    43.34134554   37.11326279   40.47987852
     The core correction contribution to forces
     atom    1 type  1   force =    -1.38323689   -1.19839689   -1.08831010
     atom    2 type  1   force =    -0.01566004    0.00041582   -0.01597976
     atom    3 type  2   force =    -0.00075665   -0.00069149    0.00102124
     atom    4 type  2   force =     0.31075989    0.26714386    0.24879671
     The Hubbard contrib.    to forces
     atom    1 type  1   force =     0.00000000    0.00000000    0.00000000
     atom    2 type  1   force =     0.00000000    0.00000000    0.00000000
     atom    3 type  2   force =     0.00000000    0.00000000    0.00000000
     atom    4 type  2   force =     0.00000000    0.00000000    0.00000000
     The SCF correction term to forces
     atom    1 type  1   force =    -0.00012621   -0.00010375   -0.00036148
     atom    2 type  1   force =     0.00000085   -0.00000914    0.00031004
     atom    3 type  2   force =     0.00000589   -0.00000374   -0.00002252
     atom    4 type  2   force =    -0.00000846    0.00000119   -0.00010614

     Total force =   240.298708     Total SCF correction =     0.000515

     Writing all to output data dir ./ZnO_ANN.save/

     General routines

     Parallel routines

   This run was terminated on:  17: 0: 8  24Jun2025

   JOB DONE.
Note: The following floating-point exceptions are signalling: IEEE_INVALID_FLAG