     Program PWSCF v.7.2 starts on 24Jun2025 at 21: 8:56

     Reading input from /home/jvc/QEspresso7.2/ZnO_DataBase/scf_025_NOSYM.in/scf-6.80-1.71-0.25-2.in

     Current dimensions of program PWSCF are:
     Max number of different atomic species (ntypx) = 10
     Max number of k-points (npk) =  40000
     Max angular momentum in pseudopotentials (lmaxx) =  4
     file Zn.upf: wavefunction(s)  3D renormalized

     R & G space division:  proc/nbgrp/npool/nimage =       8
     Subspace diagonalization in iterative solution of the eigenvalue problem:
     a serial algorithm will be used

     Using Slab Decomposition

     bravais-lattice index     =            0
     lattice parameter (alat)  =       6.7967  a.u.
     unit-cell volume          =     435.0564 (a.u.)^3
     number of atoms/cell      =            4
     number of atomic types    =            2
     number of electrons       =        36.00
     number of Kohn-Sham states=           18
     kinetic-energy cutoff     =      50.0000  Ry
     charge density cutoff     =     400.0000  Ry
     scf convergence threshold =      1.0E-08
     mixing beta               =       0.3000
     number of iterations used =            8  plain     mixing
     Exchange-correlation= PBE
                           (   1   4   3   4   0   0   0)

     celldm(1)=   6.796704  celldm(2)=   0.000000  celldm(3)=   0.000000
     celldm(4)=   0.000000  celldm(5)=   0.000000  celldm(6)=   0.000000

     crystal axes: (cart. coord. in units of alat)
               a(1) = (   1.000000   0.000000   0.000000 )
               a(2) = (  -0.500000   0.866025   0.000000 )
               a(3) = (   0.000000   0.000000   1.600000 )

     reciprocal axes: (cart. coord. in units 2 pi/alat)
               b(1) = (  1.000000  0.577350 -0.000000 )
               b(2) = (  0.000000  1.154701  0.000000 )
               b(3) = (  0.000000 -0.000000  0.625000 )

     PseudoPot. # 1 for Zn read from file:
     ./pseudos/Zn.upf
     MD5 check sum: 7f56cabf9682ed8c977c2f7d0c5985c5
     Pseudo is Ultrasoft + core correction, Zval = 12.0
     Generated using &quot;atomic&quot; code by A. Dal Corso  v.6.2.2
     Using radial grid of 1201 points,  6 beta functions with:
                l(1) =   0
                l(2) =   0
                l(3) =   1
                l(4) =   1
                l(5) =   2
                l(6) =   2
     Q(r) pseudized with 0 coefficients

     PseudoPot. # 2 for O  read from file:
     ./pseudos/O.upf
     MD5 check sum: 91400c9766925bcf19f520983a725ff0
     Pseudo is Ultrasoft + core correction, Zval =  6.0
     Generated using &quot;atomic&quot; code by A. Dal Corso  v.6.3MaX
     Using radial grid of 1095 points,  4 beta functions with:
                l(1) =   0
                l(2) =   0
                l(3) =   1
                l(4) =   1
     Q(r) pseudized with 0 coefficients

     atomic species   valence    mass     pseudopotential
        Zn            12.00    63.38000     Zn( 1.00)
        O              6.00    15.99900     O ( 1.00)

     No symmetry found

   Cartesian axes

     site n.     atom                  positions (alat units)
         1           Zn  tau(   1) = (   0.2504353   0.3688373   0.6897792  )
         2           Zn  tau(   2) = (   0.2570230   0.4352057   0.2386361  )
         3           O   tau(   3) = (   0.5721301   0.4687532   1.3521903  )
         4           O   tau(   4) = (   0.1626144   0.7203246   0.4171459  )

     number of k points=   112

     Number of k-points >= 100: set verbosity='high' to print them.

     Check: negative core charge=   -0.000003

     Initial potential from superposition of free atoms

     starting charge      35.9925, renormalised to      36.0000
     Starting wfcs are   26 randomized atomic wfcs

     Self-consistent Calculation

     iteration #  1     ecut=    50.00 Ry     beta= 0.30
     Davidson diagonalization with overlap
     ethr =  1.00E-02,  avg # of iterations =  2.2

     total energy              =    -359.62201137 Ry
     estimated scf accuracy    <       1.68707078 Ry

[...]

     iteration #  7     ecut=    50.00 Ry     beta= 0.30
     Davidson diagonalization with overlap
     c_bands:  1 eigenvalues not converged
     c_bands:  1 eigenvalues not converged
     c_bands:  1 eigenvalues not converged
     c_bands:  1 eigenvalues not converged
     c_bands:  1 eigenvalues not converged
     c_bands:  1 eigenvalues not converged
     c_bands:  1 eigenvalues not converged
     c_bands:  1 eigenvalues not converged
     c_bands:  1 eigenvalues not converged
     c_bands:  1 eigenvalues not converged
     c_bands:  1 eigenvalues not converged
     c_bands:  1 eigenvalues not converged
     c_bands:  1 eigenvalues not converged
     c_bands:  1 eigenvalues not converged
     c_bands:  1 eigenvalues not converged
     ethr =  4.27E-04,  avg # of iterations = 17.1

[...]

     negative rho (up, down):  9.420E-02 0.000E+00

[...]

     negative rho (up, down):  2.232E-03 0.000E+00

[...]

     iteration # 67     ecut=    50.00 Ry     beta= 0.30
     Davidson diagonalization with overlap
     ethr =  6.45E-10,  avg # of iterations =  3.8

     total energy              =    -360.04577686 Ry
     estimated scf accuracy    <       0.00000003 Ry

     iteration # 68     ecut=    50.00 Ry     beta= 0.30
     Davidson diagonalization with overlap
     c_bands:  1 eigenvalues not converged
     ethr =  7.62E-11,  avg # of iterations =  7.6

     End of self-consistent calculation

     Number of k-points >= 100: set verbosity='high' to print the bands.

     highest occupied level (ev):     4.7792

!    total energy              =    -360.04577687 Ry
     estimated scf accuracy    <          3.2E-09 Ry

     The total energy is the sum of the following terms:
     one-electron contribution =    -273.92398507 Ry
     hartree contribution      =     171.16395238 Ry
     xc contribution           =    -109.78408239 Ry
     ewald contribution        =    -147.50166180 Ry

     convergence has been achieved in  68 iterations

     Forces acting on atoms (cartesian axes, Ry/au):

     atom    1 type  1   force =     0.06447660   -0.35977663    1.27970149
     atom    2 type  1   force =     0.62243038   -1.52050582   -2.22658016
     atom    3 type  2   force =    -0.04494351   -0.02860447    0.00145577
     atom    4 type  2   force =    -0.64196346    1.90888691    0.94542290
     The non-local contrib.  to forces
     atom    1 type  1   force =    -0.02116441   -0.30164414   -0.19248070
     atom    2 type  1   force =     0.03815472   -0.88804767    0.59127214
     atom    3 type  2   force =    -0.53508761   -0.25996006    0.25939672
     atom    4 type  2   force =     0.26262687   -1.28565531    0.20783218
     The ionic contribution  to forces
     atom    1 type  1   force =     0.56670956   -9.89007514   38.32972452
     atom    2 type  1   force =     3.46128615  -13.36280598  -36.29386771
     atom    3 type  2   force =     2.79192216    0.39167413   -6.80592617
     atom    4 type  2   force =    -6.81991787   22.86120699    4.77006936
     The local contribution  to forces
     atom    1 type  1   force =    -0.47436502    9.77013508  -36.76082686
     atom    2 type  1   force =    -2.82837754   12.53987957   33.32610877
     atom    3 type  2   force =    -2.30700543   -0.16326033    6.54993853
     atom    4 type  2   force =     5.91457370  -19.66867279   -4.02703102
     The core correction contribution to forces
     atom    1 type  1   force =    -0.00671518    0.06182537   -0.09676558
     atom    2 type  1   force =    -0.04868169    0.19055661    0.14995227
     atom    3 type  2   force =     0.00522456    0.00291858   -0.00192537
     atom    4 type  2   force =     0.00076468    0.00197868   -0.00549890
     The Hubbard contrib.    to forces
     atom    1 type  1   force =     0.00000000    0.00000000    0.00000000
     atom    2 type  1   force =     0.00000000    0.00000000    0.00000000
     atom    3 type  2   force =     0.00000000    0.00000000    0.00000000
     atom    4 type  2   force =     0.00000000    0.00000000    0.00000000
     The SCF correction term to forces
     atom    1 type  1   force =     0.00002493   -0.00004313    0.00004578
     atom    2 type  1   force =     0.00006202   -0.00011368   -0.00004995
     atom    3 type  2   force =     0.00001609   -0.00000213   -0.00003225
     atom    4 type  2   force =     0.00000245    0.00000401    0.00004695

     Total force =     3.792213     Total SCF correction =     0.000165

     Writing all to output data dir ./ZnO_ANN.save/

     General routines

     Parallel routines

   This run was terminated on:  21:17:59  24Jun2025

   JOB DONE.
Note: The following floating-point exceptions are signalling: IEEE_INVALID_FLAG