     Program PWSCF v.7.2 starts on 24Jun2025 at 15:58:17

     Reading input from /home/jvc/QEspresso7.2/ZnO_DataBase/scf_025_NOSYM.in/scf-5.93-1.65-0.25-5.in

     Current dimensions of program PWSCF are:
     Max number of different atomic species (ntypx) = 10
     Max number of k-points (npk) =  40000
     Max angular momentum in pseudopotentials (lmaxx) =  4
     file Zn.upf: wavefunction(s)  3D renormalized

     R & G space division:  proc/nbgrp/npool/nimage =       8
     Subspace diagonalization in iterative solution of the eigenvalue problem:
     a serial algorithm will be used

     Using Slab Decomposition

     bravais-lattice index     =            0
     lattice parameter (alat)  =       5.9317  a.u.
     unit-cell volume          =     289.1886 (a.u.)^3
     number of atoms/cell      =            4
     number of atomic types    =            2
     number of electrons       =        36.00
     number of Kohn-Sham states=           18
     kinetic-energy cutoff     =      50.0000  Ry
     charge density cutoff     =     400.0000  Ry
     scf convergence threshold =      1.0E-08
     mixing beta               =       0.3000
     number of iterations used =            8  plain     mixing
     Exchange-correlation= PBE
                           (   1   4   3   4   0   0   0)

     celldm(1)=   5.931669  celldm(2)=   0.000000  celldm(3)=   0.000000
     celldm(4)=   0.000000  celldm(5)=   0.000000  celldm(6)=   0.000000

     crystal axes: (cart. coord. in units of alat)
               a(1) = (   1.000000   0.000000   0.000000 )
               a(2) = (  -0.500000   0.866025   0.000000 )
               a(3) = (   0.000000   0.000000   1.600000 )

     reciprocal axes: (cart. coord. in units 2 pi/alat)
               b(1) = (  1.000000  0.577350 -0.000000 )
               b(2) = (  0.000000  1.154701  0.000000 )
               b(3) = (  0.000000 -0.000000  0.625000 )

     PseudoPot. # 1 for Zn read from file:
     ./pseudos/Zn.upf
     MD5 check sum: 7f56cabf9682ed8c977c2f7d0c5985c5
     Pseudo is Ultrasoft + core correction, Zval = 12.0
     Generated using &quot;atomic&quot; code by A. Dal Corso  v.6.2.2
     Using radial grid of 1201 points,  6 beta functions with:
                l(1) =   0
                l(2) =   0
                l(3) =   1
                l(4) =   1
                l(5) =   2
                l(6) =   2
     Q(r) pseudized with 0 coefficients

     PseudoPot. # 2 for O  read from file:
     ./pseudos/O.upf
     MD5 check sum: 91400c9766925bcf19f520983a725ff0
     Pseudo is Ultrasoft + core correction, Zval =  6.0
     Generated using &quot;atomic&quot; code by A. Dal Corso  v.6.3MaX
     Using radial grid of 1095 points,  4 beta functions with:
                l(1) =   0
                l(2) =   0
                l(3) =   1
                l(4) =   1
     Q(r) pseudized with 0 coefficients

     atomic species   valence    mass     pseudopotential
        Zn            12.00    63.38000     Zn( 1.00)
        O              6.00    15.99900     O ( 1.00)

     No symmetry found

   Cartesian axes

     site n.     atom                  positions (alat units)
         1           Zn  tau(   1) = (   0.4407314   0.1369999   0.6036769  )
         2           Zn  tau(   2) = (  -0.0964154   0.6055941  -0.1139278  )
         3           O   tau(   3) = (   0.5533348   0.4325272   1.0499624  )
         4           O   tau(   4) = (   0.2272217   0.5063020   0.7153411  )

     number of k points=   112

     Number of k-points >= 100: set verbosity='high' to print them.

     Check: negative core charge=   -0.000002

     Initial potential from superposition of free atoms

     starting charge      35.9925, renormalised to      36.0000
     Starting wfcs are   26 randomized atomic wfcs

     Self-consistent Calculation

     iteration #  1     ecut=    50.00 Ry     beta= 0.30
     Davidson diagonalization with overlap
     ethr =  1.00E-02,  avg # of iterations =  2.0

     total energy              =    -360.54345106 Ry
     estimated scf accuracy    <       0.65890568 Ry

[...]

     iteration #  6     ecut=    50.00 Ry     beta= 0.30
     Davidson diagonalization with overlap
     c_bands:  1 eigenvalues not converged
     c_bands:  1 eigenvalues not converged
     c_bands:  1 eigenvalues not converged
     c_bands:  1 eigenvalues not converged
     c_bands:  1 eigenvalues not converged
     c_bands:  1 eigenvalues not converged
     c_bands:  1 eigenvalues not converged
     c_bands:  1 eigenvalues not converged
     ethr =  6.78E-06,  avg # of iterations = 11.9

[...]

     iteration # 33     ecut=    50.00 Ry     beta= 0.30
     Davidson diagonalization with overlap
     c_bands:  1 eigenvalues not converged
     c_bands:  1 eigenvalues not converged
     ethr =  1.52E-09,  avg # of iterations = 11.0

[...]

     total energy              =    -360.73945261 Ry
     estimated scf accuracy    <       0.00000005 Ry

     iteration # 36     ecut=    50.00 Ry     beta= 0.30
     Davidson diagonalization with overlap
     ethr =  1.48E-10,  avg # of iterations =  5.9

     End of self-consistent calculation

     Number of k-points >= 100: set verbosity='high' to print the bands.

     highest occupied level (ev):    11.1859

!    total energy              =    -360.73945263 Ry
     estimated scf accuracy    <          7.4E-10 Ry

     The total energy is the sum of the following terms:
     one-electron contribution =    -155.83508049 Ry
     hartree contribution      =     120.23830618 Ry
     xc contribution           =    -109.87353465 Ry
     ewald contribution        =    -215.26914367 Ry

     convergence has been achieved in  36 iterations

     Forces acting on atoms (cartesian axes, Ry/au):

     atom    1 type  1   force =     0.47744591   -1.01164568   -0.50236639
     atom    2 type  1   force =     0.03256498    0.02473169    0.07125956
     atom    3 type  2   force =     0.10608697    0.06695690    0.33588386
     atom    4 type  2   force =    -0.61609786    0.91995710    0.09522297
     The non-local contrib.  to forces
     atom    1 type  1   force =     0.29115362   -0.47467860   -0.03050106
     atom    2 type  1   force =     0.14533333   -0.00615219   -0.32632200
     atom    3 type  2   force =    -0.54207506    0.12666921   -0.54271855
     atom    4 type  2   force =     0.81175886   -0.29916699    0.22042180
     The ionic contribution  to forces
     atom    1 type  1   force =     3.24370435  -10.10844552  -15.30785812
     atom    2 type  1   force =     1.94456324    0.48998456    7.13147740
     atom    3 type  2   force =     2.23292485    1.25067946    9.35941575
     atom    4 type  2   force =    -7.42119244    8.36778149   -1.18303503
     The local contribution  to forces
     atom    1 type  1   force =    -3.00473299    9.45156876   14.76991063
     atom    2 type  1   force =    -2.03960639   -0.45577870   -6.72707303
     atom    3 type  2   force =    -1.59001604   -1.30833370   -8.48482943
     atom    4 type  2   force =     5.99849294   -7.14729795    1.06152904
     The core correction contribution to forces
     atom    1 type  1   force =    -0.05266794    0.11989920    0.06611748
     atom    2 type  1   force =    -0.01773203   -0.00331144   -0.00686809
     atom    3 type  2   force =     0.00527028   -0.00207052    0.00404042
     atom    4 type  2   force =    -0.00513602   -0.00135683   -0.00365687
     The Hubbard contrib.    to forces
     atom    1 type  1   force =     0.00000000    0.00000000    0.00000000
     atom    2 type  1   force =     0.00000000    0.00000000    0.00000000
     atom    3 type  2   force =     0.00000000    0.00000000    0.00000000
     atom    4 type  2   force =     0.00000000    0.00000000    0.00000000
     The SCF correction term to forces
     atom    1 type  1   force =    -0.00001030    0.00000541   -0.00003599
     atom    2 type  1   force =     0.00000765   -0.00001562    0.00004461
     atom    3 type  2   force =    -0.00001624    0.00000738   -0.00002499
     atom    4 type  2   force =    -0.00002038   -0.00000770   -0.00003664

     Total force =     1.695295     Total SCF correction =     0.000081

     Writing all to output data dir ./ZnO_ANN.save/

     General routines

     Parallel routines

   This run was terminated on:  16: 2:42  24Jun2025

   JOB DONE.
Note: The following floating-point exceptions are signalling: IEEE_INVALID_FLAG