     Program PWSCF v.7.2 starts on 24Jun2025 at 15: 5: 4

     Reading input from /home/jvc/QEspresso7.2/ZnO_DataBase/scf_025_NOSYM.in/scf-5.68-1.71-0.25-4.in

     Current dimensions of program PWSCF are:
     Max number of different atomic species (ntypx) = 10
     Max number of k-points (npk) =  40000
     Max angular momentum in pseudopotentials (lmaxx) =  4
     file Zn.upf: wavefunction(s)  3D renormalized

     R & G space division:  proc/nbgrp/npool/nimage =       8
     Subspace diagonalization in iterative solution of the eigenvalue problem:
     a serial algorithm will be used

     Using Slab Decomposition

     bravais-lattice index     =            0
     lattice parameter (alat)  =       5.6845  a.u.
     unit-cell volume          =     254.5253 (a.u.)^3
     number of atoms/cell      =            4
     number of atomic types    =            2
     number of electrons       =        36.00
     number of Kohn-Sham states=           18
     kinetic-energy cutoff     =      50.0000  Ry
     charge density cutoff     =     400.0000  Ry
     scf convergence threshold =      1.0E-08
     mixing beta               =       0.3000
     number of iterations used =            8  plain     mixing
     Exchange-correlation= PBE
                           (   1   4   3   4   0   0   0)

     celldm(1)=   5.684516  celldm(2)=   0.000000  celldm(3)=   0.000000
     celldm(4)=   0.000000  celldm(5)=   0.000000  celldm(6)=   0.000000

     crystal axes: (cart. coord. in units of alat)
               a(1) = (   1.000000   0.000000   0.000000 )
               a(2) = (  -0.500000   0.866025   0.000000 )
               a(3) = (   0.000000   0.000000   1.600000 )

     reciprocal axes: (cart. coord. in units 2 pi/alat)
               b(1) = (  1.000000  0.577350 -0.000000 )
               b(2) = (  0.000000  1.154701  0.000000 )
               b(3) = (  0.000000 -0.000000  0.625000 )

     PseudoPot. # 1 for Zn read from file:
     ./pseudos/Zn.upf
     MD5 check sum: 7f56cabf9682ed8c977c2f7d0c5985c5
     Pseudo is Ultrasoft + core correction, Zval = 12.0
     Generated using &quot;atomic&quot; code by A. Dal Corso  v.6.2.2
     Using radial grid of 1201 points,  6 beta functions with:
                l(1) =   0
                l(2) =   0
                l(3) =   1
                l(4) =   1
                l(5) =   2
                l(6) =   2
     Q(r) pseudized with 0 coefficients

     PseudoPot. # 2 for O  read from file:
     ./pseudos/O.upf
     MD5 check sum: 91400c9766925bcf19f520983a725ff0
     Pseudo is Ultrasoft + core correction, Zval =  6.0
     Generated using &quot;atomic&quot; code by A. Dal Corso  v.6.3MaX
     Using radial grid of 1095 points,  4 beta functions with:
                l(1) =   0
                l(2) =   0
                l(3) =   1
                l(4) =   1
     Q(r) pseudized with 0 coefficients

     atomic species   valence    mass     pseudopotential
        Zn            12.00    63.38000     Zn( 1.00)
        O              6.00    15.99900     O ( 1.00)

     No symmetry found

   Cartesian axes

     site n.     atom                  positions (alat units)
         1           Zn  tau(   1) = (   0.6042390   0.3771079   0.8041941  )
         2           Zn  tau(   2) = (   0.3160856   0.3918422  -0.0381338  )
         3           O   tau(   3) = (   0.2653053   0.3921258   1.7064769  )
         4           O   tau(   4) = (   0.1060598   0.5524799   0.3773663  )

     number of k points=   112

     Number of k-points >= 100: set verbosity='high' to print them.

     Check: negative core charge=   -0.000002

     Initial potential from superposition of free atoms

     starting charge      35.9925, renormalised to      36.0000
     Starting wfcs are   26 randomized atomic wfcs

     Self-consistent Calculation

     iteration #  1     ecut=    50.00 Ry     beta= 0.30
     Davidson diagonalization with overlap
     ethr =  1.00E-02,  avg # of iterations =  5.8

     total energy              =    -318.73970424 Ry
     estimated scf accuracy    <       1.89518538 Ry

[...]

     iteration # 10     ecut=    50.00 Ry     beta= 0.30
     Davidson diagonalization with overlap
     c_bands:  1 eigenvalues not converged
     ethr =  6.68E-06,  avg # of iterations =  7.6

[...]

     total energy              =    -318.77487484 Ry
     estimated scf accuracy    <       0.00000008 Ry

     iteration # 19     ecut=    50.00 Ry     beta= 0.30
     Davidson diagonalization with overlap
     ethr =  2.24E-10,  avg # of iterations =  5.1

     End of self-consistent calculation

     Number of k-points >= 100: set verbosity='high' to print the bands.

     highest occupied level (ev):    16.0148

!    total energy              =    -318.77487486 Ry
     estimated scf accuracy    <          7.4E-09 Ry

     The total energy is the sum of the following terms:
     one-electron contribution =    -243.60353800 Ry
     hartree contribution      =     157.94272606 Ry
     xc contribution           =    -115.14503076 Ry
     ewald contribution        =    -117.96903216 Ry

     convergence has been achieved in  19 iterations

     Forces acting on atoms (cartesian axes, Ry/au):

     atom    1 type  1   force =     0.04161344   -0.00952992    0.12997639
     atom    2 type  1   force =    39.48878049   -0.56359691 -112.18985538
     atom    3 type  2   force =   -38.55056785   -0.32153384  110.26134941
     atom    4 type  2   force =    -0.97982608    0.89466067    1.79852958
     The non-local contrib.  to forces
     atom    1 type  1   force =    -0.09518513    0.13352646   -0.60157769
     atom    2 type  1   force =   -12.20424479    0.51660671   34.28473654
     atom    3 type  2   force =     0.68602958    1.35387144   -3.60232307
     atom    4 type  2   force =     1.54673815   -1.70292357   -2.67005855
     The ionic contribution  to forces
     atom    1 type  1   force =     2.14638051   -0.88628320   12.26817380
     atom    2 type  1   force =    64.86679689   -3.73666299 -194.13963477
     atom    3 type  2   force =   -55.94603669   -6.10065790  161.14637790
     atom    4 type  2   force =   -11.06714071   10.72360409   20.72508307
     The local contribution  to forces
     atom    1 type  1   force =    -2.00798960    0.74167205  -11.54014581
     atom    2 type  1   force =   -12.47714682    2.65701080   45.66012510
     atom    3 type  2   force =    16.57804660    4.43312977  -46.91844070
     atom    4 type  2   force =     8.54848284   -8.13649526  -16.26947598
     The core correction contribution to forces
     atom    1 type  1   force =    -0.00166998    0.00153749    0.00401381
     atom    2 type  1   force =    -0.69651856   -0.00052780    2.00444556
     atom    3 type  2   force =     0.13138499   -0.00789902   -0.36424978
     atom    4 type  2   force =    -0.00798367    0.01049914    0.01323397
     The Hubbard contrib.    to forces
     atom    1 type  1   force =     0.00000000    0.00000000    0.00000000
     atom    2 type  1   force =     0.00000000    0.00000000    0.00000000
     atom    3 type  2   force =     0.00000000    0.00000000    0.00000000
     atom    4 type  2   force =     0.00000000    0.00000000    0.00000000
     The SCF correction term to forces
     atom    1 type  1   force =     0.00001267   -0.00000341   -0.00029118
     atom    2 type  1   force =    -0.00017120   -0.00004432    0.00066873
     atom    3 type  2   force =    -0.00005732    0.00000119    0.00018159
     atom    4 type  2   force =     0.00001232   -0.00004441   -0.00005640

     Total force =   166.718547     Total SCF correction =     0.000778

     Writing all to output data dir ./ZnO_ANN.save/

     General routines

     Parallel routines

   This run was terminated on:  15: 6:57  24Jun2025

   JOB DONE.
Note: The following floating-point exceptions are signalling: IEEE_INVALID_FLAG