     Program PWSCF v.7.2 starts on 24Jun2025 at 14:58: 0

     Reading input from /home/jvc/QEspresso7.2/ZnO_DataBase/scf_025_NOSYM.in/scf-5.68-1.61-0.25-3.in

     Current dimensions of program PWSCF are:
     Max number of different atomic species (ntypx) = 10
     Max number of k-points (npk) =  40000
     Max angular momentum in pseudopotentials (lmaxx) =  4
     file Zn.upf: wavefunction(s)  3D renormalized

     R & G space division:  proc/nbgrp/npool/nimage =       8
     Subspace diagonalization in iterative solution of the eigenvalue problem:
     a serial algorithm will be used

     Using Slab Decomposition

     bravais-lattice index     =            0
     lattice parameter (alat)  =       5.6845  a.u.
     unit-cell volume          =     254.5253 (a.u.)^3
     number of atoms/cell      =            4
     number of atomic types    =            2
     number of electrons       =        36.00
     number of Kohn-Sham states=           18
     kinetic-energy cutoff     =      50.0000  Ry
     charge density cutoff     =     400.0000  Ry
     scf convergence threshold =      1.0E-08
     mixing beta               =       0.3000
     number of iterations used =            8  plain     mixing
     Exchange-correlation= PBE
                           (   1   4   3   4   0   0   0)

     celldm(1)=   5.684516  celldm(2)=   0.000000  celldm(3)=   0.000000
     celldm(4)=   0.000000  celldm(5)=   0.000000  celldm(6)=   0.000000

     crystal axes: (cart. coord. in units of alat)
               a(1) = (   1.000000   0.000000   0.000000 )
               a(2) = (  -0.500000   0.866025   0.000000 )
               a(3) = (   0.000000   0.000000   1.600000 )

     reciprocal axes: (cart. coord. in units 2 pi/alat)
               b(1) = (  1.000000  0.577350 -0.000000 )
               b(2) = (  0.000000  1.154701  0.000000 )
               b(3) = (  0.000000 -0.000000  0.625000 )

     PseudoPot. # 1 for Zn read from file:
     ./pseudos/Zn.upf
     MD5 check sum: 7f56cabf9682ed8c977c2f7d0c5985c5
     Pseudo is Ultrasoft + core correction, Zval = 12.0
     Generated using &quot;atomic&quot; code by A. Dal Corso  v.6.2.2
     Using radial grid of 1201 points,  6 beta functions with:
                l(1) =   0
                l(2) =   0
                l(3) =   1
                l(4) =   1
                l(5) =   2
                l(6) =   2
     Q(r) pseudized with 0 coefficients

     PseudoPot. # 2 for O  read from file:
     ./pseudos/O.upf
     MD5 check sum: 91400c9766925bcf19f520983a725ff0
     Pseudo is Ultrasoft + core correction, Zval =  6.0
     Generated using &quot;atomic&quot; code by A. Dal Corso  v.6.3MaX
     Using radial grid of 1095 points,  4 beta functions with:
                l(1) =   0
                l(2) =   0
                l(3) =   1
                l(4) =   1
     Q(r) pseudized with 0 coefficients

     atomic species   valence    mass     pseudopotential
        Zn            12.00    63.38000     Zn( 1.00)
        O              6.00    15.99900     O ( 1.00)

     No symmetry found

   Cartesian axes

     site n.     atom                  positions (alat units)
         1           Zn  tau(   1) = (   0.2113067   0.4699549   1.0146296  )
         2           Zn  tau(   2) = (   0.3357522   0.3638751   0.2792807  )
         3           O   tau(   3) = (   0.6809496   0.0853212   1.5935086  )
         4           O   tau(   4) = (   0.1919390   0.6769670   0.8628995  )

     number of k points=   112

     Number of k-points >= 100: set verbosity='high' to print them.

     Check: negative core charge=   -0.000002

     Initial potential from superposition of free atoms

     starting charge      35.9925, renormalised to      36.0000
     Starting wfcs are   26 randomized atomic wfcs

     Self-consistent Calculation

     iteration #  1     ecut=    50.00 Ry     beta= 0.30
     Davidson diagonalization with overlap
     ethr =  1.00E-02,  avg # of iterations =  5.4

     total energy              =    -352.24210952 Ry
     estimated scf accuracy    <       1.03265362 Ry

[...]

     total energy              =    -352.35782620 Ry
     estimated scf accuracy    <       0.00000003 Ry

     iteration # 18     ecut=    50.00 Ry     beta= 0.30
     Davidson diagonalization with overlap
     ethr =  8.03E-11,  avg # of iterations =  4.4

     End of self-consistent calculation

     Number of k-points >= 100: set verbosity='high' to print the bands.

     highest occupied level (ev):    12.6128

!    total energy              =    -352.35782621 Ry
     estimated scf accuracy    <          6.1E-09 Ry

     The total energy is the sum of the following terms:
     one-electron contribution =    -167.22197540 Ry
     hartree contribution      =     125.73577778 Ry
     xc contribution           =    -111.76354454 Ry
     ewald contribution        =    -199.10808405 Ry

     convergence has been achieved in  18 iterations

     Forces acting on atoms (cartesian axes, Ry/au):

     atom    1 type  1   force =     1.76008354  -18.87246639   13.83351507
     atom    2 type  1   force =    -0.21427085    0.15179615    0.06920086
     atom    3 type  2   force =     0.23145007   -0.13186972   -0.07701470
     atom    4 type  2   force =    -1.77726277   18.85253996  -13.82570123
     The non-local contrib.  to forces
     atom    1 type  1   force =    -0.51972996    5.96669260   -4.82418137
     atom    2 type  1   force =    -0.58161653    0.35020397    0.68317479
     atom    3 type  2   force =    -0.33544821    0.28482876    0.97566377
     atom    4 type  2   force =     0.21508693   -1.95435808    0.86010254
     The ionic contribution  to forces
     atom    1 type  1   force =     3.54224111  -48.93845328   39.44252463
     atom    2 type  1   force =    -2.46395287    0.39285659   -1.02489807
     atom    3 type  2   force =     4.05488055   -1.55983987   -4.27252351
     atom    4 type  2   force =    -5.13316879   50.10543656  -34.14510304
     The local contribution  to forces
     atom    1 type  1   force =    -1.19662858   23.37367441  -20.25089423
     atom    2 type  1   force =     2.78271900   -0.56473886    0.45272543
     atom    3 type  2   force =    -3.48956290    1.14514643    3.22838169
     atom    4 type  2   force =     3.13850104  -29.27157386   19.43611801
     The core correction contribution to forces
     atom    1 type  1   force =    -0.06582230    0.72579691   -0.53402803
     atom    2 type  1   force =     0.04861100   -0.02656873   -0.04182649
     atom    3 type  2   force =     0.00160538   -0.00206804   -0.00853932
     atom    4 type  2   force =     0.00232175   -0.02703003    0.02326409
     The Hubbard contrib.    to forces
     atom    1 type  1   force =     0.00000000    0.00000000    0.00000000
     atom    2 type  1   force =     0.00000000    0.00000000    0.00000000
     atom    3 type  2   force =     0.00000000    0.00000000    0.00000000
     atom    4 type  2   force =     0.00000000    0.00000000    0.00000000
     The SCF correction term to forces
     atom    1 type  1   force =     0.00002487   -0.00022321    0.00012632
     atom    2 type  1   force =    -0.00002985   -0.00000301    0.00005745
     atom    3 type  2   force =    -0.00002313    0.00001681    0.00003491
     atom    4 type  2   force =    -0.00000209    0.00001918   -0.00005058

     Total force =    33.173960     Total SCF correction =     0.000275

     Writing all to output data dir ./ZnO_ANN.save/

     General routines

     Parallel routines

   This run was terminated on:  15: 0: 3  24Jun2025

   JOB DONE.
Note: The following floating-point exceptions are signalling: IEEE_INVALID_FLAG