     Program PWSCF v.7.2 starts on 24Jun2025 at 19:58:33

     Reading input from /home/jvc/QEspresso7.2/ZnO_DataBase/scf_025_NOSYM.in/scf-6.67-1.58-0.25-3.in

     Current dimensions of program PWSCF are:
     Max number of different atomic species (ntypx) = 10
     Max number of k-points (npk) =  40000
     Max angular momentum in pseudopotentials (lmaxx) =  4
     file Zn.upf: wavefunction(s)  3D renormalized

     R & G space division:  proc/nbgrp/npool/nimage =       8
     Subspace diagonalization in iterative solution of the eigenvalue problem:
     a serial algorithm will be used

     Using Slab Decomposition

     bravais-lattice index     =            0
     lattice parameter (alat)  =       6.6731  a.u.
     unit-cell volume          =     411.7549 (a.u.)^3
     number of atoms/cell      =            4
     number of atomic types    =            2
     number of electrons       =        36.00
     number of Kohn-Sham states=           18
     kinetic-energy cutoff     =      50.0000  Ry
     charge density cutoff     =     400.0000  Ry
     scf convergence threshold =      1.0E-08
     mixing beta               =       0.3000
     number of iterations used =            8  plain     mixing
     Exchange-correlation= PBE
                           (   1   4   3   4   0   0   0)

     celldm(1)=   6.673127  celldm(2)=   0.000000  celldm(3)=   0.000000
     celldm(4)=   0.000000  celldm(5)=   0.000000  celldm(6)=   0.000000

     crystal axes: (cart. coord. in units of alat)
               a(1) = (   1.000000   0.000000   0.000000 )
               a(2) = (  -0.500000   0.866025   0.000000 )
               a(3) = (   0.000000   0.000000   1.600000 )

     reciprocal axes: (cart. coord. in units 2 pi/alat)
               b(1) = (  1.000000  0.577350 -0.000000 )
               b(2) = (  0.000000  1.154701  0.000000 )
               b(3) = (  0.000000 -0.000000  0.625000 )

     PseudoPot. # 1 for Zn read from file:
     ./pseudos/Zn.upf
     MD5 check sum: 7f56cabf9682ed8c977c2f7d0c5985c5
     Pseudo is Ultrasoft + core correction, Zval = 12.0
     Generated using &quot;atomic&quot; code by A. Dal Corso  v.6.2.2
     Using radial grid of 1201 points,  6 beta functions with:
                l(1) =   0
                l(2) =   0
                l(3) =   1
                l(4) =   1
                l(5) =   2
                l(6) =   2
     Q(r) pseudized with 0 coefficients

     PseudoPot. # 2 for O  read from file:
     ./pseudos/O.upf
     MD5 check sum: 91400c9766925bcf19f520983a725ff0
     Pseudo is Ultrasoft + core correction, Zval =  6.0
     Generated using &quot;atomic&quot; code by A. Dal Corso  v.6.3MaX
     Using radial grid of 1095 points,  4 beta functions with:
                l(1) =   0
                l(2) =   0
                l(3) =   1
                l(4) =   1
     Q(r) pseudized with 0 coefficients

     atomic species   valence    mass     pseudopotential
        Zn            12.00    63.38000     Zn( 1.00)
        O              6.00    15.99900     O ( 1.00)

     No symmetry found

   Cartesian axes

     site n.     atom                  positions (alat units)
         1           Zn  tau(   1) = (   0.5668002   0.2933845   0.8846664  )
         2           Zn  tau(   2) = (   0.1425001   0.6006438  -0.3301683  )
         3           O   tau(   3) = (   0.4821760   0.3504702   1.5683471  )
         4           O   tau(   4) = (  -0.0750425   0.4014377   0.5621055  )

     number of k points=   112

     Number of k-points >= 100: set verbosity='high' to print them.

     Check: negative core charge=   -0.000003

     Initial potential from superposition of free atoms

     starting charge      35.9925, renormalised to      36.0000
     Starting wfcs are   26 randomized atomic wfcs

     Self-consistent Calculation

     iteration #  1     ecut=    50.00 Ry     beta= 0.30
     Davidson diagonalization with overlap
     ethr =  1.00E-02,  avg # of iterations =  1.7

     total energy              =    -360.83371739 Ry
     estimated scf accuracy    <       1.11853487 Ry

[...]

     iteration # 18     ecut=    50.00 Ry     beta= 0.30
     Davidson diagonalization with overlap
     c_bands:  2 eigenvalues not converged
     ethr =  4.41E-07,  avg # of iterations =  7.4

[...]

     iteration # 35     ecut=    50.00 Ry     beta= 0.30
     Davidson diagonalization with overlap
     c_bands:  2 eigenvalues not converged
     ethr =  5.97E-10,  avg # of iterations =  7.8

[...]

     total energy              =    -361.22532204 Ry
     estimated scf accuracy    <       0.00000003 Ry

     iteration # 37     ecut=    50.00 Ry     beta= 0.30
     Davidson diagonalization with overlap
     ethr =  7.42E-11,  avg # of iterations =  6.9

     End of self-consistent calculation

     Number of k-points >= 100: set verbosity='high' to print the bands.

     highest occupied level (ev):     3.9602

!    total energy              =    -361.22532204 Ry
     estimated scf accuracy    <          5.5E-09 Ry

     The total energy is the sum of the following terms:
     one-electron contribution =    -204.55583494 Ry
     hartree contribution      =     138.30510734 Ry
     xc contribution           =    -108.91555161 Ry
     ewald contribution        =    -186.05904283 Ry

     convergence has been achieved in  37 iterations

     Forces acting on atoms (cartesian axes, Ry/au):

     atom    1 type  1   force =    -0.05198246   -0.01875378   -0.04590909
     atom    2 type  1   force =    -0.07873505    0.03552030    0.09601511
     atom    3 type  2   force =     0.04522288   -0.04332007   -0.09715767
     atom    4 type  2   force =     0.08549463    0.02655354    0.04705164
     The non-local contrib.  to forces
     atom    1 type  1   force =    -0.59726532   -0.18882757    0.52577704
     atom    2 type  1   force =    -0.43990834    0.29922657   -0.41286221
     atom    3 type  2   force =    -0.38303815    0.20942457   -1.18999525
     atom    4 type  2   force =    -0.49428069   -0.16446375    1.15842891
     The ionic contribution  to forces
     atom    1 type  1   force =    -2.87397836   -1.86062193  -10.34117312
     atom    2 type  1   force =    -4.36366119    2.62390960   10.17307847
     atom    3 type  2   force =     2.84921875   -2.02193570   11.64872824
     atom    4 type  2   force =     4.38842079    1.25864803  -11.48063359
     The local contribution  to forces
     atom    1 type  1   force =     3.37834310    2.01390864    9.79483635
     atom    2 type  1   force =     4.69303058   -2.86613780   -9.68361624
     atom    3 type  2   force =    -2.42402868    1.77062641  -10.56710514
     atom    4 type  2   force =    -3.81225771   -1.06886510   10.37972913
     The core correction contribution to forces
     atom    1 type  1   force =     0.04096940    0.01680849   -0.02547674
     atom    2 type  1   force =     0.03176342   -0.02147052    0.01941497
     atom    3 type  2   force =     0.00307118   -0.00143769    0.01125884
     atom    4 type  2   force =     0.00360746    0.00122672   -0.01046709
     The Hubbard contrib.    to forces
     atom    1 type  1   force =     0.00000000    0.00000000    0.00000000
     atom    2 type  1   force =     0.00000000    0.00000000    0.00000000
     atom    3 type  2   force =     0.00000000    0.00000000    0.00000000
     atom    4 type  2   force =     0.00000000    0.00000000    0.00000000
     The SCF correction term to forces
     atom    1 type  1   force =    -0.00005299   -0.00002620    0.00013591
     atom    2 type  1   force =     0.00003876   -0.00001233    0.00000865
     atom    3 type  2   force =    -0.00000194   -0.00000244   -0.00003584
     atom    4 type  2   force =     0.00000306    0.00000286    0.00000281

     Total force =     0.213145     Total SCF correction =     0.000158

     Writing all to output data dir ./ZnO_ANN.save/

     General routines

     Parallel routines

   This run was terminated on:  20: 3: 9  24Jun2025

   JOB DONE.
Note: The following floating-point exceptions are signalling: IEEE_INVALID_FLAG