     Program PWSCF v.7.2 starts on 24Jun2025 at 14:36:28

     Reading input from /home/jvc/QEspresso7.2/ZnO_DataBase/scf_025_NOSYM.in/scf-5.56-1.65-0.25-2.in

     Current dimensions of program PWSCF are:
     Max number of different atomic species (ntypx) = 10
     Max number of k-points (npk) =  40000
     Max angular momentum in pseudopotentials (lmaxx) =  4
     file Zn.upf: wavefunction(s)  3D renormalized

     R & G space division:  proc/nbgrp/npool/nimage =       8
     Subspace diagonalization in iterative solution of the eigenvalue problem:
     a serial algorithm will be used

     Using Slab Decomposition

     bravais-lattice index     =            0
     lattice parameter (alat)  =       5.5609  a.u.
     unit-cell volume          =     238.2841 (a.u.)^3
     number of atoms/cell      =            4
     number of atomic types    =            2
     number of electrons       =        36.00
     number of Kohn-Sham states=           18
     kinetic-energy cutoff     =      50.0000  Ry
     charge density cutoff     =     400.0000  Ry
     scf convergence threshold =      1.0E-08
     mixing beta               =       0.3000
     number of iterations used =            8  plain     mixing
     Exchange-correlation= PBE
                           (   1   4   3   4   0   0   0)

     celldm(1)=   5.560939  celldm(2)=   0.000000  celldm(3)=   0.000000
     celldm(4)=   0.000000  celldm(5)=   0.000000  celldm(6)=   0.000000

     crystal axes: (cart. coord. in units of alat)
               a(1) = (   1.000000   0.000000   0.000000 )
               a(2) = (  -0.500000   0.866025   0.000000 )
               a(3) = (   0.000000   0.000000   1.600000 )

     reciprocal axes: (cart. coord. in units 2 pi/alat)
               b(1) = (  1.000000  0.577350 -0.000000 )
               b(2) = (  0.000000  1.154701  0.000000 )
               b(3) = (  0.000000 -0.000000  0.625000 )

     PseudoPot. # 1 for Zn read from file:
     ./pseudos/Zn.upf
     MD5 check sum: 7f56cabf9682ed8c977c2f7d0c5985c5
     Pseudo is Ultrasoft + core correction, Zval = 12.0
     Generated using &quot;atomic&quot; code by A. Dal Corso  v.6.2.2
     Using radial grid of 1201 points,  6 beta functions with:
                l(1) =   0
                l(2) =   0
                l(3) =   1
                l(4) =   1
                l(5) =   2
                l(6) =   2
     Q(r) pseudized with 0 coefficients

     PseudoPot. # 2 for O  read from file:
     ./pseudos/O.upf
     MD5 check sum: 91400c9766925bcf19f520983a725ff0
     Pseudo is Ultrasoft + core correction, Zval =  6.0
     Generated using &quot;atomic&quot; code by A. Dal Corso  v.6.3MaX
     Using radial grid of 1095 points,  4 beta functions with:
                l(1) =   0
                l(2) =   0
                l(3) =   1
                l(4) =   1
     Q(r) pseudized with 0 coefficients

     atomic species   valence    mass     pseudopotential
        Zn            12.00    63.38000     Zn( 1.00)
        O              6.00    15.99900     O ( 1.00)

     No symmetry found

   Cartesian axes

     site n.     atom                  positions (alat units)
         1           Zn  tau(   1) = (   0.4887473   0.3110021   0.5544164  )
         2           Zn  tau(   2) = (  -0.3188726   0.7334043  -0.0023094  )
         3           O   tau(   3) = (   0.5530629   0.4646467   1.3553884  )
         4           O   tau(   4) = (   0.1733851   0.4319703   0.3213742  )

     number of k points=   112

     Number of k-points >= 100: set verbosity='high' to print them.

     Check: negative core charge=   -0.000002

     Initial potential from superposition of free atoms

     starting charge      35.9925, renormalised to      36.0000
     Starting wfcs are   26 randomized atomic wfcs

     Self-consistent Calculation

     iteration #  1     ecut=    50.00 Ry     beta= 0.30
     Davidson diagonalization with overlap
     ethr =  1.00E-02,  avg # of iterations =  2.7

     total energy              =    -358.45002195 Ry
     estimated scf accuracy    <       1.74889809 Ry

[...]

     iteration #  9     ecut=    50.00 Ry     beta= 0.30
     Davidson diagonalization with overlap
     c_bands:  1 eigenvalues not converged
     c_bands:  2 eigenvalues not converged
     c_bands:  1 eigenvalues not converged
     ethr =  2.46E-07,  avg # of iterations = 12.7

[...]

     total energy              =    -358.78433937 Ry
     estimated scf accuracy    <       0.00000004 Ry

     iteration # 22     ecut=    50.00 Ry     beta= 0.30
     Davidson diagonalization with overlap
     ethr =  9.73E-11,  avg # of iterations =  4.6

     End of self-consistent calculation

     Number of k-points >= 100: set verbosity='high' to print the bands.

     highest occupied level (ev):    14.3328

!    total energy              =    -358.78433938 Ry
     estimated scf accuracy    <          2.1E-09 Ry

     The total energy is the sum of the following terms:
     one-electron contribution =    -182.43753440 Ry
     hartree contribution      =     136.23300996 Ry
     xc contribution           =    -111.14483575 Ry
     ewald contribution        =    -201.43497919 Ry

     convergence has been achieved in  22 iterations

     Forces acting on atoms (cartesian axes, Ry/au):

     atom    1 type  1   force =     2.08040862   -0.81444027    1.83744248
     atom    2 type  1   force =     1.37080976    2.96669450    2.21533606
     atom    3 type  2   force =    -1.27823535   -2.87368712   -2.80421192
     atom    4 type  2   force =    -2.17298303    0.72143289   -1.24856661
     The non-local contrib.  to forces
     atom    1 type  1   force =     0.72548790   -0.39279118    0.14156457
     atom    2 type  1   force =     0.20300224    0.55806872    1.14716040
     atom    3 type  2   force =     0.40174233    0.33795880    0.02319408
     atom    4 type  2   force =     0.26292592   -0.54003013    0.78762490
     The ionic contribution  to forces
     atom    1 type  1   force =    13.57744934   -7.11867560   37.36095047
     atom    2 type  1   force =     7.56846780   16.64814002   -8.17499841
     atom    3 type  2   force =    -6.65163394  -15.31102959  -27.61591844
     atom    4 type  2   force =   -14.49428320    5.78156517   -1.57003362
     The local contribution  to forces
     atom    1 type  1   force =   -12.01722816    6.60685310  -35.49929994
     atom    2 type  1   force =    -6.29058141  -14.00713288    9.44001906
     atom    3 type  2   force =     4.97078110   12.09225870   24.77741708
     atom    4 type  2   force =    12.05231729   -4.52211191   -0.46363679
     The core correction contribution to forces
     atom    1 type  1   force =    -0.20526151    0.09012339   -0.16566630
     atom    2 type  1   force =    -0.11004538   -0.23231395   -0.19676132
     atom    3 type  2   force =     0.00086090    0.00710697    0.01101677
     atom    4 type  2   force =     0.00603854    0.00199535   -0.00244163
     The Hubbard contrib.    to forces
     atom    1 type  1   force =     0.00000000    0.00000000    0.00000000
     atom    2 type  1   force =     0.00000000    0.00000000    0.00000000
     atom    3 type  2   force =     0.00000000    0.00000000    0.00000000
     atom    4 type  2   force =     0.00000000    0.00000000    0.00000000
     The SCF correction term to forces
     atom    1 type  1   force =    -0.00005146    0.00004488   -0.00013300
     atom    2 type  1   force =    -0.00004599   -0.00007253   -0.00011035
     atom    3 type  2   force =     0.00000175    0.00001287    0.00005191
     atom    4 type  2   force =     0.00000590    0.00000928   -0.00010614

     Total force =     6.965093     Total SCF correction =     0.000237

     Writing all to output data dir ./ZnO_ANN.save/

     General routines

     Parallel routines

   This run was terminated on:  14:38:51  24Jun2025

   JOB DONE.
Note: The following floating-point exceptions are signalling: IEEE_INVALID_FLAG