     Program PWSCF v.7.2 starts on 24Jun2025 at 15: 8: 7

     Reading input from /home/jvc/QEspresso7.2/ZnO_DataBase/scf_025_NOSYM.in/scf-5.68-1.78-0.25-1.in

     Current dimensions of program PWSCF are:
     Max number of different atomic species (ntypx) = 10
     Max number of k-points (npk) =  40000
     Max angular momentum in pseudopotentials (lmaxx) =  4
     file Zn.upf: wavefunction(s)  3D renormalized

     R & G space division:  proc/nbgrp/npool/nimage =       8
     Subspace diagonalization in iterative solution of the eigenvalue problem:
     a serial algorithm will be used

     Using Slab Decomposition

     bravais-lattice index     =            0
     lattice parameter (alat)  =       5.6845  a.u.
     unit-cell volume          =     254.5253 (a.u.)^3
     number of atoms/cell      =            4
     number of atomic types    =            2
     number of electrons       =        36.00
     number of Kohn-Sham states=           18
     kinetic-energy cutoff     =      50.0000  Ry
     charge density cutoff     =     400.0000  Ry
     scf convergence threshold =      1.0E-08
     mixing beta               =       0.3000
     number of iterations used =            8  plain     mixing
     Exchange-correlation= PBE
                           (   1   4   3   4   0   0   0)

     celldm(1)=   5.684516  celldm(2)=   0.000000  celldm(3)=   0.000000
     celldm(4)=   0.000000  celldm(5)=   0.000000  celldm(6)=   0.000000

     crystal axes: (cart. coord. in units of alat)
               a(1) = (   1.000000   0.000000   0.000000 )
               a(2) = (  -0.500000   0.866025   0.000000 )
               a(3) = (   0.000000   0.000000   1.600000 )

     reciprocal axes: (cart. coord. in units 2 pi/alat)
               b(1) = (  1.000000  0.577350 -0.000000 )
               b(2) = (  0.000000  1.154701  0.000000 )
               b(3) = (  0.000000 -0.000000  0.625000 )

     PseudoPot. # 1 for Zn read from file:
     ./pseudos/Zn.upf
     MD5 check sum: 7f56cabf9682ed8c977c2f7d0c5985c5
     Pseudo is Ultrasoft + core correction, Zval = 12.0
     Generated using &quot;atomic&quot; code by A. Dal Corso  v.6.2.2
     Using radial grid of 1201 points,  6 beta functions with:
                l(1) =   0
                l(2) =   0
                l(3) =   1
                l(4) =   1
                l(5) =   2
                l(6) =   2
     Q(r) pseudized with 0 coefficients

     PseudoPot. # 2 for O  read from file:
     ./pseudos/O.upf
     MD5 check sum: 91400c9766925bcf19f520983a725ff0
     Pseudo is Ultrasoft + core correction, Zval =  6.0
     Generated using &quot;atomic&quot; code by A. Dal Corso  v.6.3MaX
     Using radial grid of 1095 points,  4 beta functions with:
                l(1) =   0
                l(2) =   0
                l(3) =   1
                l(4) =   1
     Q(r) pseudized with 0 coefficients

     atomic species   valence    mass     pseudopotential
        Zn            12.00    63.38000     Zn( 1.00)
        O              6.00    15.99900     O ( 1.00)

     No symmetry found

   Cartesian axes

     site n.     atom                  positions (alat units)
         1           Zn  tau(   1) = (   0.4730493   0.2058467   0.6011830  )
         2           Zn  tau(   2) = (   0.0281775   0.4654089  -0.3757637  )
         3           O   tau(   3) = (   0.5288633   0.2430992   1.7885833  )
         4           O   tau(   4) = (   0.0644000   0.6937631   0.5301896  )

     number of k points=   112

     Number of k-points >= 100: set verbosity='high' to print them.

     Check: negative core charge=   -0.000002

     Initial potential from superposition of free atoms

     starting charge      35.9925, renormalised to      36.0000
     Starting wfcs are   26 randomized atomic wfcs

     Self-consistent Calculation

     iteration #  1     ecut=    50.00 Ry     beta= 0.30
     Davidson diagonalization with overlap
     ethr =  1.00E-02,  avg # of iterations =  3.0

     total energy              =    -358.98471002 Ry
     estimated scf accuracy    <       1.56829997 Ry

[...]

     total energy              =    -359.35952289 Ry
     estimated scf accuracy    <       0.00000003 Ry

     iteration # 42     ecut=    50.00 Ry     beta= 0.30
     Davidson diagonalization with overlap
     ethr =  4.54E-11,  avg # of iterations =  4.8

     End of self-consistent calculation

     Number of k-points >= 100: set verbosity='high' to print the bands.

     highest occupied level (ev):    13.0502

!    total energy              =    -359.35952289 Ry
     estimated scf accuracy    <          1.4E-09 Ry

     The total energy is the sum of the following terms:
     one-electron contribution =    -156.78702738 Ry
     hartree contribution      =     122.05147612 Ry
     xc contribution           =    -110.55971537 Ry
     ewald contribution        =    -214.06425625 Ry

     convergence has been achieved in  42 iterations

     Forces acting on atoms (cartesian axes, Ry/au):

     atom    1 type  1   force =    -0.92053760    2.56442355    2.39715541
     atom    2 type  1   force =    -0.00897222   -0.00701429    0.10784440
     atom    3 type  2   force =     0.26404481    0.32990629   -2.25465529
     atom    4 type  2   force =     0.66546501   -2.88731555   -0.25034452
     The non-local contrib.  to forces
     atom    1 type  1   force =    -0.00359849   -0.03270950    0.13355443
     atom    2 type  1   force =    -0.09792375    0.28331580    0.13541004
     atom    3 type  2   force =    -0.13983749   -0.21353758    1.05921573
     atom    4 type  2   force =    -0.07558795    1.10549347    0.85920527
     The ionic contribution  to forces
     atom    1 type  1   force =    -5.54528196   15.33431772   20.20936357
     atom    2 type  1   force =    -0.61345968   -0.35894146    9.10257010
     atom    3 type  2   force =     2.41978010    3.71329352  -25.05645755
     atom    4 type  2   force =     3.73896154  -18.68866978   -4.25547613
     The local contribution  to forces
     atom    1 type  1   force =     4.55885211  -12.53789813  -17.72680689
     atom    2 type  1   force =     0.69834815    0.07551406   -9.11401758
     atom    3 type  2   force =    -2.01578133   -3.17059761   21.74186416
     atom    4 type  2   force =    -2.99608284   14.69481488    3.15131169
     The core correction contribution to forces
     atom    1 type  1   force =     0.06949101   -0.19925342   -0.21907998
     atom    2 type  1   force =     0.00406817   -0.00691345   -0.01603130
     atom    3 type  2   force =    -0.00011535    0.00075084    0.00067603
     atom    4 type  2   force =    -0.00182482    0.00104918   -0.00544464
     The Hubbard contrib.    to forces
     atom    1 type  1   force =     0.00000000    0.00000000    0.00000000
     atom    2 type  1   force =     0.00000000    0.00000000    0.00000000
     atom    3 type  2   force =     0.00000000    0.00000000    0.00000000
     atom    4 type  2   force =     0.00000000    0.00000000    0.00000000
     The SCF correction term to forces
     atom    1 type  1   force =     0.00000109   -0.00003745    0.00012446
     atom    2 type  1   force =    -0.00000375    0.00000642   -0.00008670
     atom    3 type  2   force =     0.00000023   -0.00000721    0.00004650
     atom    4 type  2   force =     0.00000043   -0.00000765    0.00005945

     Total force =     5.223591     Total SCF correction =     0.000174

     Writing all to output data dir ./ZnO_ANN.save/

     General routines

     Parallel routines

   This run was terminated on:  15:11:56  24Jun2025

   JOB DONE.
Note: The following floating-point exceptions are signalling: IEEE_INVALID_FLAG