     Program PWSCF v.7.2 starts on 24Jun2025 at 19: 8:23

     Reading input from /home/jvc/QEspresso7.2/ZnO_DataBase/scf_025_NOSYM.in/scf-6.55-1.58-0.25-1.in

     Current dimensions of program PWSCF are:
     Max number of different atomic species (ntypx) = 10
     Max number of k-points (npk) =  40000
     Max angular momentum in pseudopotentials (lmaxx) =  4
     file Zn.upf: wavefunction(s)  3D renormalized

     R & G space division:  proc/nbgrp/npool/nimage =       8
     Subspace diagonalization in iterative solution of the eigenvalue problem:
     a serial algorithm will be used

     Using Slab Decomposition

     bravais-lattice index     =            0
     lattice parameter (alat)  =       6.5496  a.u.
     unit-cell volume          =     389.3007 (a.u.)^3
     number of atoms/cell      =            4
     number of atomic types    =            2
     number of electrons       =        36.00
     number of Kohn-Sham states=           18
     kinetic-energy cutoff     =      50.0000  Ry
     charge density cutoff     =     400.0000  Ry
     scf convergence threshold =      1.0E-08
     mixing beta               =       0.3000
     number of iterations used =            8  plain     mixing
     Exchange-correlation= PBE
                           (   1   4   3   4   0   0   0)

     celldm(1)=   6.549551  celldm(2)=   0.000000  celldm(3)=   0.000000
     celldm(4)=   0.000000  celldm(5)=   0.000000  celldm(6)=   0.000000

     crystal axes: (cart. coord. in units of alat)
               a(1) = (   1.000000   0.000000   0.000000 )
               a(2) = (  -0.500000   0.866025   0.000000 )
               a(3) = (   0.000000   0.000000   1.600000 )

     reciprocal axes: (cart. coord. in units 2 pi/alat)
               b(1) = (  1.000000  0.577350 -0.000000 )
               b(2) = (  0.000000  1.154701  0.000000 )
               b(3) = (  0.000000 -0.000000  0.625000 )

     PseudoPot. # 1 for Zn read from file:
     ./pseudos/Zn.upf
     MD5 check sum: 7f56cabf9682ed8c977c2f7d0c5985c5
     Pseudo is Ultrasoft + core correction, Zval = 12.0
     Generated using &quot;atomic&quot; code by A. Dal Corso  v.6.2.2
     Using radial grid of 1201 points,  6 beta functions with:
                l(1) =   0
                l(2) =   0
                l(3) =   1
                l(4) =   1
                l(5) =   2
                l(6) =   2
     Q(r) pseudized with 0 coefficients

     PseudoPot. # 2 for O  read from file:
     ./pseudos/O.upf
     MD5 check sum: 91400c9766925bcf19f520983a725ff0
     Pseudo is Ultrasoft + core correction, Zval =  6.0
     Generated using &quot;atomic&quot; code by A. Dal Corso  v.6.3MaX
     Using radial grid of 1095 points,  4 beta functions with:
                l(1) =   0
                l(2) =   0
                l(3) =   1
                l(4) =   1
     Q(r) pseudized with 0 coefficients

     atomic species   valence    mass     pseudopotential
        Zn            12.00    63.38000     Zn( 1.00)
        O              6.00    15.99900     O ( 1.00)

     No symmetry found

   Cartesian axes

     site n.     atom                  positions (alat units)
         1           Zn  tau(   1) = (   0.3783221   0.2164786   0.9692560  )
         2           Zn  tau(   2) = (  -0.0183159   0.4659721   0.3785294  )
         3           O   tau(   3) = (   0.4449478   0.1550507   1.0326085  )
         4           O   tau(   4) = (   0.1645160   0.6874723   0.9513805  )

     number of k points=   112

     Number of k-points >= 100: set verbosity='high' to print them.

     Check: negative core charge=   -0.000002

     Initial potential from superposition of free atoms

     starting charge      35.9925, renormalised to      36.0000
     Starting wfcs are   26 randomized atomic wfcs

     Self-consistent Calculation

     iteration #  1     ecut=    50.00 Ry     beta= 0.30
     Davidson diagonalization with overlap
     ethr =  1.00E-02,  avg # of iterations =  5.4

     total energy              =    -296.77599159 Ry
     estimated scf accuracy    <       2.65001217 Ry

[...]

     iteration #  6     ecut=    50.00 Ry     beta= 0.30
     Davidson diagonalization with overlap
     c_bands:  1 eigenvalues not converged
     c_bands:  1 eigenvalues not converged
     c_bands:  1 eigenvalues not converged
     ethr =  8.04E-05,  avg # of iterations =  6.4

[...]

     iteration # 20     ecut=    50.00 Ry     beta= 0.30
     Davidson diagonalization with overlap
     c_bands:  1 eigenvalues not converged
     ethr =  7.64E-10,  avg # of iterations =  8.6

[...]

     total energy              =    -296.66307268 Ry
     estimated scf accuracy    <       0.00000002 Ry

     iteration # 26     ecut=    50.00 Ry     beta= 0.30
     Davidson diagonalization with overlap
     ethr =  4.53E-11,  avg # of iterations =  5.1

     End of self-consistent calculation

     Number of k-points >= 100: set verbosity='high' to print the bands.

     highest occupied level (ev):     7.8751

!    total energy              =    -296.66307268 Ry
     estimated scf accuracy    <          2.2E-09 Ry

     The total energy is the sum of the following terms:
     one-electron contribution =    -359.72217245 Ry
     hartree contribution      =     206.96508319 Ry
     xc contribution           =    -115.44556095 Ry
     ewald contribution        =     -28.46042247 Ry

     convergence has been achieved in  26 iterations

     Forces acting on atoms (cartesian axes, Ry/au):

     atom    1 type  1   force =  -121.21301337  111.71051068 -115.25535666
     atom    2 type  1   force =    -0.01719862   -0.00865907   -0.07886591
     atom    3 type  2   force =   121.00112155 -111.40367878  115.43078891
     atom    4 type  2   force =     0.22909045   -0.29817283   -0.09656635
     The non-local contrib.  to forces
     atom    1 type  1   force =    24.70286575  -23.04312679   22.46606687
     atom    2 type  1   force =     0.24042678    0.09930778    0.27211662
     atom    3 type  2   force =    -1.80023482    1.29845595   -2.68183871
     atom    4 type  2   force =    -0.92212763    1.07064523   -0.14332726
     The ionic contribution  to forces
     atom    1 type  1   force =  -165.20227680  151.74119160 -145.49539815
     atom    2 type  1   force =    -1.77203162   -0.62808400  -22.44035981
     atom    3 type  2   force =   161.15536518 -146.77133524  164.38858439
     atom    4 type  2   force =     5.81894324   -4.34177235    3.54717357
     The local contribution  to forces
     atom    1 type  1   force =    17.96958960  -15.77902696    6.50037511
     atom    2 type  1   force =     1.51710539    0.52115567   22.08520583
     atom    3 type  2   force =   -38.04358280   33.77989178  -45.98733303
     atom    4 type  2   force =    -4.67522283    2.98294121   -3.50189461
     The core correction contribution to forces
     atom    1 type  1   force =     1.31676463   -1.20848239    1.27356931
     atom    2 type  1   force =    -0.00264148   -0.00110843    0.00413260
     atom    3 type  2   force =    -0.31040024    0.28930638   -0.28853953
     atom    4 type  2   force =     0.00759626   -0.01008485    0.00153265
     The Hubbard contrib.    to forces
     atom    1 type  1   force =     0.00000000    0.00000000    0.00000000
     atom    2 type  1   force =     0.00000000    0.00000000    0.00000000
     atom    3 type  2   force =     0.00000000    0.00000000    0.00000000
     atom    4 type  2   force =     0.00000000    0.00000000    0.00000000
     The SCF correction term to forces
     atom    1 type  1   force =     0.00010285   -0.00009925    0.00010713
     atom    2 type  1   force =     0.00000172    0.00001545    0.00011577
     atom    3 type  2   force =     0.00003363   -0.00005211   -0.00000729
     atom    4 type  2   force =    -0.00003919    0.00004347    0.00002621

     Total force =   284.309876     Total SCF correction =     0.000231

     Writing all to output data dir ./ZnO_ANN.save/

     General routines

     Parallel routines

   This run was terminated on:  19:12: 1  24Jun2025

   JOB DONE.
Note: The following floating-point exceptions are signalling: IEEE_INVALID_FLAG