     Program PWSCF v.7.2 starts on 24Jun2025 at 17: 8: 2

     Reading input from /home/jvc/QEspresso7.2/ZnO_DataBase/scf_025_NOSYM.in/scf-6.18-1.65-0.25-2.in

     Current dimensions of program PWSCF are:
     Max number of different atomic species (ntypx) = 10
     Max number of k-points (npk) =  40000
     Max angular momentum in pseudopotentials (lmaxx) =  4
     file Zn.upf: wavefunction(s)  3D renormalized

     R & G space division:  proc/nbgrp/npool/nimage =       8
     Subspace diagonalization in iterative solution of the eigenvalue problem:
     a serial algorithm will be used

     Using Slab Decomposition

     bravais-lattice index     =            0
     lattice parameter (alat)  =       6.1788  a.u.
     unit-cell volume          =     326.8643 (a.u.)^3
     number of atoms/cell      =            4
     number of atomic types    =            2
     number of electrons       =        36.00
     number of Kohn-Sham states=           18
     kinetic-energy cutoff     =      50.0000  Ry
     charge density cutoff     =     400.0000  Ry
     scf convergence threshold =      1.0E-08
     mixing beta               =       0.3000
     number of iterations used =            8  plain     mixing
     Exchange-correlation= PBE
                           (   1   4   3   4   0   0   0)

     celldm(1)=   6.178821  celldm(2)=   0.000000  celldm(3)=   0.000000
     celldm(4)=   0.000000  celldm(5)=   0.000000  celldm(6)=   0.000000

     crystal axes: (cart. coord. in units of alat)
               a(1) = (   1.000000   0.000000   0.000000 )
               a(2) = (  -0.500000   0.866025   0.000000 )
               a(3) = (   0.000000   0.000000   1.600000 )

     reciprocal axes: (cart. coord. in units 2 pi/alat)
               b(1) = (  1.000000  0.577350 -0.000000 )
               b(2) = (  0.000000  1.154701  0.000000 )
               b(3) = (  0.000000 -0.000000  0.625000 )

     PseudoPot. # 1 for Zn read from file:
     ./pseudos/Zn.upf
     MD5 check sum: 7f56cabf9682ed8c977c2f7d0c5985c5
     Pseudo is Ultrasoft + core correction, Zval = 12.0
     Generated using &quot;atomic&quot; code by A. Dal Corso  v.6.2.2
     Using radial grid of 1201 points,  6 beta functions with:
                l(1) =   0
                l(2) =   0
                l(3) =   1
                l(4) =   1
                l(5) =   2
                l(6) =   2
     Q(r) pseudized with 0 coefficients

     PseudoPot. # 2 for O  read from file:
     ./pseudos/O.upf
     MD5 check sum: 91400c9766925bcf19f520983a725ff0
     Pseudo is Ultrasoft + core correction, Zval =  6.0
     Generated using &quot;atomic&quot; code by A. Dal Corso  v.6.3MaX
     Using radial grid of 1095 points,  4 beta functions with:
                l(1) =   0
                l(2) =   0
                l(3) =   1
                l(4) =   1
     Q(r) pseudized with 0 coefficients

     atomic species   valence    mass     pseudopotential
        Zn            12.00    63.38000     Zn( 1.00)
        O              6.00    15.99900     O ( 1.00)

     No symmetry found

   Cartesian axes

     site n.     atom                  positions (alat units)
         1           Zn  tau(   1) = (   0.2163032   0.4207274   0.9411673  )
         2           Zn  tau(   2) = (   0.0530603   0.5433642  -0.3891729  )
         3           O   tau(   3) = (   0.5646095   0.4368722   1.7865668  )
         4           O   tau(   4) = (  -0.0774462   0.4013211   0.6401225  )

     number of k points=   112

     Number of k-points >= 100: set verbosity='high' to print them.

     Check: negative core charge=   -0.000003

     Initial potential from superposition of free atoms

     starting charge      35.9925, renormalised to      36.0000
     Starting wfcs are   26 randomized atomic wfcs

     Self-consistent Calculation

     iteration #  1     ecut=    50.00 Ry     beta= 0.30
     Davidson diagonalization with overlap
     ethr =  1.00E-02,  avg # of iterations =  3.8

     total energy              =    -355.94093598 Ry
     estimated scf accuracy    <       1.90681005 Ry

[...]

     iteration #  4     ecut=    50.00 Ry     beta= 0.30
     Davidson diagonalization with overlap
     c_bands:  1 eigenvalues not converged
     ethr =  1.38E-03,  avg # of iterations =  9.6

[...]

     iteration # 38     ecut=    50.00 Ry     beta= 0.30
     Davidson diagonalization with overlap
     c_bands:  1 eigenvalues not converged
     c_bands:  1 eigenvalues not converged
     c_bands:  1 eigenvalues not converged
     c_bands:  1 eigenvalues not converged
     c_bands:  1 eigenvalues not converged
     ethr =  1.50E-10,  avg # of iterations = 10.8

[...]

     total energy              =    -356.60513203 Ry
     estimated scf accuracy    <       0.00000009 Ry

     iteration # 43     ecut=    50.00 Ry     beta= 0.30
     Davidson diagonalization with overlap
     ethr =  1.50E-10,  avg # of iterations =  7.2

     End of self-consistent calculation

     Number of k-points >= 100: set verbosity='high' to print the bands.

     highest occupied level (ev):     7.8581

!    total energy              =    -356.60513204 Ry
     estimated scf accuracy    <          2.4E-09 Ry

     The total energy is the sum of the following terms:
     one-electron contribution =    -253.43411851 Ry
     hartree contribution      =     163.68474967 Ry
     xc contribution           =    -111.12872408 Ry
     ewald contribution        =    -155.72703912 Ry

     convergence has been achieved in  43 iterations

     Forces acting on atoms (cartesian axes, Ry/au):

     atom    1 type  1   force =     5.63507780   -3.58285399   -7.21728677
     atom    2 type  1   force =    -4.84582143    3.64881140    8.17370170
     atom    3 type  2   force =     0.04043580    0.00383560   -0.09302011
     atom    4 type  2   force =    -0.82969217   -0.06979301   -0.86339481
     The non-local contrib.  to forces
     atom    1 type  1   force =    -1.27506515    1.46645502    3.66689511
     atom    2 type  1   force =     1.76457323   -1.30119792   -3.04447374
     atom    3 type  2   force =     0.32197933    0.04668661   -0.14764870
     atom    4 type  2   force =     0.26007810    0.23804092    0.99520601
     The ionic contribution  to forces
     atom    1 type  1   force =    35.57688256  -18.99844387  -36.99108478
     atom    2 type  1   force =   -25.04409637   21.03001774   58.67835901
     atom    3 type  2   force =    -0.89505707   -0.05613538   -0.28896184
     atom    4 type  2   force =    -9.63772912   -1.97543850  -21.39831239
     The local contribution  to forces
     atom    1 type  1   force =   -28.31169553   13.77372856   25.80525048
     atom    2 type  1   force =    18.18221037  -15.88598193  -47.02948593
     atom    3 type  2   force =     0.61696092    0.01377700    0.34246144
     atom    4 type  2   force =     8.54549252    1.66938586   19.54249280
     The core correction contribution to forces
     atom    1 type  1   force =    -0.35507759    0.17541152    0.30152431
     atom    2 type  1   force =     0.25149306   -0.19402238   -0.43063504
     atom    3 type  2   force =    -0.00342647   -0.00049031    0.00122590
     atom    4 type  2   force =     0.00244742   -0.00177838   -0.00284071
     The Hubbard contrib.    to forces
     atom    1 type  1   force =     0.00000000    0.00000000    0.00000000
     atom    2 type  1   force =     0.00000000    0.00000000    0.00000000
     atom    3 type  2   force =     0.00000000    0.00000000    0.00000000
     atom    4 type  2   force =     0.00000000    0.00000000    0.00000000
     The SCF correction term to forces
     atom    1 type  1   force =     0.00003462   -0.00000626    0.00015334
     atom    2 type  1   force =    -0.00000063   -0.00000515   -0.00003736
     atom    3 type  2   force =    -0.00001981   -0.00000336   -0.00007168
     atom    4 type  2   force =     0.00002001   -0.00000395    0.00008471

     Total force =    14.203323     Total SCF correction =     0.000198

     Writing all to output data dir ./ZnO_ANN.save/

     General routines

     Parallel routines

   This run was terminated on:  17:13: 7  24Jun2025

   JOB DONE.
Note: The following floating-point exceptions are signalling: IEEE_INVALID_FLAG