     Program PWSCF v.7.2 starts on 25Jul2025 at  1:57: 3

     Reading input from /home/jvc/QEspresso7.2/ZnO_database/scripts/cell133.in/ZnO-2.94-1.58-133.in
Warning: card &CELL ignored
Warning: card / ignored
Warning: card &FCP ignored
Warning: card / ignored
Warning: card &RISM ignored
Warning: card / ignored

     Current dimensions of program PWSCF are:
     Max number of different atomic species (ntypx) = 10
     Max number of k-points (npk) =  40000
     Max angular momentum in pseudopotentials (lmaxx) =  4
     file Zn.upf: wavefunction(s)  3D renormalized
     Found identity + (  0.0000  0.0000  0.3333) symmetry
     This is a supercell, fractional translations are disabled
     Message from routine setup:
     using ibrav=0 with symmetry is DISCOURAGED, use correct ibrav instead

     K-points division:     npool     =       4
     R & G space division:  proc/nbgrp/npool/nimage =       4
     Subspace diagonalization in iterative solution of the eigenvalue problem:
     one sub-group per band group will be used

     Using Slab Decomposition

     bravais-lattice index     =            0
     lattice parameter (alat)  =       6.1788  a.u.
     unit-cell volume          =    2968.1791 (a.u.)^3
     number of atoms/cell      =           36
     number of atomic types    =            2
     number of electrons       =       324.00
     number of Kohn-Sham states=          162
     kinetic-energy cutoff     =      50.0000  Ry
     charge density cutoff     =     400.0000  Ry
     scf convergence threshold =      1.0E-08
     mixing beta               =       0.3000
     number of iterations used =            8  plain     mixing
     Exchange-correlation= PBE
                           (   1   4   3   4   0   0   0)

     celldm(1)=   6.178822  celldm(2)=   0.000000  celldm(3)=   0.000000
     celldm(4)=   0.000000  celldm(5)=   0.000000  celldm(6)=   0.000000

     crystal axes: (cart. coord. in units of alat)
               a(1) = (   1.000000   0.000000   0.000000 )
               a(2) = (  -1.500000   2.598076   0.000000 )
               a(3) = (   0.000000   0.000000   4.843075 )

     reciprocal axes: (cart. coord. in units 2 pi/alat)
               b(1) = (  1.000000  0.577350 -0.000000 )
               b(2) = (  0.000000  0.384900  0.000000 )
               b(3) = (  0.000000 -0.000000  0.206480 )

     PseudoPot. # 1 for Zn read from file:
     /home/jvc/QEspresso7.2/ZnO_database/pseudos/Zn.upf
     MD5 check sum: 7f56cabf9682ed8c977c2f7d0c5985c5
     Pseudo is Ultrasoft + core correction, Zval = 12.0
     Generated using &quot;atomic&quot; code by A. Dal Corso  v.6.2.2
     Using radial grid of 1201 points,  6 beta functions with:
                l(1) =   0
                l(2) =   0
                l(3) =   1
                l(4) =   1
                l(5) =   2
                l(6) =   2
     Q(r) pseudized with 0 coefficients

     PseudoPot. # 2 for O  read from file:
     /home/jvc/QEspresso7.2/ZnO_database/pseudos/O.upf
     MD5 check sum: 91400c9766925bcf19f520983a725ff0
     Pseudo is Ultrasoft + core correction, Zval =  6.0
     Generated using &quot;atomic&quot; code by A. Dal Corso  v.6.3MaX
     Using radial grid of 1095 points,  4 beta functions with:
                l(1) =   0
                l(2) =   0
                l(3) =   1
                l(4) =   1
     Q(r) pseudized with 0 coefficients

     atomic species   valence    mass     pseudopotential
        Zn            12.00    65.38000     Zn( 1.00)
        O              6.00    15.99900     O ( 1.00)

      2 Sym. Ops. (no inversion) found

                                    s                        frac. trans.

      isym =  1     identity

 cryst.   s( 1) = (     1          0          0      )
                  (     0          1          0      )
                  (     0          0          1      )

 cart.    s( 1) = (  1.0000000  0.0000000  0.0000000 )
                  (  0.0000000  1.0000000  0.0000000 )
                  (  0.0000000  0.0000000  1.0000000 )

      isym =  2     inv. 180 deg rotation - cart. axis [1,0,0]

 cryst.   s( 2) = (    -1          0          0      )
                  (     3          1          0      )
                  (     0          0          1      )

 cart.    s( 2) = ( -1.0000000  0.0000000  0.0000000 )
                  (  0.0000000  1.0000000  0.0000000 )
                  (  0.0000000  0.0000000  1.0000000 )

   Cartesian axes

     site n.     atom                  positions (alat units)
         1           Zn  tau(   1) = (   0.5000000   0.2886751   0.8082020  )
         2           Zn  tau(   2) = (   0.0000000   0.5773503   0.0010228  )
         3           O   tau(   3) = (   0.5000000   0.2886751   1.4201130  )
         4           O   tau(   4) = (   0.0000000   0.5773503   0.6129338  )
         5           Zn  tau(   5) = (   0.5000000   0.2886751   2.4225604  )
         6           Zn  tau(   6) = (   0.0000000   0.5773503   1.6153812  )
         7           O   tau(   7) = (   0.5000000   0.2886751   3.0344713  )
         8           O   tau(   8) = (   0.0000000   0.5773503   2.2272921  )
         9           Zn  tau(   9) = (   0.5000000   0.2886751   4.0369187  )
        10           Zn  tau(  10) = (   0.0000000   0.5773503   3.2297395  )
        11           O   tau(  11) = (   0.5000000   0.2886751   4.6488297  )
        12           O   tau(  12) = (   0.0000000   0.5773503   3.8416505  )
        13           Zn  tau(  13) = (   0.0000000   1.1547005   0.8082020  )
        14           Zn  tau(  14) = (  -0.5000000   1.4433757   0.0010228  )
        15           O   tau(  15) = (   0.0000000   1.1547005   1.4201130  )
        16           O   tau(  16) = (  -0.5000000   1.4433757   0.6129338  )
        17           Zn  tau(  17) = (   0.0000000   1.1547005   2.4225604  )
        18           Zn  tau(  18) = (  -0.5000000   1.4433757   1.6153812  )
        19           O   tau(  19) = (   0.0000000   1.1547005   3.0344713  )
        20           O   tau(  20) = (  -0.5000000   1.4433757   2.2272921  )
        21           Zn  tau(  21) = (   0.0000000   1.1547005   4.0369187  )
        22           Zn  tau(  22) = (  -0.5000000   1.4433757   3.2297395  )
        23           O   tau(  23) = (   0.0000000   1.1547005   4.6488297  )
        24           O   tau(  24) = (  -0.5000000   1.4433757   3.8416505  )
        25           Zn  tau(  25) = (  -0.5000000   2.0207259   0.8082020  )
        26           Zn  tau(  26) = (  -1.0000000   2.3094011   0.0010228  )
        27           O   tau(  27) = (  -0.5000000   2.0207259   1.4201130  )
        28           O   tau(  28) = (  -1.0000000   2.3094011   0.6129338  )
        29           Zn  tau(  29) = (  -0.5000000   2.0207259   2.4225604  )
        30           Zn  tau(  30) = (  -1.0000000   2.3094011   1.6153812  )
        31           O   tau(  31) = (  -0.5000000   2.0207259   3.0344713  )
        32           O   tau(  32) = (  -1.0000000   2.3094011   2.2272921  )
        33           Zn  tau(  33) = (  -0.5000000   2.0207259   4.0369187  )
        34           Zn  tau(  34) = (  -1.0000000   2.3094011   3.2297395  )
        35           O   tau(  35) = (  -0.5000000   2.0207259   4.6488297  )
        36           O   tau(  36) = (  -1.0000000   2.3094011   3.8416505  )

   Crystallographic axes

     site n.     atom                  positions (cryst. coord.)
         1           Zn  tau(   1) = (  0.6666667  0.1111111  0.1668779  )
         2           Zn  tau(   2) = (  0.3333333  0.2222222  0.0002112  )
         3           O   tau(   3) = (  0.6666667  0.1111111  0.2932255  )
         4           O   tau(   4) = (  0.3333333  0.2222222  0.1265588  )
         5           Zn  tau(   5) = (  0.6666667  0.1111111  0.5002112  )
         6           Zn  tau(   6) = (  0.3333333  0.2222222  0.3335445  )
         7           O   tau(   7) = (  0.6666667  0.1111111  0.6265588  )
         8           O   tau(   8) = (  0.3333333  0.2222222  0.4598921  )
         9           Zn  tau(   9) = (  0.6666667  0.1111111  0.8335445  )
        10           Zn  tau(  10) = (  0.3333333  0.2222222  0.6668779  )
        11           O   tau(  11) = (  0.6666667  0.1111111  0.9598921  )
        12           O   tau(  12) = (  0.3333333  0.2222222  0.7932255  )
        13           Zn  tau(  13) = (  0.6666667  0.4444444  0.1668779  )
        14           Zn  tau(  14) = (  0.3333333  0.5555556  0.0002112  )
        15           O   tau(  15) = (  0.6666667  0.4444444  0.2932255  )
        16           O   tau(  16) = (  0.3333333  0.5555556  0.1265588  )
        17           Zn  tau(  17) = (  0.6666667  0.4444444  0.5002112  )
        18           Zn  tau(  18) = (  0.3333333  0.5555556  0.3335445  )
        19           O   tau(  19) = (  0.6666667  0.4444444  0.6265588  )
        20           O   tau(  20) = (  0.3333333  0.5555556  0.4598921  )
        21           Zn  tau(  21) = (  0.6666667  0.4444444  0.8335445  )
        22           Zn  tau(  22) = (  0.3333333  0.5555556  0.6668779  )
        23           O   tau(  23) = (  0.6666667  0.4444444  0.9598921  )
        24           O   tau(  24) = (  0.3333333  0.5555556  0.7932255  )
        25           Zn  tau(  25) = (  0.6666667  0.7777778  0.1668779  )
        26           Zn  tau(  26) = (  0.3333333  0.8888889  0.0002112  )
        27           O   tau(  27) = (  0.6666667  0.7777778  0.2932255  )
        28           O   tau(  28) = (  0.3333333  0.8888889  0.1265588  )
        29           Zn  tau(  29) = (  0.6666667  0.7777778  0.5002112  )
        30           Zn  tau(  30) = (  0.3333333  0.8888889  0.3335445  )
        31           O   tau(  31) = (  0.6666667  0.7777778  0.6265588  )
        32           O   tau(  32) = (  0.3333333  0.8888889  0.4598921  )
        33           Zn  tau(  33) = (  0.6666667  0.7777778  0.8335445  )
        34           Zn  tau(  34) = (  0.3333333  0.8888889  0.6668779  )
        35           O   tau(  35) = (  0.6666667  0.7777778  0.9598921  )
        36           O   tau(  36) = (  0.3333333  0.8888889  0.7932255  )

     number of k points=    12
                       cart. coord. in units 2pi/alat
        k(    1) = (   0.0000000   0.0000000   0.0000000), wk =   0.0833333
        k(    2) = (   0.0000000   0.0000000  -0.1032402), wk =   0.0833333
        k(    3) = (   0.0000000  -0.1924501   0.0000000), wk =   0.0833333
        k(    4) = (   0.0000000  -0.1924501  -0.1032402), wk =   0.0833333
        k(    5) = (   0.1666667   0.0962250   0.0000000), wk =   0.3333333
        k(    6) = (   0.1666667   0.0962250  -0.1032402), wk =   0.3333333
        k(    7) = (   0.3333333   0.1924501   0.0000000), wk =   0.1666667
        k(    8) = (   0.3333333   0.1924501  -0.1032402), wk =   0.1666667
        k(    9) = (   0.3333333  -0.0000000   0.0000000), wk =   0.1666667
        k(   10) = (   0.3333333  -0.0000000  -0.1032402), wk =   0.1666667
        k(   11) = (  -0.5000000  -0.2886751   0.0000000), wk =   0.1666667
        k(   12) = (  -0.5000000  -0.2886751  -0.1032402), wk =   0.1666667

                       cryst. coord.
[...]
     atom   11 type  2   force =     0.00000000    0.00000149    0.00575323
     atom   12 type  2   force =     0.00000000    0.00000061    0.00575521
     atom   13 type  1   force =     0.00000000    0.00000076   -0.00482748
     atom   14 type  1   force =     0.00000000    0.00000131   -0.00483266
     atom   15 type  2   force =     0.00000000    0.00000000    0.00575183
     atom   16 type  2   force =     0.00000000   -0.00000114    0.00575125
     atom   17 type  1   force =     0.00000000    0.00000077   -0.00483529
     atom   18 type  1   force =     0.00000000    0.00000052   -0.00483088
     atom   19 type  2   force =     0.00000000    0.00000008    0.00575688
     atom   20 type  2   force =     0.00000000   -0.00000074    0.00575564
     atom   21 type  1   force =     0.00000000    0.00000103   -0.00483469
     atom   22 type  1   force =     0.00000000    0.00000109   -0.00483764
     atom   23 type  2   force =     0.00000000   -0.00000043    0.00575302
     atom   24 type  2   force =     0.00000000   -0.00000120    0.00575465
     atom   25 type  1   force =     0.00000000    0.00000029   -0.00482885
     atom   26 type  1   force =     0.00000000   -0.00000039   -0.00483211
     atom   27 type  2   force =     0.00000000    0.00000002    0.00575294
     atom   28 type  2   force =     0.00000000   -0.00000003    0.00575143
     atom   29 type  1   force =     0.00000000    0.00000033   -0.00483471
     atom   30 type  1   force =     0.00000000   -0.00000008   -0.00483158
     atom   31 type  2   force =     0.00000000   -0.00000068    0.00575623
     atom   32 type  2   force =     0.00000000   -0.00000011    0.00575501
     atom   33 type  1   force =     0.00000000    0.00000077   -0.00483560
     atom   34 type  1   force =     0.00000000    0.00000066   -0.00483724
     atom   35 type  2   force =     0.00000000   -0.00000062    0.00575285
     atom   36 type  2   force =     0.00000000   -0.00000030    0.00575594
     The ionic contribution  to forces
     atom    1 type  1   force =     0.00000000    0.00000001    0.06271746
     atom    2 type  1   force =    -0.00000000    0.00000001    0.06271750
     atom    3 type  2   force =     0.00000000    0.00000000   -0.06271747
     atom    4 type  2   force =    -0.00000000    0.00000001   -0.06271748
     atom    5 type  1   force =     0.00000000    0.00000001    0.06271750
     atom    6 type  1   force =    -0.00000000    0.00000001    0.06271746
     atom    7 type  2   force =     0.00000000    0.00000000   -0.06271748
     atom    8 type  2   force =    -0.00000000    0.00000001   -0.06271746
     atom    9 type  1   force =     0.00000000    0.00000001    0.06271746
     atom   10 type  1   force =    -0.00000000    0.00000001    0.06271746
     atom   11 type  2   force =     0.00000000    0.00000000   -0.06271746
     atom   12 type  2   force =    -0.00000000    0.00000001   -0.06271747
     atom   13 type  1   force =    -0.00000001    0.00000001    0.06271746
     atom   14 type  1   force =     0.00000001   -0.00000001    0.06271749
     atom   15 type  2   force =    -0.00000000    0.00000000   -0.06271747
     atom   16 type  2   force =     0.00000000   -0.00000000   -0.06271748
     atom   17 type  1   force =    -0.00000001    0.00000001    0.06271749
     atom   18 type  1   force =     0.00000001   -0.00000001    0.06271745
     atom   19 type  2   force =    -0.00000000    0.00000000   -0.06271748
     atom   20 type  2   force =     0.00000000   -0.00000000   -0.06271746
     atom   21 type  1   force =    -0.00000001    0.00000001    0.06271745
     atom   22 type  1   force =     0.00000001   -0.00000001    0.06271746
     atom   23 type  2   force =    -0.00000000    0.00000000   -0.06271746
     atom   24 type  2   force =     0.00000000   -0.00000000   -0.06271747
     atom   25 type  1   force =     0.00000000   -0.00000001    0.06271746
     atom   26 type  1   force =    -0.00000000   -0.00000001    0.06271750
     atom   27 type  2   force =     0.00000000   -0.00000001   -0.06271747
     atom   28 type  2   force =    -0.00000000   -0.00000000   -0.06271748
     atom   29 type  1   force =     0.00000000   -0.00000001    0.06271750
     atom   30 type  1   force =    -0.00000000   -0.00000001    0.06271746
     atom   31 type  2   force =     0.00000000   -0.00000001   -0.06271748
     atom   32 type  2   force =    -0.00000000   -0.00000000   -0.06271746
     atom   33 type  1   force =     0.00000000   -0.00000001    0.06271746
     atom   34 type  1   force =    -0.00000000   -0.00000001    0.06271746
     atom   35 type  2   force =     0.00000000   -0.00000001   -0.06271746
     atom   36 type  2   force =    -0.00000000   -0.00000000   -0.06271747
     The local contribution  to forces
     atom    1 type  1   force =    -0.00000004    0.00000340   -0.05830303
     atom    2 type  1   force =     0.00000000    0.00000198   -0.05829066
     atom    3 type  2   force =    -0.00000001   -0.00000031    0.05696399
     atom    4 type  2   force =     0.00000000    0.00000187    0.05695897
     atom    5 type  1   force =    -0.00000004    0.00000213   -0.05828485
     atom    6 type  1   force =     0.00000000   -0.00000017   -0.05829185
     atom    7 type  2   force =    -0.00000001    0.00000187    0.05697127
     atom    8 type  2   force =     0.00000000    0.00000001    0.05696835
     atom    9 type  1   force =    -0.00000004    0.00000456   -0.05828288
     atom   10 type  1   force =     0.00000000    0.00000621   -0.05827592
     atom   11 type  2   force =    -0.00000001    0.00000127    0.05696513
     atom   12 type  2   force =     0.00000000    0.00000238    0.05696971
     atom   13 type  1   force =    -0.00000009   -0.00000137   -0.05830491
     atom   14 type  1   force =     0.00000009   -0.00000492   -0.05828841
     atom   15 type  2   force =    -0.00000002   -0.00000061    0.05696314
     atom   16 type  2   force =     0.00000002   -0.00000147    0.05695941
     atom   17 type  1   force =    -0.00000009   -0.00000170   -0.05828033
     atom   18 type  1   force =     0.00000009   -0.00000086   -0.05829232
     atom   19 type  2   force =    -0.00000002   -0.00000177    0.05697056
     atom   20 type  2   force =     0.00000002   -0.00000015    0.05696921
     atom   21 type  1   force =    -0.00000009   -0.00000270   -0.05828565
     atom   22 type  1   force =     0.00000009   -0.00000517   -0.05827617
     atom   23 type  2   force =    -0.00000002   -0.00000175    0.05696542
     atom   24 type  2   force =     0.00000002   -0.00000080    0.05696964
     atom   25 type  1   force =    -0.00000000   -0.00000181   -0.05830010
     atom   26 type  1   force =     0.00000004    0.00000295   -0.05829073
     atom   27 type  2   force =    -0.00000000    0.00000051    0.05696246
     atom   28 type  2   force =     0.00000001   -0.00000033    0.05696088
     atom   29 type  1   force =    -0.00000000   -0.00000070   -0.05828464
     atom   30 type  1   force =     0.00000004    0.00000072   -0.05829110
     atom   31 type  2   force =    -0.00000000   -0.00000166    0.05697055
     atom   32 type  2   force =     0.00000001    0.00000068    0.05696694
     atom   33 type  1   force =    -0.00000000   -0.00000196   -0.05828445
     atom   34 type  1   force =     0.00000004   -0.00000076   -0.05827576
     atom   35 type  2   force =    -0.00000000   -0.00000077    0.05696326
     atom   36 type  2   force =     0.00000001    0.00000015    0.05696913
     The core correction contribution to forces
     atom    1 type  1   force =    -0.00000001   -0.00000005    0.00046410
     atom    2 type  1   force =     0.00000000    0.00000005    0.00046405
     atom    3 type  2   force =     0.00000000   -0.00000001   -0.00006502
     atom    4 type  2   force =    -0.00000000   -0.00000001   -0.00006499
     atom    5 type  1   force =    -0.00000001   -0.00000000    0.00046400
     atom    6 type  1   force =     0.00000000    0.00000003    0.00046396
     atom    7 type  2   force =     0.00000000   -0.00000001   -0.00006504
     atom    8 type  2   force =    -0.00000000   -0.00000000   -0.00006504
     atom    9 type  1   force =    -0.00000001   -0.00000003    0.00046403
     atom   10 type  1   force =     0.00000000   -0.00000008    0.00046391
     atom   11 type  2   force =     0.00000000   -0.00000002   -0.00006502
     atom   12 type  2   force =    -0.00000000   -0.00000000   -0.00006503
     atom   13 type  1   force =    -0.00000001   -0.00000001    0.00046416
     atom   14 type  1   force =     0.00000001    0.00000005    0.00046401
     atom   15 type  2   force =     0.00000000   -0.00000000   -0.00006500
     atom   16 type  2   force =    -0.00000000    0.00000001   -0.00006500
     atom   17 type  1   force =    -0.00000001   -0.00000000    0.00046391
     atom   18 type  1   force =     0.00000001   -0.00000003    0.00046396
     atom   19 type  2   force =     0.00000000   -0.00000001   -0.00006506
     atom   20 type  2   force =    -0.00000000    0.00000001   -0.00006504
     atom   21 type  1   force =    -0.00000001    0.00000002    0.00046409
     atom   22 type  1   force =     0.00000001    0.00000012    0.00046397
     atom   23 type  2   force =     0.00000000    0.00000000   -0.00006501
     atom   24 type  2   force =    -0.00000000    0.00000001   -0.00006503
     atom   25 type  1   force =    -0.00000000    0.00000007    0.00046414
     atom   26 type  1   force =     0.00000001   -0.00000011    0.00046407
     atom   27 type  2   force =     0.00000000    0.00000000   -0.00006502
     atom   28 type  2   force =    -0.00000000   -0.00000000   -0.00006500
     atom   29 type  1   force =    -0.00000000   -0.00000000    0.00046404
     atom   30 type  1   force =     0.00000001   -0.00000002    0.00046398
     atom   31 type  2   force =     0.00000000    0.00000001   -0.00006505
     atom   32 type  2   force =    -0.00000000    0.00000000   -0.00006504
     atom   33 type  1   force =    -0.00000000    0.00000003    0.00046415
     atom   34 type  1   force =     0.00000001   -0.00000005    0.00046391
     atom   35 type  2   force =     0.00000000    0.00000001   -0.00006502
     atom   36 type  2   force =    -0.00000000    0.00000000   -0.00006504
     The Hubbard contrib.    to forces
     atom    1 type  1   force =     0.00000000    0.00000000    0.00000000
     atom    2 type  1   force =     0.00000000    0.00000000    0.00000000
     atom    3 type  2   force =     0.00000000    0.00000000    0.00000000
     atom    4 type  2   force =     0.00000000    0.00000000    0.00000000
     atom    5 type  1   force =     0.00000000    0.00000000    0.00000000
     atom    6 type  1   force =     0.00000000    0.00000000    0.00000000
     atom    7 type  2   force =     0.00000000    0.00000000    0.00000000
     atom    8 type  2   force =     0.00000000    0.00000000    0.00000000
     atom    9 type  1   force =     0.00000000    0.00000000    0.00000000
     atom   10 type  1   force =     0.00000000    0.00000000    0.00000000
     atom   11 type  2   force =     0.00000000    0.00000000    0.00000000
     atom   12 type  2   force =     0.00000000    0.00000000    0.00000000
     atom   13 type  1   force =     0.00000000    0.00000000    0.00000000
     atom   14 type  1   force =     0.00000000    0.00000000    0.00000000
     atom   15 type  2   force =     0.00000000    0.00000000    0.00000000
     atom   16 type  2   force =     0.00000000    0.00000000    0.00000000
     atom   17 type  1   force =     0.00000000    0.00000000    0.00000000
     atom   18 type  1   force =     0.00000000    0.00000000    0.00000000
     atom   19 type  2   force =     0.00000000    0.00000000    0.00000000
     atom   20 type  2   force =     0.00000000    0.00000000    0.00000000
     atom   21 type  1   force =     0.00000000    0.00000000    0.00000000
     atom   22 type  1   force =     0.00000000    0.00000000    0.00000000
     atom   23 type  2   force =     0.00000000    0.00000000    0.00000000
     atom   24 type  2   force =     0.00000000    0.00000000    0.00000000
     atom   25 type  1   force =     0.00000000    0.00000000    0.00000000
     atom   26 type  1   force =     0.00000000    0.00000000    0.00000000
     atom   27 type  2   force =     0.00000000    0.00000000    0.00000000
     atom   28 type  2   force =     0.00000000    0.00000000    0.00000000
     atom   29 type  1   force =     0.00000000    0.00000000    0.00000000
     atom   30 type  1   force =     0.00000000    0.00000000    0.00000000
     atom   31 type  2   force =     0.00000000    0.00000000    0.00000000
     atom   32 type  2   force =     0.00000000    0.00000000    0.00000000
     atom   33 type  1   force =     0.00000000    0.00000000    0.00000000
     atom   34 type  1   force =     0.00000000    0.00000000    0.00000000
     atom   35 type  2   force =     0.00000000    0.00000000    0.00000000
     atom   36 type  2   force =     0.00000000    0.00000000    0.00000000
     The SCF correction term to forces
     atom    1 type  1   force =     0.00000000   -0.00000505    0.00001966
     atom    2 type  1   force =     0.00000000   -0.00000250    0.00000167
     atom    3 type  2   force =    -0.00000000    0.00000017    0.00000290
     atom    4 type  2   force =    -0.00000000   -0.00000284    0.00001093
     atom    5 type  1   force =     0.00000000   -0.00000305   -0.00000444
     atom    6 type  1   force =     0.00000000    0.00000100    0.00000379
     atom    7 type  2   force =    -0.00000000   -0.00000297   -0.00000811
     atom    8 type  2   force =    -0.00000000   -0.00000030   -0.00000423
     atom    9 type  1   force =     0.00000000   -0.00000657   -0.00000701
     atom   10 type  1   force =     0.00000000   -0.00000871   -0.00001704
     atom   11 type  2   force =    -0.00000000   -0.00000278    0.00000101
     atom   12 type  2   force =    -0.00000000   -0.00000311   -0.00000584
     atom   13 type  1   force =     0.00000000    0.00000136    0.00002272
     atom   14 type  1   force =    -0.00000000    0.00000779   -0.00000083
     atom   15 type  2   force =    -0.00000000    0.00000066    0.00000482
     atom   16 type  2   force =     0.00000000    0.00000283    0.00000958
     atom   17 type  1   force =     0.00000000    0.00000207   -0.00001170
     atom   18 type  1   force =    -0.00000000    0.00000116    0.00000459
     atom   19 type  2   force =    -0.00000000    0.00000199   -0.00000819
     atom   20 type  2   force =     0.00000000    0.00000086   -0.00000535
     atom   21 type  1   force =     0.00000000    0.00000343   -0.00000340
     atom   22 type  1   force =    -0.00000000    0.00000734   -0.00001618
     atom   23 type  2   force =    -0.00000000    0.00000238    0.00000083
     atom   24 type  2   force =     0.00000000    0.00000187   -0.00000551
     atom   25 type  1   force =    -0.00000000    0.00000218    0.00001507
     atom   26 type  1   force =    -0.00000000   -0.00000419    0.00000250
     atom   27 type  2   force =     0.00000000   -0.00000075    0.00000445
     atom   28 type  2   force =     0.00000000    0.00000038    0.00000778
     atom   29 type  1   force =    -0.00000000    0.00000067   -0.00000496
     atom   30 type  1   force =    -0.00000000   -0.00000099    0.00000319
     atom   31 type  2   force =     0.00000000    0.00000229   -0.00000755
     atom   32 type  2   force =     0.00000000   -0.00000078   -0.00000255
     atom   33 type  1   force =    -0.00000000    0.00000185   -0.00000472
     atom   34 type  1   force =    -0.00000000    0.00000100   -0.00001707
     atom   35 type  2   force =     0.00000000    0.00000131    0.00000325
     atom   36 type  2   force =     0.00000000    0.00000011   -0.00000585

     Total force =     0.000369     Total SCF correction =     0.000058
     SCF correction compared to forces is large: reduce conv_thr to get better values

     General routines

     Parallel routines

   This run was terminated on:   2: 9:23  25Jul2025

   JOB DONE.
Note: The following floating-point exceptions are signalling: IEEE_INVALID_FLAG
Note: The following floating-point exceptions are signalling: IEEE_INVALID_FLAG
Note: The following floating-point exceptions are signalling: IEEE_DENORMAL
Note: The following floating-point exceptions are signalling: IEEE_INVALID_FLAG
Note: The following floating-point exceptions are signalling: IEEE_INVALID_FLAG
Note: The following floating-point exceptions are signalling: IEEE_DENORMAL
Note: The following floating-point exceptions are signalling: IEEE_DENORMAL
Note: The following floating-point exceptions are signalling: IEEE_DENORMAL