     Program PWSCF v.7.2 starts on 25Jul2025 at 13:55:17

     Reading input from /home/jvc/QEspresso7.2/ZnO_database/scripts/cell133.in/ZnO-3.27-1.68-133.in
Warning: card &CELL ignored
Warning: card / ignored
Warning: card &FCP ignored
Warning: card / ignored
Warning: card &RISM ignored
Warning: card / ignored

     Current dimensions of program PWSCF are:
     Max number of different atomic species (ntypx) = 10
     Max number of k-points (npk) =  40000
     Max angular momentum in pseudopotentials (lmaxx) =  4
     file Zn.upf: wavefunction(s)  3D renormalized
     Found identity + (  0.0000  0.0000  0.3333) symmetry
     This is a supercell, fractional translations are disabled
     Message from routine setup:
     using ibrav=0 with symmetry is DISCOURAGED, use correct ibrav instead

     K-points division:     npool     =       4
     R & G space division:  proc/nbgrp/npool/nimage =       4
     Subspace diagonalization in iterative solution of the eigenvalue problem:
     one sub-group per band group will be used

     Using Slab Decomposition

     bravais-lattice index     =            0
     lattice parameter (alat)  =       6.1788  a.u.
     unit-cell volume          =    2968.1791 (a.u.)^3
     number of atoms/cell      =           36
     number of atomic types    =            2
     number of electrons       =       324.00
     number of Kohn-Sham states=          162
     kinetic-energy cutoff     =      50.0000  Ry
     charge density cutoff     =     400.0000  Ry
     scf convergence threshold =      1.0E-08
     mixing beta               =       0.3000
     number of iterations used =            8  plain     mixing
     Exchange-correlation= PBE
                           (   1   4   3   4   0   0   0)

     celldm(1)=   6.178822  celldm(2)=   0.000000  celldm(3)=   0.000000
     celldm(4)=   0.000000  celldm(5)=   0.000000  celldm(6)=   0.000000

     crystal axes: (cart. coord. in units of alat)
               a(1) = (   1.000000   0.000000   0.000000 )
               a(2) = (  -1.500000   2.598076   0.000000 )
               a(3) = (   0.000000   0.000000   4.843075 )

     reciprocal axes: (cart. coord. in units 2 pi/alat)
               b(1) = (  1.000000  0.577350 -0.000000 )
               b(2) = (  0.000000  0.384900  0.000000 )
               b(3) = (  0.000000 -0.000000  0.206480 )

     PseudoPot. # 1 for Zn read from file:
     /home/jvc/QEspresso7.2/ZnO_database/pseudos/Zn.upf
     MD5 check sum: 7f56cabf9682ed8c977c2f7d0c5985c5
     Pseudo is Ultrasoft + core correction, Zval = 12.0
     Generated using &quot;atomic&quot; code by A. Dal Corso  v.6.2.2
     Using radial grid of 1201 points,  6 beta functions with:
                l(1) =   0
                l(2) =   0
                l(3) =   1
                l(4) =   1
                l(5) =   2
                l(6) =   2
     Q(r) pseudized with 0 coefficients

     PseudoPot. # 2 for O  read from file:
     /home/jvc/QEspresso7.2/ZnO_database/pseudos/O.upf
     MD5 check sum: 91400c9766925bcf19f520983a725ff0
     Pseudo is Ultrasoft + core correction, Zval =  6.0
     Generated using &quot;atomic&quot; code by A. Dal Corso  v.6.3MaX
     Using radial grid of 1095 points,  4 beta functions with:
                l(1) =   0
                l(2) =   0
                l(3) =   1
                l(4) =   1
     Q(r) pseudized with 0 coefficients

     atomic species   valence    mass     pseudopotential
        Zn            12.00    65.38000     Zn( 1.00)
        O              6.00    15.99900     O ( 1.00)

      2 Sym. Ops. (no inversion) found

                                    s                        frac. trans.

      isym =  1     identity

 cryst.   s( 1) = (     1          0          0      )
                  (     0          1          0      )
                  (     0          0          1      )

 cart.    s( 1) = (  1.0000000  0.0000000  0.0000000 )
                  (  0.0000000  1.0000000  0.0000000 )
                  (  0.0000000  0.0000000  1.0000000 )

      isym =  2     inv. 180 deg rotation - cart. axis [1,0,0]

 cryst.   s( 2) = (    -1          0          0      )
                  (     3          1          0      )
                  (     0          0          1      )

 cart.    s( 2) = ( -1.0000000  0.0000000  0.0000000 )
                  (  0.0000000  1.0000000  0.0000000 )
                  (  0.0000000  0.0000000  1.0000000 )

   Cartesian axes

     site n.     atom                  positions (alat units)
         1           Zn  tau(   1) = (   0.5000000   0.2886751   0.8082020  )
         2           Zn  tau(   2) = (   0.0000000   0.5773503   0.0010228  )
         3           O   tau(   3) = (   0.5000000   0.2886751   1.4201130  )
         4           O   tau(   4) = (   0.0000000   0.5773503   0.6129338  )
         5           Zn  tau(   5) = (   0.5000000   0.2886751   2.4225604  )
         6           Zn  tau(   6) = (   0.0000000   0.5773503   1.6153812  )
         7           O   tau(   7) = (   0.5000000   0.2886751   3.0344713  )
         8           O   tau(   8) = (   0.0000000   0.5773503   2.2272921  )
         9           Zn  tau(   9) = (   0.5000000   0.2886751   4.0369187  )
        10           Zn  tau(  10) = (   0.0000000   0.5773503   3.2297395  )
        11           O   tau(  11) = (   0.5000000   0.2886751   4.6488297  )
        12           O   tau(  12) = (   0.0000000   0.5773503   3.8416505  )
        13           Zn  tau(  13) = (   0.0000000   1.1547005   0.8082020  )
        14           Zn  tau(  14) = (  -0.5000000   1.4433757   0.0010228  )
        15           O   tau(  15) = (   0.0000000   1.1547005   1.4201130  )
        16           O   tau(  16) = (  -0.5000000   1.4433757   0.6129338  )
        17           Zn  tau(  17) = (   0.0000000   1.1547005   2.4225604  )
        18           Zn  tau(  18) = (  -0.5000000   1.4433757   1.6153812  )
        19           O   tau(  19) = (   0.0000000   1.1547005   3.0344713  )
        20           O   tau(  20) = (  -0.5000000   1.4433757   2.2272921  )
        21           Zn  tau(  21) = (   0.0000000   1.1547005   4.0369187  )
        22           Zn  tau(  22) = (  -0.5000000   1.4433757   3.2297395  )
        23           O   tau(  23) = (   0.0000000   1.1547005   4.6488297  )
        24           O   tau(  24) = (  -0.5000000   1.4433757   3.8416505  )
        25           Zn  tau(  25) = (  -0.5000000   2.0207259   0.8082020  )
        26           Zn  tau(  26) = (  -1.0000000   2.3094011   0.0010228  )
        27           O   tau(  27) = (  -0.5000000   2.0207259   1.4201130  )
        28           O   tau(  28) = (  -1.0000000   2.3094011   0.6129338  )
        29           Zn  tau(  29) = (  -0.5000000   2.0207259   2.4225604  )
        30           Zn  tau(  30) = (  -1.0000000   2.3094011   1.6153812  )
        31           O   tau(  31) = (  -0.5000000   2.0207259   3.0344713  )
        32           O   tau(  32) = (  -1.0000000   2.3094011   2.2272921  )
        33           Zn  tau(  33) = (  -0.5000000   2.0207259   4.0369187  )
        34           Zn  tau(  34) = (  -1.0000000   2.3094011   3.2297395  )
        35           O   tau(  35) = (  -0.5000000   2.0207259   4.6488297  )
        36           O   tau(  36) = (  -1.0000000   2.3094011   3.8416505  )

   Crystallographic axes

     site n.     atom                  positions (cryst. coord.)
         1           Zn  tau(   1) = (  0.6666667  0.1111111  0.1668779  )
         2           Zn  tau(   2) = (  0.3333333  0.2222222  0.0002112  )
         3           O   tau(   3) = (  0.6666667  0.1111111  0.2932255  )
         4           O   tau(   4) = (  0.3333333  0.2222222  0.1265588  )
         5           Zn  tau(   5) = (  0.6666667  0.1111111  0.5002112  )
         6           Zn  tau(   6) = (  0.3333333  0.2222222  0.3335445  )
         7           O   tau(   7) = (  0.6666667  0.1111111  0.6265588  )
         8           O   tau(   8) = (  0.3333333  0.2222222  0.4598921  )
         9           Zn  tau(   9) = (  0.6666667  0.1111111  0.8335445  )
        10           Zn  tau(  10) = (  0.3333333  0.2222222  0.6668779  )
        11           O   tau(  11) = (  0.6666667  0.1111111  0.9598921  )
        12           O   tau(  12) = (  0.3333333  0.2222222  0.7932255  )
        13           Zn  tau(  13) = (  0.6666667  0.4444444  0.1668779  )
        14           Zn  tau(  14) = (  0.3333333  0.5555556  0.0002112  )
        15           O   tau(  15) = (  0.6666667  0.4444444  0.2932255  )
        16           O   tau(  16) = (  0.3333333  0.5555556  0.1265588  )
        17           Zn  tau(  17) = (  0.6666667  0.4444444  0.5002112  )
        18           Zn  tau(  18) = (  0.3333333  0.5555556  0.3335445  )
        19           O   tau(  19) = (  0.6666667  0.4444444  0.6265588  )
        20           O   tau(  20) = (  0.3333333  0.5555556  0.4598921  )
        21           Zn  tau(  21) = (  0.6666667  0.4444444  0.8335445  )
        22           Zn  tau(  22) = (  0.3333333  0.5555556  0.6668779  )
        23           O   tau(  23) = (  0.6666667  0.4444444  0.9598921  )
        24           O   tau(  24) = (  0.3333333  0.5555556  0.7932255  )
        25           Zn  tau(  25) = (  0.6666667  0.7777778  0.1668779  )
        26           Zn  tau(  26) = (  0.3333333  0.8888889  0.0002112  )
        27           O   tau(  27) = (  0.6666667  0.7777778  0.2932255  )
        28           O   tau(  28) = (  0.3333333  0.8888889  0.1265588  )
        29           Zn  tau(  29) = (  0.6666667  0.7777778  0.5002112  )
        30           Zn  tau(  30) = (  0.3333333  0.8888889  0.3335445  )
        31           O   tau(  31) = (  0.6666667  0.7777778  0.6265588  )
        32           O   tau(  32) = (  0.3333333  0.8888889  0.4598921  )
        33           Zn  tau(  33) = (  0.6666667  0.7777778  0.8335445  )
        34           Zn  tau(  34) = (  0.3333333  0.8888889  0.6668779  )
        35           O   tau(  35) = (  0.6666667  0.7777778  0.9598921  )
        36           O   tau(  36) = (  0.3333333  0.8888889  0.7932255  )

     number of k points=    12
                       cart. coord. in units 2pi/alat
        k(    1) = (   0.0000000   0.0000000   0.0000000), wk =   0.0833333
        k(    2) = (   0.0000000   0.0000000  -0.1032402), wk =   0.0833333
        k(    3) = (   0.0000000  -0.1924501   0.0000000), wk =   0.0833333
        k(    4) = (   0.0000000  -0.1924501  -0.1032402), wk =   0.0833333
        k(    5) = (   0.1666667   0.0962250   0.0000000), wk =   0.3333333
        k(    6) = (   0.1666667   0.0962250  -0.1032402), wk =   0.3333333
        k(    7) = (   0.3333333   0.1924501   0.0000000), wk =   0.1666667
        k(    8) = (   0.3333333   0.1924501  -0.1032402), wk =   0.1666667
        k(    9) = (   0.3333333  -0.0000000   0.0000000), wk =   0.1666667
        k(   10) = (   0.3333333  -0.0000000  -0.1032402), wk =   0.1666667
        k(   11) = (  -0.5000000  -0.2886751   0.0000000), wk =   0.1666667
        k(   12) = (  -0.5000000  -0.2886751  -0.1032402), wk =   0.1666667

                       cryst. coord.
[...]
     atom   11 type  2   force =     0.00000000    0.00000133    0.00575315
     atom   12 type  2   force =     0.00000000    0.00000040    0.00575540
     atom   13 type  1   force =     0.00000000    0.00000073   -0.00482737
     atom   14 type  1   force =     0.00000000    0.00000118   -0.00483176
     atom   15 type  2   force =     0.00000000   -0.00000000    0.00575196
     atom   16 type  2   force =     0.00000000   -0.00000110    0.00575114
     atom   17 type  1   force =     0.00000000    0.00000041   -0.00483473
     atom   18 type  1   force =     0.00000000    0.00000045   -0.00483042
     atom   19 type  2   force =     0.00000000    0.00000004    0.00575700
     atom   20 type  2   force =     0.00000000   -0.00000060    0.00575527
     atom   21 type  1   force =     0.00000000    0.00000089   -0.00483433
     atom   22 type  1   force =     0.00000000    0.00000115   -0.00483744
     atom   23 type  2   force =     0.00000000   -0.00000034    0.00575286
     atom   24 type  2   force =     0.00000000   -0.00000122    0.00575476
     atom   25 type  1   force =     0.00000000    0.00000035   -0.00482815
     atom   26 type  1   force =     0.00000000   -0.00000032   -0.00483115
     atom   27 type  2   force =     0.00000000   -0.00000006    0.00575317
     atom   28 type  2   force =     0.00000000    0.00000004    0.00575129
     atom   29 type  1   force =     0.00000000    0.00000004   -0.00483426
     atom   30 type  1   force =     0.00000000    0.00000013   -0.00483127
     atom   31 type  2   force =     0.00000000   -0.00000062    0.00575616
     atom   32 type  2   force =     0.00000000   -0.00000006    0.00575493
     atom   33 type  1   force =     0.00000000    0.00000059   -0.00483528
     atom   34 type  1   force =     0.00000000    0.00000065   -0.00483697
     atom   35 type  2   force =     0.00000000   -0.00000046    0.00575275
     atom   36 type  2   force =     0.00000000   -0.00000019    0.00575595
     The ionic contribution  to forces
     atom    1 type  1   force =     0.00000000    0.00000001    0.06271746
     atom    2 type  1   force =    -0.00000000    0.00000001    0.06271750
     atom    3 type  2   force =     0.00000000    0.00000000   -0.06271747
     atom    4 type  2   force =    -0.00000000    0.00000001   -0.06271748
     atom    5 type  1   force =     0.00000000    0.00000001    0.06271750
     atom    6 type  1   force =    -0.00000000    0.00000001    0.06271746
     atom    7 type  2   force =     0.00000000    0.00000000   -0.06271748
     atom    8 type  2   force =    -0.00000000    0.00000001   -0.06271746
     atom    9 type  1   force =     0.00000000    0.00000001    0.06271746
     atom   10 type  1   force =    -0.00000000    0.00000001    0.06271746
     atom   11 type  2   force =     0.00000000    0.00000000   -0.06271746
     atom   12 type  2   force =    -0.00000000    0.00000001   -0.06271747
     atom   13 type  1   force =    -0.00000001    0.00000001    0.06271746
     atom   14 type  1   force =     0.00000001   -0.00000001    0.06271749
     atom   15 type  2   force =    -0.00000000    0.00000000   -0.06271747
     atom   16 type  2   force =     0.00000000   -0.00000000   -0.06271748
     atom   17 type  1   force =    -0.00000001    0.00000001    0.06271749
     atom   18 type  1   force =     0.00000001   -0.00000001    0.06271745
     atom   19 type  2   force =    -0.00000000    0.00000000   -0.06271748
     atom   20 type  2   force =     0.00000000   -0.00000000   -0.06271746
     atom   21 type  1   force =    -0.00000001    0.00000001    0.06271745
     atom   22 type  1   force =     0.00000001   -0.00000001    0.06271746
     atom   23 type  2   force =    -0.00000000    0.00000000   -0.06271746
     atom   24 type  2   force =     0.00000000   -0.00000000   -0.06271747
     atom   25 type  1   force =     0.00000000   -0.00000001    0.06271746
     atom   26 type  1   force =    -0.00000000   -0.00000001    0.06271750
     atom   27 type  2   force =     0.00000000   -0.00000001   -0.06271747
     atom   28 type  2   force =    -0.00000000   -0.00000000   -0.06271748
     atom   29 type  1   force =     0.00000000   -0.00000001    0.06271750
     atom   30 type  1   force =    -0.00000000   -0.00000001    0.06271746
     atom   31 type  2   force =     0.00000000   -0.00000001   -0.06271748
     atom   32 type  2   force =    -0.00000000   -0.00000000   -0.06271746
     atom   33 type  1   force =     0.00000000   -0.00000001    0.06271746
     atom   34 type  1   force =    -0.00000000   -0.00000001    0.06271746
     atom   35 type  2   force =     0.00000000   -0.00000001   -0.06271746
     atom   36 type  2   force =    -0.00000000   -0.00000000   -0.06271747
     The local contribution  to forces
     atom    1 type  1   force =    -0.00000004    0.00000319   -0.05830372
     atom    2 type  1   force =     0.00000000    0.00000185   -0.05829124
     atom    3 type  2   force =    -0.00000001   -0.00000018    0.05696400
     atom    4 type  2   force =     0.00000000    0.00000179    0.05695881
     atom    5 type  1   force =    -0.00000004    0.00000195   -0.05828535
     atom    6 type  1   force =     0.00000000    0.00000010   -0.05829209
     atom    7 type  2   force =    -0.00000001    0.00000187    0.05697149
     atom    8 type  2   force =     0.00000000    0.00000017    0.05696787
     atom    9 type  1   force =    -0.00000004    0.00000436   -0.05828292
     atom   10 type  1   force =     0.00000000    0.00000650   -0.05827620
     atom   11 type  2   force =    -0.00000001    0.00000139    0.05696516
     atom   12 type  2   force =     0.00000000    0.00000252    0.05696965
     atom   13 type  1   force =    -0.00000009   -0.00000112   -0.05830477
     atom   14 type  1   force =     0.00000009   -0.00000432   -0.05828941
     atom   15 type  2   force =    -0.00000002   -0.00000040    0.05696310
     atom   16 type  2   force =     0.00000002   -0.00000134    0.05695938
     atom   17 type  1   force =    -0.00000009   -0.00000144   -0.05828148
     atom   18 type  1   force =     0.00000009   -0.00000075   -0.05829295
     atom   19 type  2   force =    -0.00000002   -0.00000183    0.05697081
     atom   20 type  2   force =     0.00000002   -0.00000036    0.05696894
     atom   21 type  1   force =    -0.00000009   -0.00000240   -0.05828598
     atom   22 type  1   force =     0.00000009   -0.00000509   -0.05827608
     atom   23 type  2   force =    -0.00000002   -0.00000134    0.05696558
     atom   24 type  2   force =     0.00000002   -0.00000060    0.05697000
     atom   25 type  1   force =    -0.00000000   -0.00000201   -0.05830099
     atom   26 type  1   force =     0.00000004    0.00000257   -0.05829185
     atom   27 type  2   force =    -0.00000000    0.00000041    0.05696249
     atom   28 type  2   force =     0.00000001   -0.00000046    0.05696072
     atom   29 type  1   force =    -0.00000000   -0.00000021   -0.05828570
     atom   30 type  1   force =     0.00000004    0.00000023   -0.05829124
     atom   31 type  2   force =    -0.00000000   -0.00000115    0.05697098
     atom   32 type  2   force =     0.00000001    0.00000056    0.05696676
     atom   33 type  1   force =    -0.00000000   -0.00000185   -0.05828460
     atom   34 type  1   force =     0.00000004   -0.00000073   -0.05827599
     atom   35 type  2   force =    -0.00000000   -0.00000124    0.05696356
     atom   36 type  2   force =     0.00000001   -0.00000013    0.05696927
     The core correction contribution to forces
     atom    1 type  1   force =    -0.00000001   -0.00000004    0.00046409
     atom    2 type  1   force =     0.00000000    0.00000005    0.00046404
     atom    3 type  2   force =     0.00000000   -0.00000001   -0.00006502
     atom    4 type  2   force =    -0.00000000   -0.00000001   -0.00006499
     atom    5 type  1   force =    -0.00000001    0.00000000    0.00046401
     atom    6 type  1   force =     0.00000000    0.00000002    0.00046395
     atom    7 type  2   force =     0.00000000   -0.00000001   -0.00006504
     atom    8 type  2   force =    -0.00000000   -0.00000000   -0.00006504
     atom    9 type  1   force =    -0.00000001   -0.00000003    0.00046402
     atom   10 type  1   force =     0.00000000   -0.00000006    0.00046389
     atom   11 type  2   force =     0.00000000   -0.00000002   -0.00006501
     atom   12 type  2   force =    -0.00000000   -0.00000000   -0.00006504
     atom   13 type  1   force =    -0.00000001   -0.00000002    0.00046415
     atom   14 type  1   force =     0.00000001    0.00000005    0.00046399
     atom   15 type  2   force =     0.00000000   -0.00000000   -0.00006501
     atom   16 type  2   force =    -0.00000000    0.00000001   -0.00006500
     atom   17 type  1   force =    -0.00000001    0.00000001    0.00046391
     atom   18 type  1   force =     0.00000001   -0.00000002    0.00046395
     atom   19 type  2   force =     0.00000000   -0.00000001   -0.00006506
     atom   20 type  2   force =    -0.00000000    0.00000001   -0.00006504
     atom   21 type  1   force =    -0.00000001    0.00000001    0.00046407
     atom   22 type  1   force =     0.00000001    0.00000011    0.00046394
     atom   23 type  2   force =     0.00000000    0.00000000   -0.00006501
     atom   24 type  2   force =    -0.00000000    0.00000002   -0.00006503
     atom   25 type  1   force =    -0.00000000    0.00000007    0.00046411
     atom   26 type  1   force =     0.00000001   -0.00000010    0.00046403
     atom   27 type  2   force =     0.00000000    0.00000000   -0.00006502
     atom   28 type  2   force =    -0.00000000   -0.00000000   -0.00006500
     atom   29 type  1   force =    -0.00000000    0.00000000    0.00046404
     atom   30 type  1   force =     0.00000001   -0.00000002    0.00046396
     atom   31 type  2   force =     0.00000000    0.00000000   -0.00006505
     atom   32 type  2   force =    -0.00000000    0.00000000   -0.00006504
     atom   33 type  1   force =    -0.00000000    0.00000004    0.00046412
     atom   34 type  1   force =     0.00000001   -0.00000005    0.00046389
     atom   35 type  2   force =     0.00000000    0.00000000   -0.00006501
     atom   36 type  2   force =    -0.00000000    0.00000000   -0.00006504
     The Hubbard contrib.    to forces
     atom    1 type  1   force =     0.00000000    0.00000000    0.00000000
     atom    2 type  1   force =     0.00000000    0.00000000    0.00000000
     atom    3 type  2   force =     0.00000000    0.00000000    0.00000000
     atom    4 type  2   force =     0.00000000    0.00000000    0.00000000
     atom    5 type  1   force =     0.00000000    0.00000000    0.00000000
     atom    6 type  1   force =     0.00000000    0.00000000    0.00000000
     atom    7 type  2   force =     0.00000000    0.00000000    0.00000000
     atom    8 type  2   force =     0.00000000    0.00000000    0.00000000
     atom    9 type  1   force =     0.00000000    0.00000000    0.00000000
     atom   10 type  1   force =     0.00000000    0.00000000    0.00000000
     atom   11 type  2   force =     0.00000000    0.00000000    0.00000000
     atom   12 type  2   force =     0.00000000    0.00000000    0.00000000
     atom   13 type  1   force =     0.00000000    0.00000000    0.00000000
     atom   14 type  1   force =     0.00000000    0.00000000    0.00000000
     atom   15 type  2   force =     0.00000000    0.00000000    0.00000000
     atom   16 type  2   force =     0.00000000    0.00000000    0.00000000
     atom   17 type  1   force =     0.00000000    0.00000000    0.00000000
     atom   18 type  1   force =     0.00000000    0.00000000    0.00000000
     atom   19 type  2   force =     0.00000000    0.00000000    0.00000000
     atom   20 type  2   force =     0.00000000    0.00000000    0.00000000
     atom   21 type  1   force =     0.00000000    0.00000000    0.00000000
     atom   22 type  1   force =     0.00000000    0.00000000    0.00000000
     atom   23 type  2   force =     0.00000000    0.00000000    0.00000000
     atom   24 type  2   force =     0.00000000    0.00000000    0.00000000
     atom   25 type  1   force =     0.00000000    0.00000000    0.00000000
     atom   26 type  1   force =     0.00000000    0.00000000    0.00000000
     atom   27 type  2   force =     0.00000000    0.00000000    0.00000000
     atom   28 type  2   force =     0.00000000    0.00000000    0.00000000
     atom   29 type  1   force =     0.00000000    0.00000000    0.00000000
     atom   30 type  1   force =     0.00000000    0.00000000    0.00000000
     atom   31 type  2   force =     0.00000000    0.00000000    0.00000000
     atom   32 type  2   force =     0.00000000    0.00000000    0.00000000
     atom   33 type  1   force =     0.00000000    0.00000000    0.00000000
     atom   34 type  1   force =     0.00000000    0.00000000    0.00000000
     atom   35 type  2   force =     0.00000000    0.00000000    0.00000000
     atom   36 type  2   force =     0.00000000    0.00000000    0.00000000
     The SCF correction term to forces
     atom    1 type  1   force =     0.00000000   -0.00000492    0.00002030
     atom    2 type  1   force =     0.00000000   -0.00000215    0.00000198
     atom    3 type  2   force =    -0.00000000    0.00000009    0.00000267
     atom    4 type  2   force =    -0.00000000   -0.00000281    0.00001107
     atom    5 type  1   force =     0.00000000   -0.00000285   -0.00000376
     atom    6 type  1   force =     0.00000000    0.00000065    0.00000359
     atom    7 type  2   force =    -0.00000000   -0.00000286   -0.00000833
     atom    8 type  2   force =    -0.00000000   -0.00000049   -0.00000384
     atom    9 type  1   force =     0.00000000   -0.00000640   -0.00000706
     atom   10 type  1   force =     0.00000000   -0.00000882   -0.00001677
     atom   11 type  2   force =    -0.00000000   -0.00000276    0.00000113
     atom   12 type  2   force =    -0.00000000   -0.00000307   -0.00000589
     atom   13 type  1   force =     0.00000000    0.00000092    0.00002229
     atom   14 type  1   force =    -0.00000000    0.00000675   -0.00000026
     atom   15 type  2   force =    -0.00000000    0.00000047    0.00000454
     atom   16 type  2   force =     0.00000000    0.00000263    0.00000975
     atom   17 type  1   force =     0.00000000    0.00000218   -0.00001063
     atom   18 type  1   force =    -0.00000000    0.00000102    0.00000503
     atom   19 type  2   force =    -0.00000000    0.00000214   -0.00000841
     atom   20 type  2   force =     0.00000000    0.00000091   -0.00000489
     atom   21 type  1   force =     0.00000000    0.00000295   -0.00000334
     atom   22 type  1   force =    -0.00000000    0.00000716   -0.00001635
     atom   23 type  2   force =    -0.00000000    0.00000190    0.00000082
     atom   24 type  2   force =     0.00000000    0.00000177   -0.00000581
     atom   25 type  1   force =    -0.00000000    0.00000249    0.00001569
     atom   26 type  1   force =    -0.00000000   -0.00000365    0.00000315
     atom   27 type  2   force =     0.00000000   -0.00000054    0.00000417
     atom   28 type  2   force =     0.00000000    0.00000053    0.00000799
     atom   29 type  1   force =    -0.00000000    0.00000012   -0.00000362
     atom   30 type  1   force =    -0.00000000   -0.00000038    0.00000299
     atom   31 type  2   force =     0.00000000    0.00000186   -0.00000779
     atom   32 type  2   force =     0.00000000   -0.00000068   -0.00000219
     atom   33 type  1   force =    -0.00000000    0.00000217   -0.00000481
     atom   34 type  1   force =    -0.00000000    0.00000099   -0.00001680
     atom   35 type  2   force =     0.00000000    0.00000172    0.00000306
     atom   36 type  2   force =     0.00000000    0.00000023   -0.00000582

     Total force =     0.000369     Total SCF correction =     0.000058
     SCF correction compared to forces is large: reduce conv_thr to get better values

     General routines

     Parallel routines

   This run was terminated on:  14: 7:58  25Jul2025

   JOB DONE.
Note: The following floating-point exceptions are signalling: IEEE_DENORMAL
Note: The following floating-point exceptions are signalling: IEEE_DENORMAL
Note: The following floating-point exceptions are signalling: IEEE_DENORMAL
Note: The following floating-point exceptions are signalling: IEEE_INVALID_FLAG
Note: The following floating-point exceptions are signalling: IEEE_DENORMAL
Note: The following floating-point exceptions are signalling: IEEE_INVALID_FLAG
Note: The following floating-point exceptions are signalling: IEEE_INVALID_FLAG
Note: The following floating-point exceptions are signalling: IEEE_INVALID_FLAG