     Program PWSCF v.7.2 starts on 25Jul2025 at  5:38:44

     Reading input from /home/jvc/QEspresso7.2/ZnO_database/scripts/cell133.in/ZnO-3.07-1.45-133.in
Warning: card &CELL ignored
Warning: card / ignored
Warning: card &FCP ignored
Warning: card / ignored
Warning: card &RISM ignored
Warning: card / ignored

     Current dimensions of program PWSCF are:
     Max number of different atomic species (ntypx) = 10
     Max number of k-points (npk) =  40000
     Max angular momentum in pseudopotentials (lmaxx) =  4
     file Zn.upf: wavefunction(s)  3D renormalized
     Found identity + (  0.0000  0.0000  0.3333) symmetry
     This is a supercell, fractional translations are disabled
     Message from routine setup:
     using ibrav=0 with symmetry is DISCOURAGED, use correct ibrav instead

     K-points division:     npool     =       4
     R & G space division:  proc/nbgrp/npool/nimage =       4
     Subspace diagonalization in iterative solution of the eigenvalue problem:
     one sub-group per band group will be used

     Using Slab Decomposition

     bravais-lattice index     =            0
     lattice parameter (alat)  =       6.1788  a.u.
     unit-cell volume          =    2968.1791 (a.u.)^3
     number of atoms/cell      =           36
     number of atomic types    =            2
     number of electrons       =       324.00
     number of Kohn-Sham states=          162
     kinetic-energy cutoff     =      50.0000  Ry
     charge density cutoff     =     400.0000  Ry
     scf convergence threshold =      1.0E-08
     mixing beta               =       0.3000
     number of iterations used =            8  plain     mixing
     Exchange-correlation= PBE
                           (   1   4   3   4   0   0   0)

     celldm(1)=   6.178822  celldm(2)=   0.000000  celldm(3)=   0.000000
     celldm(4)=   0.000000  celldm(5)=   0.000000  celldm(6)=   0.000000

     crystal axes: (cart. coord. in units of alat)
               a(1) = (   1.000000   0.000000   0.000000 )
               a(2) = (  -1.500000   2.598076   0.000000 )
               a(3) = (   0.000000   0.000000   4.843075 )

     reciprocal axes: (cart. coord. in units 2 pi/alat)
               b(1) = (  1.000000  0.577350 -0.000000 )
               b(2) = (  0.000000  0.384900  0.000000 )
               b(3) = (  0.000000 -0.000000  0.206480 )

     PseudoPot. # 1 for Zn read from file:
     /home/jvc/QEspresso7.2/ZnO_database/pseudos/Zn.upf
     MD5 check sum: 7f56cabf9682ed8c977c2f7d0c5985c5
     Pseudo is Ultrasoft + core correction, Zval = 12.0
     Generated using &quot;atomic&quot; code by A. Dal Corso  v.6.2.2
     Using radial grid of 1201 points,  6 beta functions with:
                l(1) =   0
                l(2) =   0
                l(3) =   1
                l(4) =   1
                l(5) =   2
                l(6) =   2
     Q(r) pseudized with 0 coefficients

     PseudoPot. # 2 for O  read from file:
     /home/jvc/QEspresso7.2/ZnO_database/pseudos/O.upf
     MD5 check sum: 91400c9766925bcf19f520983a725ff0
     Pseudo is Ultrasoft + core correction, Zval =  6.0
     Generated using &quot;atomic&quot; code by A. Dal Corso  v.6.3MaX
     Using radial grid of 1095 points,  4 beta functions with:
                l(1) =   0
                l(2) =   0
                l(3) =   1
                l(4) =   1
     Q(r) pseudized with 0 coefficients

     atomic species   valence    mass     pseudopotential
        Zn            12.00    65.38000     Zn( 1.00)
        O              6.00    15.99900     O ( 1.00)

      2 Sym. Ops. (no inversion) found

                                    s                        frac. trans.

      isym =  1     identity

 cryst.   s( 1) = (     1          0          0      )
                  (     0          1          0      )
                  (     0          0          1      )

 cart.    s( 1) = (  1.0000000  0.0000000  0.0000000 )
                  (  0.0000000  1.0000000  0.0000000 )
                  (  0.0000000  0.0000000  1.0000000 )

      isym =  2     inv. 180 deg rotation - cart. axis [1,0,0]

 cryst.   s( 2) = (    -1          0          0      )
                  (     3          1          0      )
                  (     0          0          1      )

 cart.    s( 2) = ( -1.0000000  0.0000000  0.0000000 )
                  (  0.0000000  1.0000000  0.0000000 )
                  (  0.0000000  0.0000000  1.0000000 )

   Cartesian axes

     site n.     atom                  positions (alat units)
         1           Zn  tau(   1) = (   0.5000000   0.2886751   0.8082020  )
         2           Zn  tau(   2) = (   0.0000000   0.5773503   0.0010228  )
         3           O   tau(   3) = (   0.5000000   0.2886751   1.4201130  )
         4           O   tau(   4) = (   0.0000000   0.5773503   0.6129338  )
         5           Zn  tau(   5) = (   0.5000000   0.2886751   2.4225604  )
         6           Zn  tau(   6) = (   0.0000000   0.5773503   1.6153812  )
         7           O   tau(   7) = (   0.5000000   0.2886751   3.0344713  )
         8           O   tau(   8) = (   0.0000000   0.5773503   2.2272921  )
         9           Zn  tau(   9) = (   0.5000000   0.2886751   4.0369187  )
        10           Zn  tau(  10) = (   0.0000000   0.5773503   3.2297395  )
        11           O   tau(  11) = (   0.5000000   0.2886751   4.6488297  )
        12           O   tau(  12) = (   0.0000000   0.5773503   3.8416505  )
        13           Zn  tau(  13) = (   0.0000000   1.1547005   0.8082020  )
        14           Zn  tau(  14) = (  -0.5000000   1.4433757   0.0010228  )
        15           O   tau(  15) = (   0.0000000   1.1547005   1.4201130  )
        16           O   tau(  16) = (  -0.5000000   1.4433757   0.6129338  )
        17           Zn  tau(  17) = (   0.0000000   1.1547005   2.4225604  )
        18           Zn  tau(  18) = (  -0.5000000   1.4433757   1.6153812  )
        19           O   tau(  19) = (   0.0000000   1.1547005   3.0344713  )
        20           O   tau(  20) = (  -0.5000000   1.4433757   2.2272921  )
        21           Zn  tau(  21) = (   0.0000000   1.1547005   4.0369187  )
        22           Zn  tau(  22) = (  -0.5000000   1.4433757   3.2297395  )
        23           O   tau(  23) = (   0.0000000   1.1547005   4.6488297  )
        24           O   tau(  24) = (  -0.5000000   1.4433757   3.8416505  )
        25           Zn  tau(  25) = (  -0.5000000   2.0207259   0.8082020  )
        26           Zn  tau(  26) = (  -1.0000000   2.3094011   0.0010228  )
        27           O   tau(  27) = (  -0.5000000   2.0207259   1.4201130  )
        28           O   tau(  28) = (  -1.0000000   2.3094011   0.6129338  )
        29           Zn  tau(  29) = (  -0.5000000   2.0207259   2.4225604  )
        30           Zn  tau(  30) = (  -1.0000000   2.3094011   1.6153812  )
        31           O   tau(  31) = (  -0.5000000   2.0207259   3.0344713  )
        32           O   tau(  32) = (  -1.0000000   2.3094011   2.2272921  )
        33           Zn  tau(  33) = (  -0.5000000   2.0207259   4.0369187  )
        34           Zn  tau(  34) = (  -1.0000000   2.3094011   3.2297395  )
        35           O   tau(  35) = (  -0.5000000   2.0207259   4.6488297  )
        36           O   tau(  36) = (  -1.0000000   2.3094011   3.8416505  )

   Crystallographic axes

     site n.     atom                  positions (cryst. coord.)
         1           Zn  tau(   1) = (  0.6666667  0.1111111  0.1668779  )
         2           Zn  tau(   2) = (  0.3333333  0.2222222  0.0002112  )
         3           O   tau(   3) = (  0.6666667  0.1111111  0.2932255  )
         4           O   tau(   4) = (  0.3333333  0.2222222  0.1265588  )
         5           Zn  tau(   5) = (  0.6666667  0.1111111  0.5002112  )
         6           Zn  tau(   6) = (  0.3333333  0.2222222  0.3335445  )
         7           O   tau(   7) = (  0.6666667  0.1111111  0.6265588  )
         8           O   tau(   8) = (  0.3333333  0.2222222  0.4598921  )
         9           Zn  tau(   9) = (  0.6666667  0.1111111  0.8335445  )
        10           Zn  tau(  10) = (  0.3333333  0.2222222  0.6668779  )
        11           O   tau(  11) = (  0.6666667  0.1111111  0.9598921  )
        12           O   tau(  12) = (  0.3333333  0.2222222  0.7932255  )
        13           Zn  tau(  13) = (  0.6666667  0.4444444  0.1668779  )
        14           Zn  tau(  14) = (  0.3333333  0.5555556  0.0002112  )
        15           O   tau(  15) = (  0.6666667  0.4444444  0.2932255  )
        16           O   tau(  16) = (  0.3333333  0.5555556  0.1265588  )
        17           Zn  tau(  17) = (  0.6666667  0.4444444  0.5002112  )
        18           Zn  tau(  18) = (  0.3333333  0.5555556  0.3335445  )
        19           O   tau(  19) = (  0.6666667  0.4444444  0.6265588  )
        20           O   tau(  20) = (  0.3333333  0.5555556  0.4598921  )
        21           Zn  tau(  21) = (  0.6666667  0.4444444  0.8335445  )
        22           Zn  tau(  22) = (  0.3333333  0.5555556  0.6668779  )
        23           O   tau(  23) = (  0.6666667  0.4444444  0.9598921  )
        24           O   tau(  24) = (  0.3333333  0.5555556  0.7932255  )
        25           Zn  tau(  25) = (  0.6666667  0.7777778  0.1668779  )
        26           Zn  tau(  26) = (  0.3333333  0.8888889  0.0002112  )
        27           O   tau(  27) = (  0.6666667  0.7777778  0.2932255  )
        28           O   tau(  28) = (  0.3333333  0.8888889  0.1265588  )
        29           Zn  tau(  29) = (  0.6666667  0.7777778  0.5002112  )
        30           Zn  tau(  30) = (  0.3333333  0.8888889  0.3335445  )
        31           O   tau(  31) = (  0.6666667  0.7777778  0.6265588  )
        32           O   tau(  32) = (  0.3333333  0.8888889  0.4598921  )
        33           Zn  tau(  33) = (  0.6666667  0.7777778  0.8335445  )
        34           Zn  tau(  34) = (  0.3333333  0.8888889  0.6668779  )
        35           O   tau(  35) = (  0.6666667  0.7777778  0.9598921  )
        36           O   tau(  36) = (  0.3333333  0.8888889  0.7932255  )

     number of k points=    12
                       cart. coord. in units 2pi/alat
        k(    1) = (   0.0000000   0.0000000   0.0000000), wk =   0.0833333
        k(    2) = (   0.0000000   0.0000000  -0.1032402), wk =   0.0833333
        k(    3) = (   0.0000000  -0.1924501   0.0000000), wk =   0.0833333
        k(    4) = (   0.0000000  -0.1924501  -0.1032402), wk =   0.0833333
        k(    5) = (   0.1666667   0.0962250   0.0000000), wk =   0.3333333
        k(    6) = (   0.1666667   0.0962250  -0.1032402), wk =   0.3333333
        k(    7) = (   0.3333333   0.1924501   0.0000000), wk =   0.1666667
        k(    8) = (   0.3333333   0.1924501  -0.1032402), wk =   0.1666667
        k(    9) = (   0.3333333  -0.0000000   0.0000000), wk =   0.1666667
        k(   10) = (   0.3333333  -0.0000000  -0.1032402), wk =   0.1666667
        k(   11) = (  -0.5000000  -0.2886751   0.0000000), wk =   0.1666667
        k(   12) = (  -0.5000000  -0.2886751  -0.1032402), wk =   0.1666667

                       cryst. coord.
[...]
     atom   11 type  2   force =     0.00000000    0.00000133    0.00575315
     atom   12 type  2   force =     0.00000000    0.00000040    0.00575546
     atom   13 type  1   force =     0.00000000    0.00000073   -0.00482733
     atom   14 type  1   force =     0.00000000    0.00000118   -0.00483174
     atom   15 type  2   force =     0.00000000    0.00000000    0.00575200
     atom   16 type  2   force =     0.00000000   -0.00000109    0.00575113
     atom   17 type  1   force =     0.00000000    0.00000041   -0.00483475
     atom   18 type  1   force =     0.00000000    0.00000043   -0.00483046
     atom   19 type  2   force =     0.00000000    0.00000002    0.00575700
     atom   20 type  2   force =     0.00000000   -0.00000056    0.00575526
     atom   21 type  1   force =     0.00000000    0.00000091   -0.00483431
     atom   22 type  1   force =     0.00000000    0.00000115   -0.00483744
     atom   23 type  2   force =     0.00000000   -0.00000035    0.00575286
     atom   24 type  2   force =     0.00000000   -0.00000123    0.00575477
     atom   25 type  1   force =     0.00000000    0.00000037   -0.00482813
     atom   26 type  1   force =     0.00000000   -0.00000029   -0.00483110
     atom   27 type  2   force =     0.00000000   -0.00000008    0.00575317
     atom   28 type  2   force =     0.00000000    0.00000003    0.00575129
     atom   29 type  1   force =     0.00000000    0.00000009   -0.00483429
     atom   30 type  1   force =     0.00000000    0.00000012   -0.00483131
     atom   31 type  2   force =     0.00000000   -0.00000063    0.00575614
     atom   32 type  2   force =     0.00000000   -0.00000006    0.00575494
     atom   33 type  1   force =     0.00000000    0.00000061   -0.00483527
     atom   34 type  1   force =     0.00000000    0.00000064   -0.00483700
     atom   35 type  2   force =     0.00000000   -0.00000046    0.00575275
     atom   36 type  2   force =     0.00000000   -0.00000018    0.00575596
     The ionic contribution  to forces
     atom    1 type  1   force =     0.00000000    0.00000001    0.06271746
     atom    2 type  1   force =    -0.00000000    0.00000001    0.06271750
     atom    3 type  2   force =     0.00000000    0.00000000   -0.06271747
     atom    4 type  2   force =    -0.00000000    0.00000001   -0.06271748
     atom    5 type  1   force =     0.00000000    0.00000001    0.06271750
     atom    6 type  1   force =    -0.00000000    0.00000001    0.06271746
     atom    7 type  2   force =     0.00000000    0.00000000   -0.06271748
     atom    8 type  2   force =    -0.00000000    0.00000001   -0.06271746
     atom    9 type  1   force =     0.00000000    0.00000001    0.06271746
     atom   10 type  1   force =    -0.00000000    0.00000001    0.06271746
     atom   11 type  2   force =     0.00000000    0.00000000   -0.06271746
     atom   12 type  2   force =    -0.00000000    0.00000001   -0.06271747
     atom   13 type  1   force =    -0.00000001    0.00000001    0.06271746
     atom   14 type  1   force =     0.00000001   -0.00000001    0.06271749
     atom   15 type  2   force =    -0.00000000    0.00000000   -0.06271747
     atom   16 type  2   force =     0.00000000   -0.00000000   -0.06271748
     atom   17 type  1   force =    -0.00000001    0.00000001    0.06271749
     atom   18 type  1   force =     0.00000001   -0.00000001    0.06271745
     atom   19 type  2   force =    -0.00000000    0.00000000   -0.06271748
     atom   20 type  2   force =     0.00000000   -0.00000000   -0.06271746
     atom   21 type  1   force =    -0.00000001    0.00000001    0.06271745
     atom   22 type  1   force =     0.00000001   -0.00000001    0.06271746
     atom   23 type  2   force =    -0.00000000    0.00000000   -0.06271746
     atom   24 type  2   force =     0.00000000   -0.00000000   -0.06271747
     atom   25 type  1   force =     0.00000000   -0.00000001    0.06271746
     atom   26 type  1   force =    -0.00000000   -0.00000001    0.06271750
     atom   27 type  2   force =     0.00000000   -0.00000001   -0.06271747
     atom   28 type  2   force =    -0.00000000   -0.00000000   -0.06271748
     atom   29 type  1   force =     0.00000000   -0.00000001    0.06271750
     atom   30 type  1   force =    -0.00000000   -0.00000001    0.06271746
     atom   31 type  2   force =     0.00000000   -0.00000001   -0.06271748
     atom   32 type  2   force =    -0.00000000   -0.00000000   -0.06271746
     atom   33 type  1   force =     0.00000000   -0.00000001    0.06271746
     atom   34 type  1   force =    -0.00000000   -0.00000001    0.06271746
     atom   35 type  2   force =     0.00000000   -0.00000001   -0.06271746
     atom   36 type  2   force =    -0.00000000   -0.00000000   -0.06271747
     The local contribution  to forces
     atom    1 type  1   force =    -0.00000004    0.00000321   -0.05830372
     atom    2 type  1   force =     0.00000000    0.00000185   -0.05829133
     atom    3 type  2   force =    -0.00000001   -0.00000019    0.05696401
     atom    4 type  2   force =     0.00000000    0.00000180    0.05695877
     atom    5 type  1   force =    -0.00000004    0.00000194   -0.05828532
     atom    6 type  1   force =     0.00000000    0.00000007   -0.05829206
     atom    7 type  2   force =    -0.00000001    0.00000184    0.05697150
     atom    8 type  2   force =     0.00000000    0.00000020    0.05696790
     atom    9 type  1   force =    -0.00000004    0.00000437   -0.05828294
     atom   10 type  1   force =     0.00000000    0.00000648   -0.05827619
     atom   11 type  2   force =    -0.00000001    0.00000142    0.05696512
     atom   12 type  2   force =     0.00000000    0.00000254    0.05696964
     atom   13 type  1   force =    -0.00000009   -0.00000112   -0.05830484
     atom   14 type  1   force =     0.00000009   -0.00000432   -0.05828947
     atom   15 type  2   force =    -0.00000002   -0.00000039    0.05696307
     atom   16 type  2   force =     0.00000002   -0.00000134    0.05695937
     atom   17 type  1   force =    -0.00000009   -0.00000143   -0.05828145
     atom   18 type  1   force =     0.00000009   -0.00000072   -0.05829287
     atom   19 type  2   force =    -0.00000002   -0.00000183    0.05697081
     atom   20 type  2   force =     0.00000002   -0.00000038    0.05696899
     atom   21 type  1   force =    -0.00000009   -0.00000242   -0.05828601
     atom   22 type  1   force =     0.00000009   -0.00000510   -0.05827606
     atom   23 type  2   force =    -0.00000002   -0.00000134    0.05696553
     atom   24 type  2   force =     0.00000002   -0.00000060    0.05696999
     atom   25 type  1   force =    -0.00000000   -0.00000205   -0.05830103
     atom   26 type  1   force =     0.00000004    0.00000252   -0.05829195
     atom   27 type  2   force =    -0.00000000    0.00000044    0.05696249
     atom   28 type  2   force =     0.00000001   -0.00000047    0.05696070
     atom   29 type  1   force =    -0.00000000   -0.00000029   -0.05828566
     atom   30 type  1   force =     0.00000004    0.00000024   -0.05829118
     atom   31 type  2   force =    -0.00000000   -0.00000114    0.05697100
     atom   32 type  2   force =     0.00000001    0.00000057    0.05696675
     atom   33 type  1   force =    -0.00000000   -0.00000188   -0.05828461
     atom   34 type  1   force =     0.00000004   -0.00000071   -0.05827594
     atom   35 type  2   force =    -0.00000000   -0.00000122    0.05696351
     atom   36 type  2   force =     0.00000001   -0.00000015    0.05696928
     The core correction contribution to forces
     atom    1 type  1   force =    -0.00000001   -0.00000004    0.00046409
     atom    2 type  1   force =     0.00000000    0.00000005    0.00046404
     atom    3 type  2   force =     0.00000000   -0.00000001   -0.00006502
     atom    4 type  2   force =    -0.00000000   -0.00000001   -0.00006499
     atom    5 type  1   force =    -0.00000001    0.00000000    0.00046401
     atom    6 type  1   force =     0.00000000    0.00000002    0.00046395
     atom    7 type  2   force =     0.00000000   -0.00000001   -0.00006504
     atom    8 type  2   force =    -0.00000000   -0.00000000   -0.00006504
     atom    9 type  1   force =    -0.00000001   -0.00000003    0.00046402
     atom   10 type  1   force =     0.00000000   -0.00000006    0.00046388
     atom   11 type  2   force =     0.00000000   -0.00000002   -0.00006501
     atom   12 type  2   force =    -0.00000000   -0.00000000   -0.00006504
     atom   13 type  1   force =    -0.00000001   -0.00000002    0.00046415
     atom   14 type  1   force =     0.00000001    0.00000005    0.00046399
     atom   15 type  2   force =     0.00000000   -0.00000000   -0.00006501
     atom   16 type  2   force =    -0.00000000    0.00000001   -0.00006500
     atom   17 type  1   force =    -0.00000001    0.00000001    0.00046391
     atom   18 type  1   force =     0.00000001   -0.00000002    0.00046395
     atom   19 type  2   force =     0.00000000   -0.00000001   -0.00006506
     atom   20 type  2   force =    -0.00000000    0.00000001   -0.00006504
     atom   21 type  1   force =    -0.00000001    0.00000001    0.00046407
     atom   22 type  1   force =     0.00000001    0.00000011    0.00046394
     atom   23 type  2   force =     0.00000000    0.00000000   -0.00006501
     atom   24 type  2   force =    -0.00000000    0.00000002   -0.00006503
     atom   25 type  1   force =    -0.00000000    0.00000007    0.00046411
     atom   26 type  1   force =     0.00000001   -0.00000010    0.00046403
     atom   27 type  2   force =     0.00000000    0.00000000   -0.00006502
     atom   28 type  2   force =    -0.00000000   -0.00000000   -0.00006500
     atom   29 type  1   force =    -0.00000000    0.00000000    0.00046404
     atom   30 type  1   force =     0.00000001   -0.00000002    0.00046396
     atom   31 type  2   force =     0.00000000    0.00000000   -0.00006505
     atom   32 type  2   force =    -0.00000000    0.00000000   -0.00006504
     atom   33 type  1   force =    -0.00000000    0.00000004    0.00046412
     atom   34 type  1   force =     0.00000001   -0.00000005    0.00046389
     atom   35 type  2   force =     0.00000000    0.00000000   -0.00006502
     atom   36 type  2   force =    -0.00000000    0.00000000   -0.00006504
     The Hubbard contrib.    to forces
     atom    1 type  1   force =     0.00000000    0.00000000    0.00000000
     atom    2 type  1   force =     0.00000000    0.00000000    0.00000000
     atom    3 type  2   force =     0.00000000    0.00000000    0.00000000
     atom    4 type  2   force =     0.00000000    0.00000000    0.00000000
     atom    5 type  1   force =     0.00000000    0.00000000    0.00000000
     atom    6 type  1   force =     0.00000000    0.00000000    0.00000000
     atom    7 type  2   force =     0.00000000    0.00000000    0.00000000
     atom    8 type  2   force =     0.00000000    0.00000000    0.00000000
     atom    9 type  1   force =     0.00000000    0.00000000    0.00000000
     atom   10 type  1   force =     0.00000000    0.00000000    0.00000000
     atom   11 type  2   force =     0.00000000    0.00000000    0.00000000
     atom   12 type  2   force =     0.00000000    0.00000000    0.00000000
     atom   13 type  1   force =     0.00000000    0.00000000    0.00000000
     atom   14 type  1   force =     0.00000000    0.00000000    0.00000000
     atom   15 type  2   force =     0.00000000    0.00000000    0.00000000
     atom   16 type  2   force =     0.00000000    0.00000000    0.00000000
     atom   17 type  1   force =     0.00000000    0.00000000    0.00000000
     atom   18 type  1   force =     0.00000000    0.00000000    0.00000000
     atom   19 type  2   force =     0.00000000    0.00000000    0.00000000
     atom   20 type  2   force =     0.00000000    0.00000000    0.00000000
     atom   21 type  1   force =     0.00000000    0.00000000    0.00000000
     atom   22 type  1   force =     0.00000000    0.00000000    0.00000000
     atom   23 type  2   force =     0.00000000    0.00000000    0.00000000
     atom   24 type  2   force =     0.00000000    0.00000000    0.00000000
     atom   25 type  1   force =     0.00000000    0.00000000    0.00000000
     atom   26 type  1   force =     0.00000000    0.00000000    0.00000000
     atom   27 type  2   force =     0.00000000    0.00000000    0.00000000
     atom   28 type  2   force =     0.00000000    0.00000000    0.00000000
     atom   29 type  1   force =     0.00000000    0.00000000    0.00000000
     atom   30 type  1   force =     0.00000000    0.00000000    0.00000000
     atom   31 type  2   force =     0.00000000    0.00000000    0.00000000
     atom   32 type  2   force =     0.00000000    0.00000000    0.00000000
     atom   33 type  1   force =     0.00000000    0.00000000    0.00000000
     atom   34 type  1   force =     0.00000000    0.00000000    0.00000000
     atom   35 type  2   force =     0.00000000    0.00000000    0.00000000
     atom   36 type  2   force =     0.00000000    0.00000000    0.00000000
     The SCF correction term to forces
     atom    1 type  1   force =     0.00000000   -0.00000494    0.00002032
     atom    2 type  1   force =     0.00000000   -0.00000216    0.00000208
     atom    3 type  2   force =    -0.00000000    0.00000010    0.00000267
     atom    4 type  2   force =    -0.00000000   -0.00000282    0.00001110
     atom    5 type  1   force =     0.00000000   -0.00000285   -0.00000380
     atom    6 type  1   force =     0.00000000    0.00000068    0.00000358
     atom    7 type  2   force =    -0.00000000   -0.00000285   -0.00000834
     atom    8 type  2   force =    -0.00000000   -0.00000050   -0.00000387
     atom    9 type  1   force =     0.00000000   -0.00000641   -0.00000705
     atom   10 type  1   force =     0.00000000   -0.00000881   -0.00001680
     atom   11 type  2   force =    -0.00000000   -0.00000278    0.00000118
     atom   12 type  2   force =    -0.00000000   -0.00000308   -0.00000590
     atom   13 type  1   force =     0.00000000    0.00000091    0.00002236
     atom   14 type  1   force =    -0.00000000    0.00000675   -0.00000020
     atom   15 type  2   force =    -0.00000000    0.00000046    0.00000454
     atom   16 type  2   force =     0.00000000    0.00000262    0.00000976
     atom   17 type  1   force =     0.00000000    0.00000217   -0.00001066
     atom   18 type  1   force =    -0.00000000    0.00000099    0.00000497
     atom   19 type  2   force =    -0.00000000    0.00000214   -0.00000842
     atom   20 type  2   force =     0.00000000    0.00000090   -0.00000493
     atom   21 type  1   force =     0.00000000    0.00000297   -0.00000332
     atom   22 type  1   force =    -0.00000000    0.00000718   -0.00001637
     atom   23 type  2   force =    -0.00000000    0.00000191    0.00000087
     atom   24 type  2   force =     0.00000000    0.00000178   -0.00000582
     atom   25 type  1   force =    -0.00000000    0.00000252    0.00001573
     atom   26 type  1   force =    -0.00000000   -0.00000361    0.00000325
     atom   27 type  2   force =    -0.00000000   -0.00000054    0.00000417
     atom   28 type  2   force =     0.00000000    0.00000055    0.00000801
     atom   29 type  1   force =    -0.00000000    0.00000018   -0.00000366
     atom   30 type  1   force =    -0.00000000   -0.00000038    0.00000295
     atom   31 type  2   force =    -0.00000000    0.00000186   -0.00000780
     atom   32 type  2   force =     0.00000000   -0.00000067   -0.00000221
     atom   33 type  1   force =    -0.00000000    0.00000220   -0.00000481
     atom   34 type  1   force =    -0.00000000    0.00000097   -0.00001686
     atom   35 type  2   force =    -0.00000000    0.00000171    0.00000310
     atom   36 type  2   force =     0.00000000    0.00000024   -0.00000583

     Total force =     0.000369     Total SCF correction =     0.000058
     SCF correction compared to forces is large: reduce conv_thr to get better values

     General routines

     Parallel routines

   This run was terminated on:   5:51: 5  25Jul2025

   JOB DONE.
Note: The following floating-point exceptions are signalling: IEEE_INVALID_FLAG
Note: The following floating-point exceptions are signalling: IEEE_DENORMAL
Note: The following floating-point exceptions are signalling: IEEE_INVALID_FLAG
Note: The following floating-point exceptions are signalling: IEEE_DENORMAL
Note: The following floating-point exceptions are signalling: IEEE_INVALID_FLAG
Note: The following floating-point exceptions are signalling: IEEE_DENORMAL
Note: The following floating-point exceptions are signalling: IEEE_INVALID_FLAG
Note: The following floating-point exceptions are signalling: IEEE_DENORMAL