     Program PWSCF v.7.2 starts on 26Jul2025 at 10:52:19

     Reading input from ZnO-2.94-1.45-133.in
Warning: card &CELL ignored
Warning: card / ignored
Warning: card &FCP ignored
Warning: card / ignored
Warning: card &RISM ignored
Warning: card / ignored

     Current dimensions of program PWSCF are:
     Max number of different atomic species (ntypx) = 10
     Max number of k-points (npk) =  40000
     Max angular momentum in pseudopotentials (lmaxx) =  4
     file Zn.upf: wavefunction(s)  3D renormalized
     Found identity + (  0.0000  0.0000  0.3333) symmetry
     This is a supercell, fractional translations are disabled
     Message from routine setup:
     using ibrav=0 with symmetry is DISCOURAGED, use correct ibrav instead

     K-points division:     npool     =       4
     R & G space division:  proc/nbgrp/npool/nimage =       4
     Subspace diagonalization in iterative solution of the eigenvalue problem:
     one sub-group per band group will be used

     Using Slab Decomposition

     bravais-lattice index     =            0
     lattice parameter (alat)  =       6.1788  a.u.
     unit-cell volume          =    2968.1791 (a.u.)^3
     number of atoms/cell      =           36
     number of atomic types    =            2
     number of electrons       =       324.00
     number of Kohn-Sham states=          162
     kinetic-energy cutoff     =      50.0000  Ry
     charge density cutoff     =     400.0000  Ry
     scf convergence threshold =      1.0E-08
     mixing beta               =       0.3000
     number of iterations used =            8  plain     mixing
     Exchange-correlation= PBE
                           (   1   4   3   4   0   0   0)

     celldm(1)=   6.178822  celldm(2)=   0.000000  celldm(3)=   0.000000
     celldm(4)=   0.000000  celldm(5)=   0.000000  celldm(6)=   0.000000

     crystal axes: (cart. coord. in units of alat)
               a(1) = (   1.000000   0.000000   0.000000 )
               a(2) = (  -1.500000   2.598076   0.000000 )
               a(3) = (   0.000000   0.000000   4.843075 )

     reciprocal axes: (cart. coord. in units 2 pi/alat)
               b(1) = (  1.000000  0.577350 -0.000000 )
               b(2) = (  0.000000  0.384900  0.000000 )
               b(3) = (  0.000000 -0.000000  0.206480 )

     PseudoPot. # 1 for Zn read from file:
     /home/jvc/QEspresso7.2/ZnO_database/pseudos/Zn.upf
     MD5 check sum: 7f56cabf9682ed8c977c2f7d0c5985c5
     Pseudo is Ultrasoft + core correction, Zval = 12.0
     Generated using &quot;atomic&quot; code by A. Dal Corso  v.6.2.2
     Using radial grid of 1201 points,  6 beta functions with:
                l(1) =   0
                l(2) =   0
                l(3) =   1
                l(4) =   1
                l(5) =   2
                l(6) =   2
     Q(r) pseudized with 0 coefficients

     PseudoPot. # 2 for O  read from file:
     /home/jvc/QEspresso7.2/ZnO_database/pseudos/O.upf
     MD5 check sum: 91400c9766925bcf19f520983a725ff0
     Pseudo is Ultrasoft + core correction, Zval =  6.0
     Generated using &quot;atomic&quot; code by A. Dal Corso  v.6.3MaX
     Using radial grid of 1095 points,  4 beta functions with:
                l(1) =   0
                l(2) =   0
                l(3) =   1
                l(4) =   1
     Q(r) pseudized with 0 coefficients

     atomic species   valence    mass     pseudopotential
        Zn            12.00    65.38000     Zn( 1.00)
        O              6.00    15.99900     O ( 1.00)

      2 Sym. Ops. (no inversion) found

                                    s                        frac. trans.

      isym =  1     identity

 cryst.   s( 1) = (     1          0          0      )
                  (     0          1          0      )
                  (     0          0          1      )

 cart.    s( 1) = (  1.0000000  0.0000000  0.0000000 )
                  (  0.0000000  1.0000000  0.0000000 )
                  (  0.0000000  0.0000000  1.0000000 )

      isym =  2     inv. 180 deg rotation - cart. axis [1,0,0]

 cryst.   s( 2) = (    -1          0          0      )
                  (     3          1          0      )
                  (     0          0          1      )

 cart.    s( 2) = ( -1.0000000  0.0000000  0.0000000 )
                  (  0.0000000  1.0000000  0.0000000 )
                  (  0.0000000  0.0000000  1.0000000 )

   Cartesian axes

     site n.     atom                  positions (alat units)
         1           Zn  tau(   1) = (   0.5000000   0.2886751   0.8082020  )
         2           Zn  tau(   2) = (   0.0000000   0.5773503   0.0010228  )
         3           O   tau(   3) = (   0.5000000   0.2886751   1.4201130  )
         4           O   tau(   4) = (   0.0000000   0.5773503   0.6129338  )
         5           Zn  tau(   5) = (   0.5000000   0.2886751   2.4225604  )
         6           Zn  tau(   6) = (   0.0000000   0.5773503   1.6153812  )
         7           O   tau(   7) = (   0.5000000   0.2886751   3.0344713  )
         8           O   tau(   8) = (   0.0000000   0.5773503   2.2272921  )
         9           Zn  tau(   9) = (   0.5000000   0.2886751   4.0369187  )
        10           Zn  tau(  10) = (   0.0000000   0.5773503   3.2297395  )
        11           O   tau(  11) = (   0.5000000   0.2886751   4.6488297  )
        12           O   tau(  12) = (   0.0000000   0.5773503   3.8416505  )
        13           Zn  tau(  13) = (   0.0000000   1.1547005   0.8082020  )
        14           Zn  tau(  14) = (  -0.5000000   1.4433757   0.0010228  )
        15           O   tau(  15) = (   0.0000000   1.1547005   1.4201130  )
        16           O   tau(  16) = (  -0.5000000   1.4433757   0.6129338  )
        17           Zn  tau(  17) = (   0.0000000   1.1547005   2.4225604  )
        18           Zn  tau(  18) = (  -0.5000000   1.4433757   1.6153812  )
        19           O   tau(  19) = (   0.0000000   1.1547005   3.0344713  )
        20           O   tau(  20) = (  -0.5000000   1.4433757   2.2272921  )
        21           Zn  tau(  21) = (   0.0000000   1.1547005   4.0369187  )
        22           Zn  tau(  22) = (  -0.5000000   1.4433757   3.2297395  )
        23           O   tau(  23) = (   0.0000000   1.1547005   4.6488297  )
        24           O   tau(  24) = (  -0.5000000   1.4433757   3.8416505  )
        25           Zn  tau(  25) = (  -0.5000000   2.0207259   0.8082020  )
        26           Zn  tau(  26) = (  -1.0000000   2.3094011   0.0010228  )
        27           O   tau(  27) = (  -0.5000000   2.0207259   1.4201130  )
        28           O   tau(  28) = (  -1.0000000   2.3094011   0.6129338  )
        29           Zn  tau(  29) = (  -0.5000000   2.0207259   2.4225604  )
        30           Zn  tau(  30) = (  -1.0000000   2.3094011   1.6153812  )
        31           O   tau(  31) = (  -0.5000000   2.0207259   3.0344713  )
        32           O   tau(  32) = (  -1.0000000   2.3094011   2.2272921  )
        33           Zn  tau(  33) = (  -0.5000000   2.0207259   4.0369187  )
        34           Zn  tau(  34) = (  -1.0000000   2.3094011   3.2297395  )
        35           O   tau(  35) = (  -0.5000000   2.0207259   4.6488297  )
        36           O   tau(  36) = (  -1.0000000   2.3094011   3.8416505  )

   Crystallographic axes

     site n.     atom                  positions (cryst. coord.)
         1           Zn  tau(   1) = (  0.6666667  0.1111111  0.1668779  )
         2           Zn  tau(   2) = (  0.3333333  0.2222222  0.0002112  )
         3           O   tau(   3) = (  0.6666667  0.1111111  0.2932255  )
         4           O   tau(   4) = (  0.3333333  0.2222222  0.1265588  )
         5           Zn  tau(   5) = (  0.6666667  0.1111111  0.5002112  )
         6           Zn  tau(   6) = (  0.3333333  0.2222222  0.3335445  )
         7           O   tau(   7) = (  0.6666667  0.1111111  0.6265588  )
         8           O   tau(   8) = (  0.3333333  0.2222222  0.4598921  )
         9           Zn  tau(   9) = (  0.6666667  0.1111111  0.8335445  )
        10           Zn  tau(  10) = (  0.3333333  0.2222222  0.6668779  )
        11           O   tau(  11) = (  0.6666667  0.1111111  0.9598921  )
        12           O   tau(  12) = (  0.3333333  0.2222222  0.7932255  )
        13           Zn  tau(  13) = (  0.6666667  0.4444444  0.1668779  )
        14           Zn  tau(  14) = (  0.3333333  0.5555556  0.0002112  )
        15           O   tau(  15) = (  0.6666667  0.4444444  0.2932255  )
        16           O   tau(  16) = (  0.3333333  0.5555556  0.1265588  )
        17           Zn  tau(  17) = (  0.6666667  0.4444444  0.5002112  )
        18           Zn  tau(  18) = (  0.3333333  0.5555556  0.3335445  )
        19           O   tau(  19) = (  0.6666667  0.4444444  0.6265588  )
        20           O   tau(  20) = (  0.3333333  0.5555556  0.4598921  )
        21           Zn  tau(  21) = (  0.6666667  0.4444444  0.8335445  )
        22           Zn  tau(  22) = (  0.3333333  0.5555556  0.6668779  )
        23           O   tau(  23) = (  0.6666667  0.4444444  0.9598921  )
        24           O   tau(  24) = (  0.3333333  0.5555556  0.7932255  )
        25           Zn  tau(  25) = (  0.6666667  0.7777778  0.1668779  )
        26           Zn  tau(  26) = (  0.3333333  0.8888889  0.0002112  )
        27           O   tau(  27) = (  0.6666667  0.7777778  0.2932255  )
        28           O   tau(  28) = (  0.3333333  0.8888889  0.1265588  )
        29           Zn  tau(  29) = (  0.6666667  0.7777778  0.5002112  )
        30           Zn  tau(  30) = (  0.3333333  0.8888889  0.3335445  )
        31           O   tau(  31) = (  0.6666667  0.7777778  0.6265588  )
        32           O   tau(  32) = (  0.3333333  0.8888889  0.4598921  )
        33           Zn  tau(  33) = (  0.6666667  0.7777778  0.8335445  )
        34           Zn  tau(  34) = (  0.3333333  0.8888889  0.6668779  )
        35           O   tau(  35) = (  0.6666667  0.7777778  0.9598921  )
        36           O   tau(  36) = (  0.3333333  0.8888889  0.7932255  )

     number of k points=    12
                       cart. coord. in units 2pi/alat
        k(    1) = (   0.0000000   0.0000000   0.0000000), wk =   0.0833333
        k(    2) = (   0.0000000   0.0000000  -0.1032402), wk =   0.0833333
        k(    3) = (   0.0000000  -0.1924501   0.0000000), wk =   0.0833333
        k(    4) = (   0.0000000  -0.1924501  -0.1032402), wk =   0.0833333
        k(    5) = (   0.1666667   0.0962250   0.0000000), wk =   0.3333333
        k(    6) = (   0.1666667   0.0962250  -0.1032402), wk =   0.3333333
        k(    7) = (   0.3333333   0.1924501   0.0000000), wk =   0.1666667
        k(    8) = (   0.3333333   0.1924501  -0.1032402), wk =   0.1666667
        k(    9) = (   0.3333333  -0.0000000   0.0000000), wk =   0.1666667
        k(   10) = (   0.3333333  -0.0000000  -0.1032402), wk =   0.1666667
        k(   11) = (  -0.5000000  -0.2886751   0.0000000), wk =   0.1666667
        k(   12) = (  -0.5000000  -0.2886751  -0.1032402), wk =   0.1666667

                       cryst. coord.
        k(    1) = (   0.0000000   0.0000000   0.0000000), wk =   0.0833333
[...]
     atom   11 type  2   force =     0.00000000    0.00000132    0.00575321
     atom   12 type  2   force =     0.00000000    0.00000039    0.00575535
     atom   13 type  1   force =     0.00000000    0.00000090   -0.00482704
     atom   14 type  1   force =     0.00000000    0.00000103   -0.00483174
     atom   15 type  2   force =     0.00000000    0.00000000    0.00575204
     atom   16 type  2   force =     0.00000000   -0.00000110    0.00575113
     atom   17 type  1   force =     0.00000000    0.00000051   -0.00483476
     atom   18 type  1   force =     0.00000000    0.00000039   -0.00483027
     atom   19 type  2   force =     0.00000000    0.00000004    0.00575697
     atom   20 type  2   force =     0.00000000   -0.00000057    0.00575523
     atom   21 type  1   force =     0.00000000    0.00000100   -0.00483430
     atom   22 type  1   force =     0.00000000    0.00000096   -0.00483740
     atom   23 type  2   force =     0.00000000   -0.00000034    0.00575287
     atom   24 type  2   force =     0.00000000   -0.00000121    0.00575472
     atom   25 type  1   force =     0.00000000    0.00000042   -0.00482784
     atom   26 type  1   force =     0.00000000   -0.00000030   -0.00483112
     atom   27 type  2   force =     0.00000000   -0.00000012    0.00575322
     atom   28 type  2   force =     0.00000000    0.00000006    0.00575138
     atom   29 type  1   force =     0.00000000    0.00000023   -0.00483417
     atom   30 type  1   force =     0.00000000    0.00000025   -0.00483128
     atom   31 type  2   force =     0.00000000   -0.00000065    0.00575611
     atom   32 type  2   force =     0.00000000   -0.00000007    0.00575497
     atom   33 type  1   force =     0.00000000    0.00000057   -0.00483519
     atom   34 type  1   force =     0.00000000    0.00000053   -0.00483697
     atom   35 type  2   force =     0.00000000   -0.00000052    0.00575279
     atom   36 type  2   force =     0.00000000   -0.00000011    0.00575576
     The ionic contribution  to forces
     atom    1 type  1   force =     0.00000000    0.00000001    0.06271746
     atom    2 type  1   force =    -0.00000000    0.00000001    0.06271750
     atom    3 type  2   force =     0.00000000    0.00000000   -0.06271747
     atom    4 type  2   force =    -0.00000000    0.00000001   -0.06271748
     atom    5 type  1   force =     0.00000000    0.00000001    0.06271750
     atom    6 type  1   force =    -0.00000000    0.00000001    0.06271746
     atom    7 type  2   force =     0.00000000    0.00000000   -0.06271748
     atom    8 type  2   force =    -0.00000000    0.00000001   -0.06271746
     atom    9 type  1   force =     0.00000000    0.00000001    0.06271746
     atom   10 type  1   force =    -0.00000000    0.00000001    0.06271746
     atom   11 type  2   force =     0.00000000    0.00000000   -0.06271746
     atom   12 type  2   force =    -0.00000000    0.00000001   -0.06271747
     atom   13 type  1   force =    -0.00000001    0.00000001    0.06271746
     atom   14 type  1   force =     0.00000001   -0.00000001    0.06271749
     atom   15 type  2   force =    -0.00000000    0.00000000   -0.06271747
     atom   16 type  2   force =     0.00000000   -0.00000000   -0.06271748
     atom   17 type  1   force =    -0.00000001    0.00000001    0.06271749
     atom   18 type  1   force =     0.00000001   -0.00000001    0.06271745
     atom   19 type  2   force =    -0.00000000    0.00000000   -0.06271748
     atom   20 type  2   force =     0.00000000   -0.00000000   -0.06271746
     atom   21 type  1   force =    -0.00000001    0.00000001    0.06271745
     atom   22 type  1   force =     0.00000001   -0.00000001    0.06271746
     atom   23 type  2   force =    -0.00000000    0.00000000   -0.06271746
     atom   24 type  2   force =     0.00000000   -0.00000000   -0.06271747
     atom   25 type  1   force =     0.00000000   -0.00000001    0.06271746
     atom   26 type  1   force =    -0.00000000   -0.00000001    0.06271750
     atom   27 type  2   force =     0.00000000   -0.00000001   -0.06271747
     atom   28 type  2   force =    -0.00000000   -0.00000000   -0.06271748
     atom   29 type  1   force =     0.00000000   -0.00000001    0.06271750
     atom   30 type  1   force =    -0.00000000   -0.00000001    0.06271746
     atom   31 type  2   force =     0.00000000   -0.00000001   -0.06271748
     atom   32 type  2   force =    -0.00000000   -0.00000000   -0.06271746
     atom   33 type  1   force =     0.00000000   -0.00000001    0.06271746
     atom   34 type  1   force =    -0.00000000   -0.00000001    0.06271746
     atom   35 type  2   force =     0.00000000   -0.00000001   -0.06271746
     atom   36 type  2   force =    -0.00000000   -0.00000000   -0.06271747
     The local contribution  to forces
     atom    1 type  1   force =    -0.00000004    0.00000304   -0.05830397
     atom    2 type  1   force =     0.00000000    0.00000182   -0.05829135
     atom    3 type  2   force =    -0.00000001   -0.00000015    0.05696410
     atom    4 type  2   force =     0.00000000    0.00000195    0.05695873
     atom    5 type  1   force =    -0.00000004    0.00000174   -0.05828527
     atom    6 type  1   force =     0.00000000   -0.00000001   -0.05829197
     atom    7 type  2   force =    -0.00000001    0.00000180    0.05697172
     atom    8 type  2   force =     0.00000000    0.00000011    0.05696797
     atom    9 type  1   force =    -0.00000004    0.00000399   -0.05828303
     atom   10 type  1   force =     0.00000000    0.00000611   -0.05827637
     atom   11 type  2   force =    -0.00000001    0.00000149    0.05696480
     atom   12 type  2   force =     0.00000000    0.00000234    0.05696972
     atom   13 type  1   force =    -0.00000009   -0.00000136   -0.05830527
     atom   14 type  1   force =     0.00000009   -0.00000414   -0.05828958
     atom   15 type  2   force =    -0.00000002   -0.00000046    0.05696309
     atom   16 type  2   force =     0.00000002   -0.00000140    0.05695928
     atom   17 type  1   force =    -0.00000009   -0.00000153   -0.05828130
     atom   18 type  1   force =     0.00000009   -0.00000062   -0.05829302
     atom   19 type  2   force =    -0.00000002   -0.00000181    0.05697088
     atom   20 type  2   force =     0.00000002   -0.00000019    0.05696905
     atom   21 type  1   force =    -0.00000009   -0.00000250   -0.05828604
     atom   22 type  1   force =     0.00000009   -0.00000478   -0.05827613
     atom   23 type  2   force =    -0.00000002   -0.00000140    0.05696540
     atom   24 type  2   force =     0.00000002   -0.00000052    0.05696998
     atom   25 type  1   force =    -0.00000000   -0.00000212   -0.05830142
     atom   26 type  1   force =     0.00000004    0.00000251   -0.05829207
     atom   27 type  2   force =    -0.00000000    0.00000043    0.05696261
     atom   28 type  2   force =     0.00000001   -0.00000058    0.05696050
     atom   29 type  1   force =    -0.00000000   -0.00000043   -0.05828568
     atom   30 type  1   force =     0.00000004    0.00000006   -0.05829111
     atom   31 type  2   force =    -0.00000000   -0.00000117    0.05697105
     atom   32 type  2   force =     0.00000001    0.00000064    0.05696682
     atom   33 type  1   force =    -0.00000000   -0.00000175   -0.05828478
     atom   34 type  1   force =     0.00000004   -0.00000059   -0.05827597
     atom   35 type  2   force =    -0.00000000   -0.00000130    0.05696331
     atom   36 type  2   force =     0.00000001   -0.00000013    0.05696930
     The core correction contribution to forces
     atom    1 type  1   force =    -0.00000001   -0.00000005    0.00046409
     atom    2 type  1   force =     0.00000000    0.00000004    0.00046404
     atom    3 type  2   force =     0.00000000   -0.00000001   -0.00006502
     atom    4 type  2   force =    -0.00000000   -0.00000001   -0.00006499
     atom    5 type  1   force =    -0.00000001   -0.00000000    0.00046400
     atom    6 type  1   force =     0.00000000    0.00000002    0.00046394
     atom    7 type  2   force =     0.00000000   -0.00000001   -0.00006504
     atom    8 type  2   force =    -0.00000000   -0.00000000   -0.00006504
     atom    9 type  1   force =    -0.00000001   -0.00000004    0.00046402
     atom   10 type  1   force =     0.00000000   -0.00000007    0.00046388
     atom   11 type  2   force =     0.00000000   -0.00000002   -0.00006502
     atom   12 type  2   force =    -0.00000000   -0.00000000   -0.00006504
     atom   13 type  1   force =    -0.00000001   -0.00000002    0.00046414
     atom   14 type  1   force =     0.00000001    0.00000005    0.00046399
     atom   15 type  2   force =     0.00000000   -0.00000000   -0.00006501
     atom   16 type  2   force =    -0.00000000    0.00000001   -0.00006500
     atom   17 type  1   force =    -0.00000001    0.00000000    0.00046391
     atom   18 type  1   force =     0.00000001   -0.00000002    0.00046394
     atom   19 type  2   force =     0.00000000   -0.00000001   -0.00006506
     atom   20 type  2   force =    -0.00000000    0.00000001   -0.00006504
     atom   21 type  1   force =    -0.00000001    0.00000001    0.00046407
     atom   22 type  1   force =     0.00000001    0.00000012    0.00046394
     atom   23 type  2   force =     0.00000000    0.00000000   -0.00006501
     atom   24 type  2   force =    -0.00000000    0.00000002   -0.00006503
     atom   25 type  1   force =    -0.00000000    0.00000006    0.00046410
     atom   26 type  1   force =     0.00000001   -0.00000009    0.00046404
     atom   27 type  2   force =     0.00000000    0.00000000   -0.00006502
     atom   28 type  2   force =    -0.00000000   -0.00000000   -0.00006500
     atom   29 type  1   force =    -0.00000000   -0.00000000    0.00046403
     atom   30 type  1   force =     0.00000001   -0.00000002    0.00046395
     atom   31 type  2   force =     0.00000000    0.00000001   -0.00006505
     atom   32 type  2   force =    -0.00000000    0.00000000   -0.00006504
     atom   33 type  1   force =    -0.00000000    0.00000004    0.00046412
     atom   34 type  1   force =     0.00000001   -0.00000004    0.00046389
     atom   35 type  2   force =     0.00000000    0.00000000   -0.00006502
     atom   36 type  2   force =    -0.00000000    0.00000000   -0.00006504
     The Hubbard contrib.    to forces
     atom    1 type  1   force =     0.00000000    0.00000000    0.00000000
     atom    2 type  1   force =     0.00000000    0.00000000    0.00000000
     atom    3 type  2   force =     0.00000000    0.00000000    0.00000000
     atom    4 type  2   force =     0.00000000    0.00000000    0.00000000
     atom    5 type  1   force =     0.00000000    0.00000000    0.00000000
     atom    6 type  1   force =     0.00000000    0.00000000    0.00000000
     atom    7 type  2   force =     0.00000000    0.00000000    0.00000000
     atom    8 type  2   force =     0.00000000    0.00000000    0.00000000
     atom    9 type  1   force =     0.00000000    0.00000000    0.00000000
     atom   10 type  1   force =     0.00000000    0.00000000    0.00000000
     atom   11 type  2   force =     0.00000000    0.00000000    0.00000000
     atom   12 type  2   force =     0.00000000    0.00000000    0.00000000
     atom   13 type  1   force =     0.00000000    0.00000000    0.00000000
     atom   14 type  1   force =     0.00000000    0.00000000    0.00000000
     atom   15 type  2   force =     0.00000000    0.00000000    0.00000000
     atom   16 type  2   force =     0.00000000    0.00000000    0.00000000
     atom   17 type  1   force =     0.00000000    0.00000000    0.00000000
     atom   18 type  1   force =     0.00000000    0.00000000    0.00000000
     atom   19 type  2   force =     0.00000000    0.00000000    0.00000000
     atom   20 type  2   force =     0.00000000    0.00000000    0.00000000
     atom   21 type  1   force =     0.00000000    0.00000000    0.00000000
     atom   22 type  1   force =     0.00000000    0.00000000    0.00000000
     atom   23 type  2   force =     0.00000000    0.00000000    0.00000000
     atom   24 type  2   force =     0.00000000    0.00000000    0.00000000
     atom   25 type  1   force =     0.00000000    0.00000000    0.00000000
     atom   26 type  1   force =     0.00000000    0.00000000    0.00000000
     atom   27 type  2   force =     0.00000000    0.00000000    0.00000000
     atom   28 type  2   force =     0.00000000    0.00000000    0.00000000
     atom   29 type  1   force =     0.00000000    0.00000000    0.00000000
     atom   30 type  1   force =     0.00000000    0.00000000    0.00000000
     atom   31 type  2   force =     0.00000000    0.00000000    0.00000000
     atom   32 type  2   force =     0.00000000    0.00000000    0.00000000
     atom   33 type  1   force =     0.00000000    0.00000000    0.00000000
     atom   34 type  1   force =     0.00000000    0.00000000    0.00000000
     atom   35 type  2   force =     0.00000000    0.00000000    0.00000000
     atom   36 type  2   force =     0.00000000    0.00000000    0.00000000
     The SCF correction term to forces
     atom    1 type  1   force =     0.00000000   -0.00000485    0.00002054
     atom    2 type  1   force =     0.00000000   -0.00000215    0.00000218
     atom    3 type  2   force =    -0.00000000    0.00000006    0.00000254
     atom    4 type  2   force =     0.00000000   -0.00000293    0.00001123
     atom    5 type  1   force =     0.00000000   -0.00000268   -0.00000392
     atom    6 type  1   force =     0.00000000    0.00000075    0.00000344
     atom    7 type  2   force =    -0.00000000   -0.00000274   -0.00000846
     atom    8 type  2   force =     0.00000000   -0.00000040   -0.00000393
     atom    9 type  1   force =     0.00000000   -0.00000604   -0.00000693
     atom   10 type  1   force =     0.00000000   -0.00000847   -0.00001664
     atom   11 type  2   force =    -0.00000000   -0.00000279    0.00000140
     atom   12 type  2   force =    -0.00000000   -0.00000290   -0.00000593
     atom   13 type  1   force =     0.00000000    0.00000111    0.00002272
     atom   14 type  1   force =    -0.00000000    0.00000668   -0.00000001
     atom   15 type  2   force =    -0.00000000    0.00000049    0.00000450
     atom   16 type  2   force =     0.00000000    0.00000265    0.00000988
     atom   17 type  1   force =     0.00000000    0.00000222   -0.00001088
     atom   18 type  1   force =    -0.00000000    0.00000091    0.00000500
     atom   19 type  2   force =    -0.00000000    0.00000209   -0.00000850
     atom   20 type  2   force =     0.00000000    0.00000078   -0.00000499
     atom   21 type  1   force =     0.00000000    0.00000300   -0.00000328
     atom   22 type  1   force =    -0.00000000    0.00000692   -0.00001632
     atom   23 type  2   force =    -0.00000000    0.00000194    0.00000097
     atom   24 type  2   force =     0.00000000    0.00000170   -0.00000575
     atom   25 type  1   force =    -0.00000000    0.00000261    0.00001604
     atom   26 type  1   force =    -0.00000000   -0.00000360    0.00000348
     atom   27 type  2   force =     0.00000000   -0.00000050    0.00000407
     atom   28 type  2   force =     0.00000000    0.00000062    0.00000815
     atom   29 type  1   force =    -0.00000000    0.00000028   -0.00000376
     atom   30 type  1   force =    -0.00000000   -0.00000026    0.00000284
     atom   31 type  2   force =     0.00000000    0.00000187   -0.00000789
     atom   32 type  2   force =     0.00000000   -0.00000072   -0.00000232
     atom   33 type  1   force =    -0.00000000    0.00000198   -0.00000459
     atom   34 type  1   force =    -0.00000000    0.00000087   -0.00001685
     atom   35 type  2   force =     0.00000000    0.00000175    0.00000326
     atom   36 type  2   force =     0.00000000    0.00000015   -0.00000578

     Total force =     0.000370     Total SCF correction =     0.000058
     SCF correction compared to forces is large: reduce conv_thr to get better values

     General routines

     Parallel routines

   This run was terminated on:  11: 4:57  26Jul2025

   JOB DONE.
Note: The following floating-point exceptions are signalling: IEEE_DENORMAL
Note: The following floating-point exceptions are signalling: IEEE_DENORMAL
Note: The following floating-point exceptions are signalling: IEEE_INVALID_FLAG
Note: The following floating-point exceptions are signalling: IEEE_INVALID_FLAG
Note: The following floating-point exceptions are signalling: IEEE_INVALID_FLAG
Note: The following floating-point exceptions are signalling: IEEE_INVALID_FLAG
Note: The following floating-point exceptions are signalling: IEEE_DENORMAL
Note: The following floating-point exceptions are signalling: IEEE_DENORMAL