     Program PWSCF v.7.2 starts on 24Jun2025 at 15: 3:14

     Reading input from /home/jvc/QEspresso7.2/ZnO_DataBase/scf_025_NOSYM.in/scf-5.68-1.68-0.25-5.in

     Current dimensions of program PWSCF are:
     Max number of different atomic species (ntypx) = 10
     Max number of k-points (npk) =  40000
     Max angular momentum in pseudopotentials (lmaxx) =  4
     file Zn.upf: wavefunction(s)  3D renormalized

     R & G space division:  proc/nbgrp/npool/nimage =       8
     Subspace diagonalization in iterative solution of the eigenvalue problem:
     a serial algorithm will be used

     Using Slab Decomposition

     bravais-lattice index     =            0
     lattice parameter (alat)  =       5.6845  a.u.
     unit-cell volume          =     254.5253 (a.u.)^3
     number of atoms/cell      =            4
     number of atomic types    =            2
     number of electrons       =        36.00
     number of Kohn-Sham states=           18
     kinetic-energy cutoff     =      50.0000  Ry
     charge density cutoff     =     400.0000  Ry
     scf convergence threshold =      1.0E-08
     mixing beta               =       0.3000
     number of iterations used =            8  plain     mixing
     Exchange-correlation= PBE
                           (   1   4   3   4   0   0   0)

     celldm(1)=   5.684516  celldm(2)=   0.000000  celldm(3)=   0.000000
     celldm(4)=   0.000000  celldm(5)=   0.000000  celldm(6)=   0.000000

     crystal axes: (cart. coord. in units of alat)
               a(1) = (   1.000000   0.000000   0.000000 )
               a(2) = (  -0.500000   0.866025   0.000000 )
               a(3) = (   0.000000   0.000000   1.600000 )

     reciprocal axes: (cart. coord. in units 2 pi/alat)
               b(1) = (  1.000000  0.577350 -0.000000 )
               b(2) = (  0.000000  1.154701  0.000000 )
               b(3) = (  0.000000 -0.000000  0.625000 )

     PseudoPot. # 1 for Zn read from file:
     ./pseudos/Zn.upf
     MD5 check sum: 7f56cabf9682ed8c977c2f7d0c5985c5
     Pseudo is Ultrasoft + core correction, Zval = 12.0
     Generated using &quot;atomic&quot; code by A. Dal Corso  v.6.2.2
     Using radial grid of 1201 points,  6 beta functions with:
                l(1) =   0
                l(2) =   0
                l(3) =   1
                l(4) =   1
                l(5) =   2
                l(6) =   2
     Q(r) pseudized with 0 coefficients

     PseudoPot. # 2 for O  read from file:
     ./pseudos/O.upf
     MD5 check sum: 91400c9766925bcf19f520983a725ff0
     Pseudo is Ultrasoft + core correction, Zval =  6.0
     Generated using &quot;atomic&quot; code by A. Dal Corso  v.6.3MaX
     Using radial grid of 1095 points,  4 beta functions with:
                l(1) =   0
                l(2) =   0
                l(3) =   1
                l(4) =   1
     Q(r) pseudized with 0 coefficients

     atomic species   valence    mass     pseudopotential
        Zn            12.00    63.38000     Zn( 1.00)
        O              6.00    15.99900     O ( 1.00)

     No symmetry found

   Cartesian axes

     site n.     atom                  positions (alat units)
         1           Zn  tau(   1) = (   0.5581450   0.3465184   0.5394390  )
         2           Zn  tau(   2) = (  -0.0041164   0.7839467   0.1919752  )
         3           O   tau(   3) = (   0.5656607   0.1415986   1.7482297  )
         4           O   tau(   4) = (   0.1347369   0.3986491   0.8764998  )

     number of k points=   112

     Number of k-points >= 100: set verbosity='high' to print them.

     Check: negative core charge=   -0.000002

     Initial potential from superposition of free atoms

     starting charge      35.9925, renormalised to      36.0000
     Starting wfcs are   26 randomized atomic wfcs

     Self-consistent Calculation

     iteration #  1     ecut=    50.00 Ry     beta= 0.30
     Davidson diagonalization with overlap
     ethr =  1.00E-02,  avg # of iterations =  6.7

     total energy              =    -348.14072501 Ry
     estimated scf accuracy    <       1.30022425 Ry

[...]

     total energy              =    -348.30523048 Ry
     estimated scf accuracy    <       0.00000137 Ry

     iteration # 29     ecut=    50.00 Ry     beta= 0.30
     Davidson diagonalization with overlap
     ethr =  2.11E-09,  avg # of iterations =  5.8

     End of self-consistent calculation

     Number of k-points >= 100: set verbosity='high' to print the bands.

     highest occupied level (ev):    12.2522

!    total energy              =    -348.30523071 Ry
     estimated scf accuracy    <          8.4E-09 Ry

     The total energy is the sum of the following terms:
     one-electron contribution =    -267.50925789 Ry
     hartree contribution      =     173.27503503 Ry
     xc contribution           =    -112.84372588 Ry
     ewald contribution        =    -141.22728198 Ry

     convergence has been achieved in  29 iterations

     Forces acting on atoms (cartesian axes, Ry/au):

     atom    1 type  1   force =     0.24510585    1.32181353    2.03978089
     atom    2 type  1   force =    -8.90415910  -29.01750993    4.73392149
     atom    3 type  2   force =     8.88194144   27.65316178   -6.94751056
     atom    4 type  2   force =    -0.22288819    0.04253463    0.17380819
     The non-local contrib.  to forces
     atom    1 type  1   force =     0.43294740   -0.36347000   -1.14148061
     atom    2 type  1   force =     3.32957117   10.81868708   -1.63928073
     atom    3 type  2   force =    -0.80476406   -2.36738055    1.23512228
     atom    4 type  2   force =     0.21044454   -0.05618522   -1.06744496
     The ionic contribution  to forces
     atom    1 type  1   force =     3.63799372   14.02190474   35.22341153
     atom    2 type  1   force =   -21.62257158  -74.97862748  -16.79058132
     atom    3 type  2   force =    21.49260257   60.65809627  -38.26389291
     atom    4 type  2   force =    -3.50802471    0.29862647   19.83106271
     The local contribution  to forces
     atom    1 type  1   force =    -3.77624565  -12.22892522  -31.90223610
     atom    2 type  1   force =     9.07631718   34.11596921   23.31678055
     atom    3 type  2   force =   -11.78994924  -30.58801162   30.07134810
     atom    4 type  2   force =     3.07513344   -0.20028635  -18.59731161
     The core correction contribution to forces
     atom    1 type  1   force =    -0.04960224   -0.10769652   -0.13964753
     atom    2 type  1   force =     0.31255091    1.02652327   -0.15303943
     atom    3 type  2   force =    -0.01595899   -0.04954865    0.00986637
     atom    4 type  2   force =    -0.00039822    0.00040649    0.00749472
     The Hubbard contrib.    to forces
     atom    1 type  1   force =     0.00000000    0.00000000    0.00000000
     atom    2 type  1   force =     0.00000000    0.00000000    0.00000000
     atom    3 type  2   force =     0.00000000    0.00000000    0.00000000
     atom    4 type  2   force =     0.00000000    0.00000000    0.00000000
     The SCF correction term to forces
     atom    1 type  1   force =     0.00001993    0.00004002   -0.00031368
     atom    2 type  1   force =    -0.00001946   -0.00002252   -0.00000486
     atom    3 type  2   force =     0.00001847    0.00004584   -0.00000168
     atom    4 type  2   force =    -0.00003593    0.00001274   -0.00003995

     Total force =    42.914028     Total SCF correction =     0.000327

     Writing all to output data dir ./ZnO_ANN.save/

     General routines

     Parallel routines

   This run was terminated on:  15: 6: 3  24Jun2025

   JOB DONE.
Note: The following floating-point exceptions are signalling: IEEE_INVALID_FLAG