     Program PWSCF v.7.2 starts on 24Jun2025 at 17: 6:56

     Reading input from /home/jvc/QEspresso7.2/ZnO_DataBase/scf_025_NOSYM.in/scf-6.18-1.65-0.25-1.in

     Current dimensions of program PWSCF are:
     Max number of different atomic species (ntypx) = 10
     Max number of k-points (npk) =  40000
     Max angular momentum in pseudopotentials (lmaxx) =  4
     file Zn.upf: wavefunction(s)  3D renormalized

     R & G space division:  proc/nbgrp/npool/nimage =       8
     Subspace diagonalization in iterative solution of the eigenvalue problem:
     a serial algorithm will be used

     Using Slab Decomposition

     bravais-lattice index     =            0
     lattice parameter (alat)  =       6.1788  a.u.
     unit-cell volume          =     326.8643 (a.u.)^3
     number of atoms/cell      =            4
     number of atomic types    =            2
     number of electrons       =        36.00
     number of Kohn-Sham states=           18
     kinetic-energy cutoff     =      50.0000  Ry
     charge density cutoff     =     400.0000  Ry
     scf convergence threshold =      1.0E-08
     mixing beta               =       0.3000
     number of iterations used =            8  plain     mixing
     Exchange-correlation= PBE
                           (   1   4   3   4   0   0   0)

     celldm(1)=   6.178821  celldm(2)=   0.000000  celldm(3)=   0.000000
     celldm(4)=   0.000000  celldm(5)=   0.000000  celldm(6)=   0.000000

     crystal axes: (cart. coord. in units of alat)
               a(1) = (   1.000000   0.000000   0.000000 )
               a(2) = (  -0.500000   0.866025   0.000000 )
               a(3) = (   0.000000   0.000000   1.600000 )

     reciprocal axes: (cart. coord. in units 2 pi/alat)
               b(1) = (  1.000000  0.577350 -0.000000 )
               b(2) = (  0.000000  1.154701  0.000000 )
               b(3) = (  0.000000 -0.000000  0.625000 )

     PseudoPot. # 1 for Zn read from file:
     ./pseudos/Zn.upf
     MD5 check sum: 7f56cabf9682ed8c977c2f7d0c5985c5
     Pseudo is Ultrasoft + core correction, Zval = 12.0
     Generated using &quot;atomic&quot; code by A. Dal Corso  v.6.2.2
     Using radial grid of 1201 points,  6 beta functions with:
                l(1) =   0
                l(2) =   0
                l(3) =   1
                l(4) =   1
                l(5) =   2
                l(6) =   2
     Q(r) pseudized with 0 coefficients

     PseudoPot. # 2 for O  read from file:
     ./pseudos/O.upf
     MD5 check sum: 91400c9766925bcf19f520983a725ff0
     Pseudo is Ultrasoft + core correction, Zval =  6.0
     Generated using &quot;atomic&quot; code by A. Dal Corso  v.6.3MaX
     Using radial grid of 1095 points,  4 beta functions with:
                l(1) =   0
                l(2) =   0
                l(3) =   1
                l(4) =   1
     Q(r) pseudized with 0 coefficients

     atomic species   valence    mass     pseudopotential
        Zn            12.00    63.38000     Zn( 1.00)
        O              6.00    15.99900     O ( 1.00)

     No symmetry found

   Cartesian axes

     site n.     atom                  positions (alat units)
         1           Zn  tau(   1) = (   0.1533979   0.4906530   0.6530364  )
         2           Zn  tau(   2) = (  -0.0691041   0.7325529  -0.2963779  )
         3           O   tau(   3) = (   0.4506635   0.4373923   1.5732018  )
         4           O   tau(   4) = (  -0.0767048   0.6489960   0.6238962  )

     number of k points=   112

     Number of k-points >= 100: set verbosity='high' to print them.

     Check: negative core charge=   -0.000002

     Initial potential from superposition of free atoms

     starting charge      35.9925, renormalised to      36.0000
     Starting wfcs are   26 randomized atomic wfcs

     Self-consistent Calculation

     iteration #  1     ecut=    50.00 Ry     beta= 0.30
     Davidson diagonalization with overlap
     ethr =  1.00E-02,  avg # of iterations =  4.7

     total energy              =    -357.00733428 Ry
     estimated scf accuracy    <       1.23252185 Ry

[...]

     total energy              =    -357.22323025 Ry
     estimated scf accuracy    <       0.00000002 Ry

     iteration # 33     ecut=    50.00 Ry     beta= 0.30
     Davidson diagonalization with overlap
     ethr =  5.13E-11,  avg # of iterations =  3.0

     End of self-consistent calculation

     Number of k-points >= 100: set verbosity='high' to print the bands.

     highest occupied level (ev):     7.8244

!    total energy              =    -357.22323025 Ry
     estimated scf accuracy    <          2.8E-09 Ry

     The total energy is the sum of the following terms:
     one-electron contribution =    -189.66564161 Ry
     hartree contribution      =     133.10418706 Ry
     xc contribution           =    -110.49527113 Ry
     ewald contribution        =    -190.16650457 Ry

     convergence has been achieved in  33 iterations

     Forces acting on atoms (cartesian axes, Ry/au):

     atom    1 type  1   force =     9.72569738   -6.70259427    1.16317985
     atom    2 type  1   force =    -0.00268891    0.01172992    0.13848360
     atom    3 type  2   force =    -0.00080971   -0.01069663   -0.09404655
     atom    4 type  2   force =    -9.72219876    6.70156099   -1.20761690
     The non-local contrib.  to forces
     atom    1 type  1   force =    -1.71580337    1.18198427    0.07373667
     atom    2 type  1   force =     0.04343802    0.00121613   -0.58482111
     atom    3 type  2   force =     0.06445164   -0.06897124   -0.86903226
     atom    4 type  2   force =     0.79440890   -0.42573187    0.61447906
     The ionic contribution  to forces
     atom    1 type  1   force =    34.65378654  -24.56223135   -0.68062096
     atom    2 type  1   force =    -0.69842407    1.51087391    5.22794686
     atom    3 type  2   force =     0.26815633   -0.10667111    3.53607504
     atom    4 type  2   force =   -34.22351881   23.15802855   -8.08340093
     The local contribution  to forces
     atom    1 type  1   force =   -22.72204632   16.34049863    1.83257853
     atom    2 type  1   force =     0.65350574   -1.49712399   -4.52232915
     atom    3 type  2   force =    -0.33263529    0.16416714   -2.76965067
     atom    4 type  2   force =    23.68877225  -16.01722127    6.26267163
     The core correction contribution to forces
     atom    1 type  1   force =    -0.49031602    0.33720692   -0.06261612
     atom    2 type  1   force =    -0.00120504   -0.00324432    0.01777199
     atom    3 type  2   force =    -0.00077656    0.00077491    0.00861427
     atom    4 type  2   force =     0.01815127   -0.01352448   -0.00141005
     The Hubbard contrib.    to forces
     atom    1 type  1   force =     0.00000000    0.00000000    0.00000000
     atom    2 type  1   force =     0.00000000    0.00000000    0.00000000
     atom    3 type  2   force =     0.00000000    0.00000000    0.00000000
     atom    4 type  2   force =     0.00000000    0.00000000    0.00000000
     The SCF correction term to forces
     atom    1 type  1   force =     0.00008229   -0.00005656    0.00010319
     atom    2 type  1   force =     0.00000217    0.00000438   -0.00008354
     atom    3 type  2   force =    -0.00000009   -0.00000013   -0.00005148
     atom    4 type  2   force =    -0.00000665    0.00000625    0.00004485

     Total force =    16.786472     Total SCF correction =     0.000180

     Writing all to output data dir ./ZnO_ANN.save/

     General routines

     Parallel routines

   This run was terminated on:  17:10:39  24Jun2025

   JOB DONE.
Note: The following floating-point exceptions are signalling: IEEE_INVALID_FLAG