     Program PWSCF v.7.2 starts on 24Jun2025 at 14:43:56

     Reading input from /home/jvc/QEspresso7.2/ZnO_DataBase/scf_025_NOSYM.in/scf-5.56-1.74-0.25-4.in

     Current dimensions of program PWSCF are:
     Max number of different atomic species (ntypx) = 10
     Max number of k-points (npk) =  40000
     Max angular momentum in pseudopotentials (lmaxx) =  4
     file Zn.upf: wavefunction(s)  3D renormalized

     R & G space division:  proc/nbgrp/npool/nimage =       8
     Subspace diagonalization in iterative solution of the eigenvalue problem:
     a serial algorithm will be used

     Using Slab Decomposition

     bravais-lattice index     =            0
     lattice parameter (alat)  =       5.5609  a.u.
     unit-cell volume          =     238.2841 (a.u.)^3
     number of atoms/cell      =            4
     number of atomic types    =            2
     number of electrons       =        36.00
     number of Kohn-Sham states=           18
     kinetic-energy cutoff     =      50.0000  Ry
     charge density cutoff     =     400.0000  Ry
     scf convergence threshold =      1.0E-08
     mixing beta               =       0.3000
     number of iterations used =            8  plain     mixing
     Exchange-correlation= PBE
                           (   1   4   3   4   0   0   0)

     celldm(1)=   5.560939  celldm(2)=   0.000000  celldm(3)=   0.000000
     celldm(4)=   0.000000  celldm(5)=   0.000000  celldm(6)=   0.000000

     crystal axes: (cart. coord. in units of alat)
               a(1) = (   1.000000   0.000000   0.000000 )
               a(2) = (  -0.500000   0.866025   0.000000 )
               a(3) = (   0.000000   0.000000   1.600000 )

     reciprocal axes: (cart. coord. in units 2 pi/alat)
               b(1) = (  1.000000  0.577350 -0.000000 )
               b(2) = (  0.000000  1.154701  0.000000 )
               b(3) = (  0.000000 -0.000000  0.625000 )

     PseudoPot. # 1 for Zn read from file:
     ./pseudos/Zn.upf
     MD5 check sum: 7f56cabf9682ed8c977c2f7d0c5985c5
     Pseudo is Ultrasoft + core correction, Zval = 12.0
     Generated using &quot;atomic&quot; code by A. Dal Corso  v.6.2.2
     Using radial grid of 1201 points,  6 beta functions with:
                l(1) =   0
                l(2) =   0
                l(3) =   1
                l(4) =   1
                l(5) =   2
                l(6) =   2
     Q(r) pseudized with 0 coefficients

     PseudoPot. # 2 for O  read from file:
     ./pseudos/O.upf
     MD5 check sum: 91400c9766925bcf19f520983a725ff0
     Pseudo is Ultrasoft + core correction, Zval =  6.0
     Generated using &quot;atomic&quot; code by A. Dal Corso  v.6.3MaX
     Using radial grid of 1095 points,  4 beta functions with:
                l(1) =   0
                l(2) =   0
                l(3) =   1
                l(4) =   1
     Q(r) pseudized with 0 coefficients

     atomic species   valence    mass     pseudopotential
        Zn            12.00    63.38000     Zn( 1.00)
        O              6.00    15.99900     O ( 1.00)

     No symmetry found

   Cartesian axes

     site n.     atom                  positions (alat units)
         1           Zn  tau(   1) = (   0.3156486   0.2718188   0.6312128  )
         2           Zn  tau(   2) = (   0.0809254   0.5783524  -0.3945813  )
         3           O   tau(   3) = (   0.6943970   0.2310886   1.6115518  )
         4           O   tau(   4) = (   0.1696466   0.4070898   0.8494580  )

     number of k points=   112

     Number of k-points >= 100: set verbosity='high' to print them.

     Check: negative core charge=   -0.000002

     Initial potential from superposition of free atoms

     starting charge      35.9925, renormalised to      36.0000
     Starting wfcs are   26 randomized atomic wfcs

     Self-consistent Calculation

     iteration #  1     ecut=    50.00 Ry     beta= 0.30
     Davidson diagonalization with overlap
     ethr =  1.00E-02,  avg # of iterations =  5.2

     total energy              =    -354.55103946 Ry
     estimated scf accuracy    <       1.38358778 Ry

[...]

     total energy              =    -354.74038087 Ry
     estimated scf accuracy    <       0.00000002 Ry

     iteration # 34     ecut=    50.00 Ry     beta= 0.30
     Davidson diagonalization with overlap
     ethr =  5.80E-11,  avg # of iterations =  4.3

     End of self-consistent calculation

     Number of k-points >= 100: set verbosity='high' to print the bands.

     highest occupied level (ev):    13.9312

!    total energy              =    -354.74038087 Ry
     estimated scf accuracy    <          3.1E-09 Ry

     The total energy is the sum of the following terms:
     one-electron contribution =    -180.55469239 Ry
     hartree contribution      =     133.66874310 Ry
     xc contribution           =    -111.77723826 Ry
     ewald contribution        =    -196.07719332 Ry

     convergence has been achieved in  34 iterations

     Forces acting on atoms (cartesian axes, Ry/au):

     atom    1 type  1   force =     7.65076935   -7.05451195  -11.69739865
     atom    2 type  1   force =    -0.67093372    1.34607535    2.91765700
     atom    3 type  2   force =    -0.05913452   -0.04101048    0.02620862
     atom    4 type  2   force =    -6.92070111    5.74944708    8.75353303
     The non-local contrib.  to forces
     atom    1 type  1   force =    -1.36912189    1.23039331    2.52884448
     atom    2 type  1   force =     0.02455083    0.19761062   -0.05323241
     atom    3 type  2   force =    -0.18284153   -0.20274883   -0.37425233
     atom    4 type  2   force =     0.26198554   -0.07489854    0.14497191
     The ionic contribution  to forces
     atom    1 type  1   force =    23.68780721  -23.04617529  -52.17506912
     atom    2 type  1   force =    -5.27920992   10.37603538   32.24496501
     atom    3 type  2   force =     0.01210463    0.11314288    6.13454709
     atom    4 type  2   force =   -18.42070193   12.55699703   13.79555702
     The local contribution  to forces
     atom    1 type  1   force =   -14.31583444   14.42463649   37.41964017
     atom    2 type  1   force =     4.52493086   -9.10940483  -29.04447832
     atom    3 type  2   force =     0.10964341    0.04644990   -5.73697113
     atom    4 type  2   force =    11.22667228   -6.72294955   -5.17213724
     The core correction contribution to forces
     atom    1 type  1   force =    -0.35221012    0.33675972    0.52939917
     atom    2 type  1   force =     0.05884588   -0.11825278   -0.22976043
     atom    3 type  2   force =     0.00198233    0.00213246    0.00285506
     atom    4 type  2   force =     0.01136864   -0.00972329   -0.01488776
     The Hubbard contrib.    to forces
     atom    1 type  1   force =     0.00000000    0.00000000    0.00000000
     atom    2 type  1   force =     0.00000000    0.00000000    0.00000000
     atom    3 type  2   force =     0.00000000    0.00000000    0.00000000
     atom    4 type  2   force =     0.00000000    0.00000000    0.00000000
     The SCF correction term to forces
     atom    1 type  1   force =     0.00014965   -0.00013988   -0.00023641
     atom    2 type  1   force =    -0.00003029    0.00007325    0.00014007
     atom    3 type  2   force =    -0.00000229   -0.00000059    0.00000686
     atom    4 type  2   force =    -0.00000457    0.00000774    0.00000602

     Total force =    20.334375     Total SCF correction =     0.000352

     Writing all to output data dir ./ZnO_ANN.save/

     General routines

     Parallel routines

   This run was terminated on:  14:47:12  24Jun2025

   JOB DONE.
Note: The following floating-point exceptions are signalling: IEEE_INVALID_FLAG