     Program PWSCF v.7.2 starts on 24Jun2025 at 20:23:39

     Reading input from /home/jvc/QEspresso7.2/ZnO_DataBase/scf_025_NOSYM.in/scf-6.67-1.78-0.25-2.in

     Current dimensions of program PWSCF are:
     Max number of different atomic species (ntypx) = 10
     Max number of k-points (npk) =  40000
     Max angular momentum in pseudopotentials (lmaxx) =  4
     file Zn.upf: wavefunction(s)  3D renormalized

     R & G space division:  proc/nbgrp/npool/nimage =       8
     Subspace diagonalization in iterative solution of the eigenvalue problem:
     a serial algorithm will be used

     Using Slab Decomposition

     bravais-lattice index     =            0
     lattice parameter (alat)  =       6.6731  a.u.
     unit-cell volume          =     411.7549 (a.u.)^3
     number of atoms/cell      =            4
     number of atomic types    =            2
     number of electrons       =        36.00
     number of Kohn-Sham states=           18
     kinetic-energy cutoff     =      50.0000  Ry
     charge density cutoff     =     400.0000  Ry
     scf convergence threshold =      1.0E-08
     mixing beta               =       0.3000
     number of iterations used =            8  plain     mixing
     Exchange-correlation= PBE
                           (   1   4   3   4   0   0   0)

     celldm(1)=   6.673127  celldm(2)=   0.000000  celldm(3)=   0.000000
     celldm(4)=   0.000000  celldm(5)=   0.000000  celldm(6)=   0.000000

     crystal axes: (cart. coord. in units of alat)
               a(1) = (   1.000000   0.000000   0.000000 )
               a(2) = (  -0.500000   0.866025   0.000000 )
               a(3) = (   0.000000   0.000000   1.600000 )

     reciprocal axes: (cart. coord. in units 2 pi/alat)
               b(1) = (  1.000000  0.577350 -0.000000 )
               b(2) = (  0.000000  1.154701  0.000000 )
               b(3) = (  0.000000 -0.000000  0.625000 )

     PseudoPot. # 1 for Zn read from file:
     ./pseudos/Zn.upf
     MD5 check sum: 7f56cabf9682ed8c977c2f7d0c5985c5
     Pseudo is Ultrasoft + core correction, Zval = 12.0
     Generated using &quot;atomic&quot; code by A. Dal Corso  v.6.2.2
     Using radial grid of 1201 points,  6 beta functions with:
                l(1) =   0
                l(2) =   0
                l(3) =   1
                l(4) =   1
                l(5) =   2
                l(6) =   2
     Q(r) pseudized with 0 coefficients

     PseudoPot. # 2 for O  read from file:
     ./pseudos/O.upf
     MD5 check sum: 91400c9766925bcf19f520983a725ff0
     Pseudo is Ultrasoft + core correction, Zval =  6.0
     Generated using &quot;atomic&quot; code by A. Dal Corso  v.6.3MaX
     Using radial grid of 1095 points,  4 beta functions with:
                l(1) =   0
                l(2) =   0
                l(3) =   1
                l(4) =   1
     Q(r) pseudized with 0 coefficients

     atomic species   valence    mass     pseudopotential
        Zn            12.00    63.38000     Zn( 1.00)
        O              6.00    15.99900     O ( 1.00)

     No symmetry found

   Cartesian axes

     site n.     atom                  positions (alat units)
         1           Zn  tau(   1) = (   0.1768673   0.4767629   0.7764243  )
         2           Zn  tau(   2) = (  -0.1514714   0.6344847   0.3914125  )
         3           O   tau(   3) = (   0.8627473   0.0803508   1.2700437  )
         4           O   tau(   4) = (  -0.1343360   0.5251028   0.3646693  )

     number of k points=   112

     Number of k-points >= 100: set verbosity='high' to print them.

     Check: negative core charge=   -0.000003

     Initial potential from superposition of free atoms

     starting charge      35.9925, renormalised to      36.0000
     Starting wfcs are   26 randomized atomic wfcs

     Self-consistent Calculation

     iteration #  1     ecut=    50.00 Ry     beta= 0.30
     Davidson diagonalization with overlap
     ethr =  1.00E-02,  avg # of iterations =  5.1

     total energy              =    -303.39671443 Ry
     estimated scf accuracy    <       3.52265600 Ry

[...]

     negative rho (up, down):  5.677E-02 0.000E+00

[...]

     negative rho (up, down):  1.838E-03 0.000E+00

[...]

     iteration # 27     ecut=    50.00 Ry     beta= 0.30
     Davidson diagonalization with overlap
     c_bands:  1 eigenvalues not converged
     ethr =  3.21E-05,  avg # of iterations =  8.1

[...]

     iteration # 40     ecut=    50.00 Ry     beta= 0.30
     Davidson diagonalization with overlap
     c_bands:  1 eigenvalues not converged
     ethr =  5.77E-09,  avg # of iterations =  8.0

[...]

     total energy              =    -303.65322019 Ry
     estimated scf accuracy    <       0.00000003 Ry

     iteration # 53     ecut=    50.00 Ry     beta= 0.30
     Davidson diagonalization with overlap
     ethr =  7.81E-11,  avg # of iterations =  6.9

     End of self-consistent calculation

     Number of k-points >= 100: set verbosity='high' to print the bands.

     highest occupied level (ev):     6.7451

!    total energy              =    -303.65322020 Ry
     estimated scf accuracy    <          4.3E-09 Ry

     The total energy is the sum of the following terms:
     one-electron contribution =    -344.89379334 Ry
     hartree contribution      =     197.95782137 Ry
     xc contribution           =    -114.77312858 Ry
     ewald contribution        =     -41.94411965 Ry

     convergence has been achieved in  53 iterations

     Forces acting on atoms (cartesian axes, Ry/au):

     atom    1 type  1   force =     0.35089198   -0.13081782    0.66125020
     atom    2 type  1   force =   -26.68976961  168.94007958   40.93152442
     atom    3 type  2   force =     0.00554283   -0.00908173   -0.14456516
     atom    4 type  2   force =    26.33333480 -168.80018003  -41.44820947
     The non-local contrib.  to forces
     atom    1 type  1   force =    -0.18947044    0.07879672   -0.87254514
     atom    2 type  1   force =     6.16244436  -37.77907867   -8.60571463
     atom    3 type  2   force =     0.05481027   -0.07195527   -0.73672354
     atom    4 type  2   force =    -0.54845296    4.38834692    1.41090255
     The ionic contribution  to forces
     atom    1 type  1   force =    10.32342103   -3.97355783   25.41679723
     atom    2 type  1   force =   -43.64877889  240.68710433   39.15770377
     atom    3 type  2   force =    -0.23879318   -0.07180223    4.15752261
     atom    4 type  2   force =    33.56415104 -236.64174426  -68.73202361
     The local contribution  to forces
     atom    1 type  1   force =    -9.74833242    3.74980148  -23.85503759
     atom    2 type  1   force =    10.45480763  -31.87056503   10.87207989
     atom    3 type  2   force =     0.19013858    0.13380363   -3.57336635
     atom    4 type  2   force =    -6.60906273   62.98739273   25.75936155
     The core correction contribution to forces
     atom    1 type  1   force =    -0.03474726    0.01411474   -0.02786778
     atom    2 type  1   force =     0.34175907   -2.09739546   -0.49258646
     atom    3 type  2   force =    -0.00058852    0.00082450    0.00799093
     atom    4 type  2   force =    -0.07328875    0.46577499    0.11350229
     The Hubbard contrib.    to forces
     atom    1 type  1   force =     0.00000000    0.00000000    0.00000000
     atom    2 type  1   force =     0.00000000    0.00000000    0.00000000
     atom    3 type  2   force =     0.00000000    0.00000000    0.00000000
     atom    4 type  2   force =     0.00000000    0.00000000    0.00000000
     The SCF correction term to forces
     atom    1 type  1   force =     0.00003457   -0.00001671   -0.00012071
     atom    2 type  1   force =     0.00001172   -0.00002937    0.00001766
     atom    3 type  2   force =    -0.00001081    0.00000386   -0.00001300
     atom    4 type  2   force =     0.00000171    0.00000582    0.00002357

     Total force =   248.664396     Total SCF correction =     0.000135

     Writing all to output data dir ./ZnO_ANN.save/

     General routines

     Parallel routines

   This run was terminated on:  20:29:45  24Jun2025

   JOB DONE.
Note: The following floating-point exceptions are signalling: IEEE_INVALID_FLAG