     Program PWSCF v.7.2 starts on 24Jun2025 at 17: 4: 1

     Reading input from /home/jvc/QEspresso7.2/ZnO_DataBase/scf_025_NOSYM.in/scf-6.18-1.61-0.25-2.in

     Current dimensions of program PWSCF are:
     Max number of different atomic species (ntypx) = 10
     Max number of k-points (npk) =  40000
     Max angular momentum in pseudopotentials (lmaxx) =  4
     file Zn.upf: wavefunction(s)  3D renormalized

     R & G space division:  proc/nbgrp/npool/nimage =       8
     Subspace diagonalization in iterative solution of the eigenvalue problem:
     a serial algorithm will be used

     Using Slab Decomposition

     bravais-lattice index     =            0
     lattice parameter (alat)  =       6.1788  a.u.
     unit-cell volume          =     326.8643 (a.u.)^3
     number of atoms/cell      =            4
     number of atomic types    =            2
     number of electrons       =        36.00
     number of Kohn-Sham states=           18
     kinetic-energy cutoff     =      50.0000  Ry
     charge density cutoff     =     400.0000  Ry
     scf convergence threshold =      1.0E-08
     mixing beta               =       0.3000
     number of iterations used =            8  plain     mixing
     Exchange-correlation= PBE
                           (   1   4   3   4   0   0   0)

     celldm(1)=   6.178821  celldm(2)=   0.000000  celldm(3)=   0.000000
     celldm(4)=   0.000000  celldm(5)=   0.000000  celldm(6)=   0.000000

     crystal axes: (cart. coord. in units of alat)
               a(1) = (   1.000000   0.000000   0.000000 )
               a(2) = (  -0.500000   0.866025   0.000000 )
               a(3) = (   0.000000   0.000000   1.600000 )

     reciprocal axes: (cart. coord. in units 2 pi/alat)
               b(1) = (  1.000000  0.577350 -0.000000 )
               b(2) = (  0.000000  1.154701  0.000000 )
               b(3) = (  0.000000 -0.000000  0.625000 )

     PseudoPot. # 1 for Zn read from file:
     ./pseudos/Zn.upf
     MD5 check sum: 7f56cabf9682ed8c977c2f7d0c5985c5
     Pseudo is Ultrasoft + core correction, Zval = 12.0
     Generated using &quot;atomic&quot; code by A. Dal Corso  v.6.2.2
     Using radial grid of 1201 points,  6 beta functions with:
                l(1) =   0
                l(2) =   0
                l(3) =   1
                l(4) =   1
                l(5) =   2
                l(6) =   2
     Q(r) pseudized with 0 coefficients

     PseudoPot. # 2 for O  read from file:
     ./pseudos/O.upf
     MD5 check sum: 91400c9766925bcf19f520983a725ff0
     Pseudo is Ultrasoft + core correction, Zval =  6.0
     Generated using &quot;atomic&quot; code by A. Dal Corso  v.6.3MaX
     Using radial grid of 1095 points,  4 beta functions with:
                l(1) =   0
                l(2) =   0
                l(3) =   1
                l(4) =   1
     Q(r) pseudized with 0 coefficients

     atomic species   valence    mass     pseudopotential
        Zn            12.00    63.38000     Zn( 1.00)
        O              6.00    15.99900     O ( 1.00)

     No symmetry found

   Cartesian axes

     site n.     atom                  positions (alat units)
         1           Zn  tau(   1) = (   0.7231568   0.2627878   0.8525364  )
         2           Zn  tau(   2) = (  -0.0658363   0.6771416  -0.3566417  )
         3           O   tau(   3) = (   0.4828264   0.3431808   1.4862221  )
         4           O   tau(   4) = (   0.1375715   0.4638890   0.5541544  )

     number of k points=   112

     Number of k-points >= 100: set verbosity='high' to print them.

     Check: negative core charge=   -0.000002

     Initial potential from superposition of free atoms

     starting charge      35.9925, renormalised to      36.0000
     Starting wfcs are   26 randomized atomic wfcs

     Self-consistent Calculation

     iteration #  1     ecut=    50.00 Ry     beta= 0.30
     Davidson diagonalization with overlap
     ethr =  1.00E-02,  avg # of iterations =  1.9

     total energy              =    -361.01851209 Ry
     estimated scf accuracy    <       0.74062763 Ry

[...]

     iteration #  9     ecut=    50.00 Ry     beta= 0.30
     Davidson diagonalization with overlap
     c_bands:  4 eigenvalues not converged
     c_bands:  1 eigenvalues not converged
     c_bands:  2 eigenvalues not converged
     c_bands:  2 eigenvalues not converged
     c_bands:  3 eigenvalues not converged
     c_bands:  2 eigenvalues not converged
     c_bands:  1 eigenvalues not converged
     ethr =  6.98E-07,  avg # of iterations = 14.7

[...]

     iteration # 26     ecut=    50.00 Ry     beta= 0.30
     Davidson diagonalization with overlap
     c_bands:  3 eigenvalues not converged
     ethr =  1.05E-10,  avg # of iterations =  9.7

[...]

     total energy              =    -361.27794599 Ry
     estimated scf accuracy    <       0.00000004 Ry

     iteration # 29     ecut=    50.00 Ry     beta= 0.30
     Davidson diagonalization with overlap
     ethr =  1.04E-10,  avg # of iterations =  5.3

     End of self-consistent calculation

     Number of k-points >= 100: set verbosity='high' to print the bands.

     highest occupied level (ev):     6.6246

!    total energy              =    -361.27794600 Ry
     estimated scf accuracy    <          3.9E-10 Ry

     The total energy is the sum of the following terms:
     one-electron contribution =    -185.24654057 Ry
     hartree contribution      =     132.11910851 Ry
     xc contribution           =    -109.33428281 Ry
     ewald contribution        =    -198.81623113 Ry

     convergence has been achieved in  29 iterations

     Forces acting on atoms (cartesian axes, Ry/au):

     atom    1 type  1   force =    -0.11608995   -0.11403982   -0.25256319
     atom    2 type  1   force =     0.05254487    0.05379009    0.26099742
     atom    3 type  2   force =     0.00233081    0.01511934   -0.07974046
     atom    4 type  2   force =     0.06121427    0.04513039    0.07130623
     The non-local contrib.  to forces
     atom    1 type  1   force =    -0.30061206   -0.20071275    0.53057566
     atom    2 type  1   force =     0.04382645   -0.15043621   -0.40771010
     atom    3 type  2   force =     0.23931220   -0.19283458   -1.31468202
     atom    4 type  2   force =    -0.37363316   -0.13678239    1.22011920
     The ionic contribution  to forces
     atom    1 type  1   force =    -2.49669890   -4.02384454  -16.97903385
     atom    2 type  1   force =     0.97532020    1.40087771   16.07964480
     atom    3 type  2   force =    -1.50301657    1.34933590   13.76567818
     atom    4 type  2   force =     3.02439526    1.27363093  -12.86628913
     The local contribution  to forces
     atom    1 type  1   force =     2.65459219    4.08675768   16.20377123
     atom    2 type  1   force =    -0.95796613   -1.20147587  -15.41580535
     atom    3 type  2   force =     1.26831408   -1.14306218  -12.54295200
     atom    4 type  2   force =    -2.59251297   -1.09254519   11.72870855
     The core correction contribution to forces
     atom    1 type  1   force =     0.02663310    0.02376711   -0.00794274
     atom    2 type  1   force =    -0.00863896    0.00482264    0.00493871
     atom    3 type  2   force =    -0.00228267    0.00167873    0.01223694
     atom    4 type  2   force =     0.00296952    0.00082095   -0.01126628
     The Hubbard contrib.    to forces
     atom    1 type  1   force =     0.00000000    0.00000000    0.00000000
     atom    2 type  1   force =     0.00000000    0.00000000    0.00000000
     atom    3 type  2   force =     0.00000000    0.00000000    0.00000000
     atom    4 type  2   force =     0.00000000    0.00000000    0.00000000
     The SCF correction term to forces
     atom    1 type  1   force =    -0.00000432   -0.00000959    0.00006571
     atom    2 type  1   force =     0.00000327   -0.00000047   -0.00007145
     atom    3 type  2   force =     0.00000373   -0.00000081   -0.00002237
     atom    4 type  2   force =    -0.00000441    0.00000381    0.00003308

     Total force =     0.426034     Total SCF correction =     0.000106

     Writing all to output data dir ./ZnO_ANN.save/

     General routines

     Parallel routines

   This run was terminated on:  17: 8: 2  24Jun2025

   JOB DONE.
Note: The following floating-point exceptions are signalling: IEEE_INVALID_FLAG