     Program PWSCF v.7.2 starts on 24Jun2025 at 14:59:23

     Reading input from /home/jvc/QEspresso7.2/ZnO_DataBase/scf_025_NOSYM.in/scf-5.68-1.65-0.25-1.in

     Current dimensions of program PWSCF are:
     Max number of different atomic species (ntypx) = 10
     Max number of k-points (npk) =  40000
     Max angular momentum in pseudopotentials (lmaxx) =  4
     file Zn.upf: wavefunction(s)  3D renormalized

     R & G space division:  proc/nbgrp/npool/nimage =       8
     Subspace diagonalization in iterative solution of the eigenvalue problem:
     a serial algorithm will be used

     Using Slab Decomposition

     bravais-lattice index     =            0
     lattice parameter (alat)  =       5.6845  a.u.
     unit-cell volume          =     254.5253 (a.u.)^3
     number of atoms/cell      =            4
     number of atomic types    =            2
     number of electrons       =        36.00
     number of Kohn-Sham states=           18
     kinetic-energy cutoff     =      50.0000  Ry
     charge density cutoff     =     400.0000  Ry
     scf convergence threshold =      1.0E-08
     mixing beta               =       0.3000
     number of iterations used =            8  plain     mixing
     Exchange-correlation= PBE
                           (   1   4   3   4   0   0   0)

     celldm(1)=   5.684516  celldm(2)=   0.000000  celldm(3)=   0.000000
     celldm(4)=   0.000000  celldm(5)=   0.000000  celldm(6)=   0.000000

     crystal axes: (cart. coord. in units of alat)
               a(1) = (   1.000000   0.000000   0.000000 )
               a(2) = (  -0.500000   0.866025   0.000000 )
               a(3) = (   0.000000   0.000000   1.600000 )

     reciprocal axes: (cart. coord. in units 2 pi/alat)
               b(1) = (  1.000000  0.577350 -0.000000 )
               b(2) = (  0.000000  1.154701  0.000000 )
               b(3) = (  0.000000 -0.000000  0.625000 )

     PseudoPot. # 1 for Zn read from file:
     ./pseudos/Zn.upf
     MD5 check sum: 7f56cabf9682ed8c977c2f7d0c5985c5
     Pseudo is Ultrasoft + core correction, Zval = 12.0
     Generated using &quot;atomic&quot; code by A. Dal Corso  v.6.2.2
     Using radial grid of 1201 points,  6 beta functions with:
                l(1) =   0
                l(2) =   0
                l(3) =   1
                l(4) =   1
                l(5) =   2
                l(6) =   2
     Q(r) pseudized with 0 coefficients

     PseudoPot. # 2 for O  read from file:
     ./pseudos/O.upf
     MD5 check sum: 91400c9766925bcf19f520983a725ff0
     Pseudo is Ultrasoft + core correction, Zval =  6.0
     Generated using &quot;atomic&quot; code by A. Dal Corso  v.6.3MaX
     Using radial grid of 1095 points,  4 beta functions with:
                l(1) =   0
                l(2) =   0
                l(3) =   1
                l(4) =   1
     Q(r) pseudized with 0 coefficients

     atomic species   valence    mass     pseudopotential
        Zn            12.00    63.38000     Zn( 1.00)
        O              6.00    15.99900     O ( 1.00)

     No symmetry found

   Cartesian axes

     site n.     atom                  positions (alat units)
         1           Zn  tau(   1) = (   0.5534108   0.0742312   0.6448006  )
         2           Zn  tau(   2) = (  -0.2507461   0.6179703  -0.1905439  )
         3           O   tau(   3) = (   0.3579098   0.1292802   1.2323323  )
         4           O   tau(   4) = (  -0.2342986   0.7242298   0.4040623  )

     number of k points=   112

     Number of k-points >= 100: set verbosity='high' to print them.

     Check: negative core charge=   -0.000002

     Initial potential from superposition of free atoms

     starting charge      35.9925, renormalised to      36.0000
     Starting wfcs are   26 randomized atomic wfcs

     Self-consistent Calculation

     iteration #  1     ecut=    50.00 Ry     beta= 0.30
     Davidson diagonalization with overlap
     ethr =  1.00E-02,  avg # of iterations =  2.6

     total energy              =    -360.13578229 Ry
     estimated scf accuracy    <       1.19990561 Ry

[...]

     total energy              =    -360.34732609 Ry
     estimated scf accuracy    <       0.00000006 Ry

     iteration # 29     ecut=    50.00 Ry     beta= 0.30
     Davidson diagonalization with overlap
     ethr =  4.89E-11,  avg # of iterations =  5.6

     End of self-consistent calculation

     Number of k-points >= 100: set verbosity='high' to print the bands.

     highest occupied level (ev):    12.3297

!    total energy              =    -360.34732610 Ry
     estimated scf accuracy    <          6.9E-10 Ry

     The total energy is the sum of the following terms:
     one-electron contribution =    -142.19027535 Ry
     hartree contribution      =     116.02142325 Ry
     xc contribution           =    -110.58619678 Ry
     ewald contribution        =    -223.59227721 Ry

     convergence has been achieved in  29 iterations

     Forces acting on atoms (cartesian axes, Ry/au):

     atom    1 type  1   force =     1.13507730    0.85818056    0.85240013
     atom    2 type  1   force =    -0.46958981   -1.54354481    0.64927515
     atom    3 type  2   force =     0.46296529    1.56417833   -0.67364297
     atom    4 type  2   force =    -1.12845278   -0.87881408   -0.82803231
     The non-local contrib.  to forces
     atom    1 type  1   force =     0.96582815    0.54233812    0.61664495
     atom    2 type  1   force =    -0.19246297   -0.95921088    0.17020099
     atom    3 type  2   force =     0.33001771   -0.28342706    0.02698015
     atom    4 type  2   force =     0.37441495   -0.02766185    0.22848109
     The ionic contribution  to forces
     atom    1 type  1   force =    11.84457869    6.95555190    4.07578432
     atom    2 type  1   force =    -3.49873481  -13.27075717    5.40102096
     atom    3 type  2   force =     1.35044968   12.66095316   -3.87547868
     atom    4 type  2   force =    -9.69629356   -6.34574789   -5.60132659
     The local contribution  to forces
     atom    1 type  1   force =   -11.51997169   -6.54295995   -3.74477302
     atom    2 type  1   force =     3.17985603   12.50532265   -4.85983128
     atom    3 type  2   force =    -1.21282511  -10.80913719    3.17248700
     atom    4 type  2   force =     8.19181106    5.49056470    4.54377435
     The core correction contribution to forces
     atom    1 type  1   force =    -0.15532229   -0.09672029   -0.09519775
     atom    2 type  1   force =     0.04174442    0.18106524   -0.06214234
     atom    3 type  2   force =    -0.00468073   -0.00420797    0.00234159
     atom    4 type  2   force =     0.00161260    0.00403269    0.00104730
     The Hubbard contrib.    to forces
     atom    1 type  1   force =     0.00000000    0.00000000    0.00000000
     atom    2 type  1   force =     0.00000000    0.00000000    0.00000000
     atom    3 type  2   force =     0.00000000    0.00000000    0.00000000
     atom    4 type  2   force =     0.00000000    0.00000000    0.00000000
     The SCF correction term to forces
     atom    1 type  1   force =    -0.00003875   -0.00002793   -0.00006691
     atom    2 type  1   force =     0.00000432    0.00003664    0.00001826
     atom    3 type  2   force =     0.00000055   -0.00000130    0.00001842
     atom    4 type  2   force =    -0.00000104   -0.00000042   -0.00001700

     Total force =     3.409136     Total SCF correction =     0.000095

     Writing all to output data dir ./ZnO_ANN.save/

     General routines

     Parallel routines

   This run was terminated on:  15: 2:52  24Jun2025

   JOB DONE.
Note: The following floating-point exceptions are signalling: IEEE_INVALID_FLAG