     Program PWSCF v.7.2 starts on 24Jun2025 at 18: 0: 0

     Reading input from /home/jvc/QEspresso7.2/ZnO_DataBase/scf_025_NOSYM.in/scf-6.30-1.74-0.25-5.in

     Current dimensions of program PWSCF are:
     Max number of different atomic species (ntypx) = 10
     Max number of k-points (npk) =  40000
     Max angular momentum in pseudopotentials (lmaxx) =  4
     file Zn.upf: wavefunction(s)  3D renormalized

     R & G space division:  proc/nbgrp/npool/nimage =       8
     Subspace diagonalization in iterative solution of the eigenvalue problem:
     a serial algorithm will be used

     Using Slab Decomposition

     bravais-lattice index     =            0
     lattice parameter (alat)  =       6.3024  a.u.
     unit-cell volume          =     346.8711 (a.u.)^3
     number of atoms/cell      =            4
     number of atomic types    =            2
     number of electrons       =        36.00
     number of Kohn-Sham states=           18
     kinetic-energy cutoff     =      50.0000  Ry
     charge density cutoff     =     400.0000  Ry
     scf convergence threshold =      1.0E-08
     mixing beta               =       0.3000
     number of iterations used =            8  plain     mixing
     Exchange-correlation= PBE
                           (   1   4   3   4   0   0   0)

     celldm(1)=   6.302398  celldm(2)=   0.000000  celldm(3)=   0.000000
     celldm(4)=   0.000000  celldm(5)=   0.000000  celldm(6)=   0.000000

     crystal axes: (cart. coord. in units of alat)
               a(1) = (   1.000000   0.000000   0.000000 )
               a(2) = (  -0.500000   0.866025   0.000000 )
               a(3) = (   0.000000   0.000000   1.600000 )

     reciprocal axes: (cart. coord. in units 2 pi/alat)
               b(1) = (  1.000000  0.577350 -0.000000 )
               b(2) = (  0.000000  1.154701  0.000000 )
               b(3) = (  0.000000 -0.000000  0.625000 )

     PseudoPot. # 1 for Zn read from file:
     ./pseudos/Zn.upf
     MD5 check sum: 7f56cabf9682ed8c977c2f7d0c5985c5
     Pseudo is Ultrasoft + core correction, Zval = 12.0
     Generated using &quot;atomic&quot; code by A. Dal Corso  v.6.2.2
     Using radial grid of 1201 points,  6 beta functions with:
                l(1) =   0
                l(2) =   0
                l(3) =   1
                l(4) =   1
                l(5) =   2
                l(6) =   2
     Q(r) pseudized with 0 coefficients

     PseudoPot. # 2 for O  read from file:
     ./pseudos/O.upf
     MD5 check sum: 91400c9766925bcf19f520983a725ff0
     Pseudo is Ultrasoft + core correction, Zval =  6.0
     Generated using &quot;atomic&quot; code by A. Dal Corso  v.6.3MaX
     Using radial grid of 1095 points,  4 beta functions with:
                l(1) =   0
                l(2) =   0
                l(3) =   1
                l(4) =   1
     Q(r) pseudized with 0 coefficients

     atomic species   valence    mass     pseudopotential
        Zn            12.00    63.38000     Zn( 1.00)
        O              6.00    15.99900     O ( 1.00)

     No symmetry found

   Cartesian axes

     site n.     atom                  positions (alat units)
         1           Zn  tau(   1) = (   0.4760296   0.2700451   1.0045124  )
         2           Zn  tau(   2) = (  -0.2326808   0.6193167   0.1262089  )
         3           O   tau(   3) = (   0.5684902   0.3013757   1.1771033  )
         4           O   tau(   4) = (  -0.1222630   0.6832874   0.4430585  )

     number of k points=   112

     Number of k-points >= 100: set verbosity='high' to print them.

     Check: negative core charge=   -0.000002

     Initial potential from superposition of free atoms

     starting charge      35.9925, renormalised to      36.0000
     Starting wfcs are   26 randomized atomic wfcs

     Self-consistent Calculation

     iteration #  1     ecut=    50.00 Ry     beta= 0.30
     Davidson diagonalization with overlap
     ethr =  1.00E-02,  avg # of iterations =  5.6

     total energy              =    -344.71274152 Ry
     estimated scf accuracy    <       1.58921452 Ry

[...]

     total energy              =    -344.86093248 Ry
     estimated scf accuracy    <       0.00000010 Ry

     iteration # 17     ecut=    50.00 Ry     beta= 0.30
     Davidson diagonalization with overlap
     ethr =  2.65E-10,  avg # of iterations =  5.2

     End of self-consistent calculation

     Number of k-points >= 100: set verbosity='high' to print the bands.

     highest occupied level (ev):     7.7118

!    total energy              =    -344.86093251 Ry
     estimated scf accuracy    <          7.3E-09 Ry

     The total energy is the sum of the following terms:
     one-electron contribution =    -250.69044322 Ry
     hartree contribution      =     159.13512258 Ry
     xc contribution           =    -112.56747720 Ry
     ewald contribution        =    -140.73813467 Ry

     convergence has been achieved in  17 iterations

     Forces acting on atoms (cartesian axes, Ry/au):

     atom    1 type  1   force =   -17.91868758   -6.09917973  -33.45217359
     atom    2 type  1   force =    -1.17306927   -0.71177524   -3.35090706
     atom    3 type  2   force =    17.91860214    6.11544388   33.46772499
     atom    4 type  2   force =     1.17315470    0.69551109    3.33535567
     The non-local contrib.  to forces
     atom    1 type  1   force =     7.87783314    2.66862826   14.98892967
     atom    2 type  1   force =    -0.23776445   -0.13501955   -0.77872526
     atom    3 type  2   force =    -2.15329085   -0.46909099   -3.72725173
     atom    4 type  2   force =    -0.41130410   -0.13943977   -1.21167402
     The ionic contribution  to forces
     atom    1 type  1   force =   -41.67915022  -13.66826397  -79.24073275
     atom    2 type  1   force =    -7.35081082   -3.59737766  -17.64311282
     atom    3 type  2   force =    40.59155590   12.98910914   74.58384528
     atom    4 type  2   force =     8.43840514    4.27653250   22.30000029
     The local contribution  to forces
     atom    1 type  1   force =    15.30781455    4.70737220   29.72962591
     atom    2 type  1   force =     6.31416290    2.96821574   14.78159803
     atom    3 type  2   force =   -20.47776086   -6.38867459  -37.30981674
     atom    4 type  2   force =    -6.85259004   -3.44001909  -17.74986046
     The core correction contribution to forces
     atom    1 type  1   force =     0.57470689    0.19303250    1.06977032
     atom    2 type  1   force =     0.10148066    0.05250366    0.28971539
     atom    3 type  2   force =    -0.04184138   -0.01589083   -0.07896107
     atom    4 type  2   force =    -0.00134485   -0.00157547   -0.00305886
     The Hubbard contrib.    to forces
     atom    1 type  1   force =     0.00000000    0.00000000    0.00000000
     atom    2 type  1   force =     0.00000000    0.00000000    0.00000000
     atom    3 type  2   force =     0.00000000    0.00000000    0.00000000
     atom    4 type  2   force =     0.00000000    0.00000000    0.00000000
     The SCF correction term to forces
     atom    1 type  1   force =     0.00012256    0.00004755    0.00025004
     atom    2 type  1   force =    -0.00012305   -0.00010117   -0.00036563
     atom    3 type  2   force =    -0.00004616   -0.00001259   -0.00007398
     atom    4 type  2   force =     0.00000306    0.00000919   -0.00003451

     Total force =    54.607571     Total SCF correction =     0.000498

     Writing all to output data dir ./ZnO_ANN.save/

     General routines

     Parallel routines

   This run was terminated on:  18: 2:18  24Jun2025

   JOB DONE.
Note: The following floating-point exceptions are signalling: IEEE_INVALID_FLAG