     Program PWSCF v.7.2 starts on 24Jun2025 at 16:18:47

     Reading input from /home/jvc/QEspresso7.2/ZnO_DataBase/scf_025_NOSYM.in/scf-6.06-1.52-0.25-3.in

     Current dimensions of program PWSCF are:
     Max number of different atomic species (ntypx) = 10
     Max number of k-points (npk) =  40000
     Max angular momentum in pseudopotentials (lmaxx) =  4
     file Zn.upf: wavefunction(s)  3D renormalized

     R & G space division:  proc/nbgrp/npool/nimage =       8
     Subspace diagonalization in iterative solution of the eigenvalue problem:
     a serial algorithm will be used

     Using Slab Decomposition

     bravais-lattice index     =            0
     lattice parameter (alat)  =       6.0552  a.u.
     unit-cell volume          =     307.6421 (a.u.)^3
     number of atoms/cell      =            4
     number of atomic types    =            2
     number of electrons       =        36.00
     number of Kohn-Sham states=           18
     kinetic-energy cutoff     =      50.0000  Ry
     charge density cutoff     =     400.0000  Ry
     scf convergence threshold =      1.0E-08
     mixing beta               =       0.3000
     number of iterations used =            8  plain     mixing
     Exchange-correlation= PBE
                           (   1   4   3   4   0   0   0)

     celldm(1)=   6.055245  celldm(2)=   0.000000  celldm(3)=   0.000000
     celldm(4)=   0.000000  celldm(5)=   0.000000  celldm(6)=   0.000000

     crystal axes: (cart. coord. in units of alat)
               a(1) = (   1.000000   0.000000   0.000000 )
               a(2) = (  -0.500000   0.866025   0.000000 )
               a(3) = (   0.000000   0.000000   1.600000 )

     reciprocal axes: (cart. coord. in units 2 pi/alat)
               b(1) = (  1.000000  0.577350 -0.000000 )
               b(2) = (  0.000000  1.154701  0.000000 )
               b(3) = (  0.000000 -0.000000  0.625000 )

     PseudoPot. # 1 for Zn read from file:
     ./pseudos/Zn.upf
     MD5 check sum: 7f56cabf9682ed8c977c2f7d0c5985c5
     Pseudo is Ultrasoft + core correction, Zval = 12.0
     Generated using &quot;atomic&quot; code by A. Dal Corso  v.6.2.2
     Using radial grid of 1201 points,  6 beta functions with:
                l(1) =   0
                l(2) =   0
                l(3) =   1
                l(4) =   1
                l(5) =   2
                l(6) =   2
     Q(r) pseudized with 0 coefficients

     PseudoPot. # 2 for O  read from file:
     ./pseudos/O.upf
     MD5 check sum: 91400c9766925bcf19f520983a725ff0
     Pseudo is Ultrasoft + core correction, Zval =  6.0
     Generated using &quot;atomic&quot; code by A. Dal Corso  v.6.3MaX
     Using radial grid of 1095 points,  4 beta functions with:
                l(1) =   0
                l(2) =   0
                l(3) =   1
                l(4) =   1
     Q(r) pseudized with 0 coefficients

     atomic species   valence    mass     pseudopotential
        Zn            12.00    63.38000     Zn( 1.00)
        O              6.00    15.99900     O ( 1.00)

     No symmetry found

   Cartesian axes

     site n.     atom                  positions (alat units)
         1           Zn  tau(   1) = (   0.3151394   0.2358203   1.0452463  )
         2           Zn  tau(   2) = (   0.2414074   0.3840655   0.3158370  )
         3           O   tau(   3) = (   0.3371066   0.4966571   1.5563784  )
         4           O   tau(   4) = (   0.2726152   0.3868902   0.3080030  )

     number of k points=   112

     Number of k-points >= 100: set verbosity='high' to print them.

     Check: negative core charge=   -0.000002

     Initial potential from superposition of free atoms

     starting charge      35.9925, renormalised to      36.0000
     Starting wfcs are   26 randomized atomic wfcs

     Self-consistent Calculation

     iteration #  1     ecut=    50.00 Ry     beta= 0.30
     Davidson diagonalization with overlap
     ethr =  1.00E-02,  avg # of iterations =  5.1

     total energy              =     210.61279183 Ry
     estimated scf accuracy    <      23.42728943 Ry

[...]

     iteration # 14     ecut=    50.00 Ry     beta= 0.30
     Davidson diagonalization with overlap
     c_bands:  1 eigenvalues not converged
     ethr =  2.74E-09,  avg # of iterations =  9.9

[...]

     iteration # 16     ecut=    50.00 Ry     beta= 0.30
     Davidson diagonalization with overlap
     c_bands:  1 eigenvalues not converged
     ethr =  7.67E-11,  avg # of iterations =  7.0

     total energy              =     207.61874212 Ry
     estimated scf accuracy    <       0.00000004 Ry

     iteration # 17     ecut=    50.00 Ry     beta= 0.30
     Davidson diagonalization with overlap
     ethr =  7.67E-11,  avg # of iterations =  4.5

     End of self-consistent calculation

     Number of k-points >= 100: set verbosity='high' to print the bands.

     highest occupied level (ev):    12.4186

!    total energy              =     207.61874211 Ry
     estimated scf accuracy    <          5.4E-09 Ry

     The total energy is the sum of the following terms:
     one-electron contribution =    -355.39272955 Ry
     hartree contribution      =     205.22991145 Ry
     xc contribution           =    -120.28935212 Ry
     ewald contribution        =     478.07091233 Ry

     convergence has been achieved in  17 iterations

     Forces acting on atoms (cartesian axes, Ry/au):

     atom    1 type  1   force =     0.00188042   -0.05884002   -0.03499774
     atom    2 type  1   force = -3598.19150343 -326.28552005  905.14934683
     atom    3 type  2   force =     0.75862578    1.03751888   -3.06265370
     atom    4 type  2   force =  3597.43099723  325.30684120 -902.05169538
     The non-local contrib.  to forces
     atom    1 type  1   force =    -0.00534853    0.42780860    0.02600846
     atom    2 type  1   force =    30.05799113    3.05960748   -8.77404348
     atom    3 type  2   force =    -0.61131546   -1.07651094    2.40179574
     atom    4 type  2   force =    -3.67204371   -0.14192635    0.27396079
     The ionic contribution  to forces
     atom    1 type  1   force =     0.47762166   -4.14638696   -2.95981522
     atom    2 type  1   force = -3641.94402835 -333.87379678  932.81407156
     atom    3 type  2   force =     7.04316664   11.58347333  -28.08761301
     atom    4 type  2   force =  3634.42324005  326.43671041 -901.76664332
     The local contribution  to forces
     atom    1 type  1   force =    -0.47025912    3.65727408    2.88473920
     atom    2 type  1   force =    12.80326542    4.42543486  -18.59423309
     atom    3 type  2   force =    -5.67456499   -9.47279536   22.62774461
     atom    4 type  2   force =   -33.01831133   -0.96061142   -0.63439134
     The core correction contribution to forces
     atom    1 type  1   force =    -0.00030014    0.00247449    0.01401879
     atom    2 type  1   force =     0.89130012    0.10321362   -0.29641582
     atom    3 type  2   force =     0.00119604    0.00327206   -0.00438066
     atom    4 type  2   force =    -0.30200109   -0.02735392    0.07544029
     The Hubbard contrib.    to forces
     atom    1 type  1   force =     0.00000000    0.00000000    0.00000000
     atom    2 type  1   force =     0.00000000    0.00000000    0.00000000
     atom    3 type  2   force =     0.00000000    0.00000000    0.00000000
     atom    4 type  2   force =     0.00000000    0.00000000    0.00000000
     The SCF correction term to forces
     atom    1 type  1   force =     0.00005301   -0.00001636    0.00008252
     atom    2 type  1   force =    -0.00014530    0.00001465   -0.00000086
     atom    3 type  2   force =     0.00003001    0.00007367   -0.00016888
     atom    4 type  2   force =    -0.00000024    0.00001636   -0.00003032

     Total force =  5266.287335     Total SCF correction =     0.000259

     Writing all to output data dir ./ZnO_ANN.save/

     General routines

     Parallel routines

   This run was terminated on:  16:21: 5  24Jun2025

   JOB DONE.
Note: The following floating-point exceptions are signalling: IEEE_INVALID_FLAG