     Program PWSCF v.7.2 starts on 24Jun2025 at 18: 3:46

     Reading input from /home/jvc/QEspresso7.2/ZnO_DataBase/scf_025_NOSYM.in/scf-6.43-1.45-0.25-2.in

     Current dimensions of program PWSCF are:
     Max number of different atomic species (ntypx) = 10
     Max number of k-points (npk) =  40000
     Max angular momentum in pseudopotentials (lmaxx) =  4
     file Zn.upf: wavefunction(s)  3D renormalized

     R & G space division:  proc/nbgrp/npool/nimage =       8
     Subspace diagonalization in iterative solution of the eigenvalue problem:
     a serial algorithm will be used

     Using Slab Decomposition

     bravais-lattice index     =            0
     lattice parameter (alat)  =       6.4260  a.u.
     unit-cell volume          =     367.6779 (a.u.)^3
     number of atoms/cell      =            4
     number of atomic types    =            2
     number of electrons       =        36.00
     number of Kohn-Sham states=           18
     kinetic-energy cutoff     =      50.0000  Ry
     charge density cutoff     =     400.0000  Ry
     scf convergence threshold =      1.0E-08
     mixing beta               =       0.3000
     number of iterations used =            8  plain     mixing
     Exchange-correlation= PBE
                           (   1   4   3   4   0   0   0)

     celldm(1)=   6.425974  celldm(2)=   0.000000  celldm(3)=   0.000000
     celldm(4)=   0.000000  celldm(5)=   0.000000  celldm(6)=   0.000000

     crystal axes: (cart. coord. in units of alat)
               a(1) = (   1.000000   0.000000   0.000000 )
               a(2) = (  -0.500000   0.866025   0.000000 )
               a(3) = (   0.000000   0.000000   1.600000 )

     reciprocal axes: (cart. coord. in units 2 pi/alat)
               b(1) = (  1.000000  0.577350 -0.000000 )
               b(2) = (  0.000000  1.154701  0.000000 )
               b(3) = (  0.000000 -0.000000  0.625000 )

     PseudoPot. # 1 for Zn read from file:
     ./pseudos/Zn.upf
     MD5 check sum: 7f56cabf9682ed8c977c2f7d0c5985c5
     Pseudo is Ultrasoft + core correction, Zval = 12.0
     Generated using &quot;atomic&quot; code by A. Dal Corso  v.6.2.2
     Using radial grid of 1201 points,  6 beta functions with:
                l(1) =   0
                l(2) =   0
                l(3) =   1
                l(4) =   1
                l(5) =   2
                l(6) =   2
     Q(r) pseudized with 0 coefficients

     PseudoPot. # 2 for O  read from file:
     ./pseudos/O.upf
     MD5 check sum: 91400c9766925bcf19f520983a725ff0
     Pseudo is Ultrasoft + core correction, Zval =  6.0
     Generated using &quot;atomic&quot; code by A. Dal Corso  v.6.3MaX
     Using radial grid of 1095 points,  4 beta functions with:
                l(1) =   0
                l(2) =   0
                l(3) =   1
                l(4) =   1
     Q(r) pseudized with 0 coefficients

     atomic species   valence    mass     pseudopotential
        Zn            12.00    63.38000     Zn( 1.00)
        O              6.00    15.99900     O ( 1.00)

     No symmetry found

   Cartesian axes

     site n.     atom                  positions (alat units)
         1           Zn  tau(   1) = (   0.2556445   0.2964582   0.5216248  )
         2           Zn  tau(   2) = (   0.3040924   0.4120161  -0.3374900  )
         3           O   tau(   3) = (   0.5421738   0.3153817   1.3680322  )
         4           O   tau(   4) = (   0.0820624   0.5488130   0.9190719  )

     number of k points=   112

     Number of k-points >= 100: set verbosity='high' to print them.

     Check: negative core charge=   -0.000002

     Initial potential from superposition of free atoms

     starting charge      35.9925, renormalised to      36.0000
     Starting wfcs are   26 randomized atomic wfcs

     Self-consistent Calculation

     iteration #  1     ecut=    50.00 Ry     beta= 0.30
     Davidson diagonalization with overlap
     ethr =  1.00E-02,  avg # of iterations =  5.7

     total energy              =    -357.10454839 Ry
     estimated scf accuracy    <       1.60190061 Ry

[...]

     iteration #  3     ecut=    50.00 Ry     beta= 0.30
     Davidson diagonalization with overlap
     c_bands:  1 eigenvalues not converged
     ethr =  1.04E-03,  avg # of iterations = 12.6

[...]

     iteration # 37     ecut=    50.00 Ry     beta= 0.30
     Davidson diagonalization with overlap
     c_bands:  1 eigenvalues not converged
     c_bands:  1 eigenvalues not converged
     c_bands:  1 eigenvalues not converged
     c_bands:  1 eigenvalues not converged
     c_bands:  1 eigenvalues not converged
     c_bands:  1 eigenvalues not converged
     c_bands:  1 eigenvalues not converged
     c_bands:  1 eigenvalues not converged
     ethr =  1.16E-10,  avg # of iterations = 13.5

     total energy              =    -357.42155521 Ry
     estimated scf accuracy    <       0.00000001 Ry

     iteration # 38     ecut=    50.00 Ry     beta= 0.30
     Davidson diagonalization with overlap
     ethr =  3.82E-11,  avg # of iterations =  3.5

     End of self-consistent calculation

     Number of k-points >= 100: set verbosity='high' to print the bands.

     highest occupied level (ev):     7.3967

!    total energy              =    -357.42155522 Ry
     estimated scf accuracy    <          2.9E-09 Ry

     The total energy is the sum of the following terms:
     one-electron contribution =    -236.27941549 Ry
     hartree contribution      =     154.52749646 Ry
     xc contribution           =    -110.59970184 Ry
     ewald contribution        =    -165.06993434 Ry

     convergence has been achieved in  38 iterations

     Forces acting on atoms (cartesian axes, Ry/au):

     atom    1 type  1   force =     0.04487764   -0.08100866   -0.15452921
     atom    2 type  1   force =    -8.61121918    3.41795982   -3.41105000
     atom    3 type  2   force =     9.00392360   -3.65526391    4.12379232
     atom    4 type  2   force =    -0.43758206    0.31831276   -0.55821311
     The non-local contrib.  to forces
     atom    1 type  1   force =     0.24588520   -0.29313581   -0.51535461
     atom    2 type  1   force =     1.73363637   -0.71104603    0.83572274
     atom    3 type  2   force =    -0.69434412    0.23515623    0.08769196
     atom    4 type  2   force =     0.55415723   -0.62141154   -0.12018016
     The ionic contribution  to forces
     atom    1 type  1   force =     1.70429989   -4.51447575  -15.91023074
     atom    2 type  1   force =   -27.27263716   10.66047127    3.03677563
     atom    3 type  2   force =    34.89704137  -14.06285335   21.08054758
     atom    4 type  2   force =    -9.32870410    7.91685784   -8.20709247
     The local contribution  to forces
     atom    1 type  1   force =    -1.88516099    4.69716513   16.22187689
     atom    2 type  1   force =    16.49877424   -6.36232563   -7.41519397
     atom    3 type  2   force =   -25.18003165   10.16420557  -17.03222757
     atom    4 type  2   force =     8.33831871   -6.98018808    7.76506303
     The core correction contribution to forces
     atom    1 type  1   force =    -0.02019639    0.02948088    0.04926382
     atom    2 type  1   force =     0.42915468   -0.16919096    0.13158492
     atom    3 type  2   force =    -0.01878455    0.00824140   -0.01228447
     atom    4 type  2   force =    -0.00137856    0.00305748    0.00407143
     The Hubbard contrib.    to forces
     atom    1 type  1   force =     0.00000000    0.00000000    0.00000000
     atom    2 type  1   force =     0.00000000    0.00000000    0.00000000
     atom    3 type  2   force =     0.00000000    0.00000000    0.00000000
     atom    4 type  2   force =     0.00000000    0.00000000    0.00000000
     The SCF correction term to forces
     atom    1 type  1   force =     0.00001069   -0.00003483   -0.00009658
     atom    2 type  1   force =    -0.00018655    0.00005944    0.00004865
     atom    3 type  2   force =     0.00000329   -0.00000549    0.00005281
     atom    4 type  2   force =    -0.00001458    0.00000533   -0.00008696

     Total force =    14.475667     Total SCF correction =     0.000249

     Writing all to output data dir ./ZnO_ANN.save/

     General routines

     Parallel routines

   This run was terminated on:  18: 9: 2  24Jun2025

   JOB DONE.
Note: The following floating-point exceptions are signalling: IEEE_INVALID_FLAG