     Program PWSCF v.7.2 starts on 24Jun2025 at 20:12: 3

     Reading input from /home/jvc/QEspresso7.2/ZnO_DataBase/scf_025_NOSYM.in/scf-6.67-1.68-0.25-2.in

     Current dimensions of program PWSCF are:
     Max number of different atomic species (ntypx) = 10
     Max number of k-points (npk) =  40000
     Max angular momentum in pseudopotentials (lmaxx) =  4
     file Zn.upf: wavefunction(s)  3D renormalized

     R & G space division:  proc/nbgrp/npool/nimage =       8
     Subspace diagonalization in iterative solution of the eigenvalue problem:
     a serial algorithm will be used

     Using Slab Decomposition

     bravais-lattice index     =            0
     lattice parameter (alat)  =       6.6731  a.u.
     unit-cell volume          =     411.7549 (a.u.)^3
     number of atoms/cell      =            4
     number of atomic types    =            2
     number of electrons       =        36.00
     number of Kohn-Sham states=           18
     kinetic-energy cutoff     =      50.0000  Ry
     charge density cutoff     =     400.0000  Ry
     scf convergence threshold =      1.0E-08
     mixing beta               =       0.3000
     number of iterations used =            8  plain     mixing
     Exchange-correlation= PBE
                           (   1   4   3   4   0   0   0)

     celldm(1)=   6.673127  celldm(2)=   0.000000  celldm(3)=   0.000000
     celldm(4)=   0.000000  celldm(5)=   0.000000  celldm(6)=   0.000000

     crystal axes: (cart. coord. in units of alat)
               a(1) = (   1.000000   0.000000   0.000000 )
               a(2) = (  -0.500000   0.866025   0.000000 )
               a(3) = (   0.000000   0.000000   1.600000 )

     reciprocal axes: (cart. coord. in units 2 pi/alat)
               b(1) = (  1.000000  0.577350 -0.000000 )
               b(2) = (  0.000000  1.154701  0.000000 )
               b(3) = (  0.000000 -0.000000  0.625000 )

     PseudoPot. # 1 for Zn read from file:
     ./pseudos/Zn.upf
     MD5 check sum: 7f56cabf9682ed8c977c2f7d0c5985c5
     Pseudo is Ultrasoft + core correction, Zval = 12.0
     Generated using &quot;atomic&quot; code by A. Dal Corso  v.6.2.2
     Using radial grid of 1201 points,  6 beta functions with:
                l(1) =   0
                l(2) =   0
                l(3) =   1
                l(4) =   1
                l(5) =   2
                l(6) =   2
     Q(r) pseudized with 0 coefficients

     PseudoPot. # 2 for O  read from file:
     ./pseudos/O.upf
     MD5 check sum: 91400c9766925bcf19f520983a725ff0
     Pseudo is Ultrasoft + core correction, Zval =  6.0
     Generated using &quot;atomic&quot; code by A. Dal Corso  v.6.3MaX
     Using radial grid of 1095 points,  4 beta functions with:
                l(1) =   0
                l(2) =   0
                l(3) =   1
                l(4) =   1
     Q(r) pseudized with 0 coefficients

     atomic species   valence    mass     pseudopotential
        Zn            12.00    63.38000     Zn( 1.00)
        O              6.00    15.99900     O ( 1.00)

     No symmetry found

   Cartesian axes

     site n.     atom                  positions (alat units)
         1           Zn  tau(   1) = (   0.5092539   0.1751436   0.4944098  )
         2           Zn  tau(   2) = (   0.3010618   0.3854461  -0.2764341  )
         3           O   tau(   3) = (   0.4917459   0.3220629   1.1860568  )
         4           O   tau(   4) = (  -0.0627689   0.4164787   0.4181633  )

     number of k points=   112

     Number of k-points >= 100: set verbosity='high' to print them.

     Check: negative core charge=   -0.000002

     Initial potential from superposition of free atoms

     starting charge      35.9925, renormalised to      36.0000
     Starting wfcs are   26 randomized atomic wfcs

     Self-consistent Calculation

     iteration #  1     ecut=    50.00 Ry     beta= 0.30
     Davidson diagonalization with overlap
     ethr =  1.00E-02,  avg # of iterations =  5.1

     total energy              =    -355.61428286 Ry
     estimated scf accuracy    <       1.12096912 Ry

[...]

     total energy              =    -355.77828776 Ry
     estimated scf accuracy    <       0.00000008 Ry

     iteration # 24     ecut=    50.00 Ry     beta= 0.30
     Davidson diagonalization with overlap
     ethr =  1.03E-10,  avg # of iterations =  5.1

     End of self-consistent calculation

     Number of k-points >= 100: set verbosity='high' to print the bands.

     highest occupied level (ev):     4.6952

!    total energy              =    -355.77828778 Ry
     estimated scf accuracy    <          4.2E-10 Ry

     The total energy is the sum of the following terms:
     one-electron contribution =    -231.91058364 Ry
     hartree contribution      =     150.34664845 Ry
     xc contribution           =    -110.60689682 Ry
     ewald contribution        =    -163.60745577 Ry

     convergence has been achieved in  24 iterations

     Forces acting on atoms (cartesian axes, Ry/au):

     atom    1 type  1   force =    -0.10449365   -0.06250439   -0.00504310
     atom    2 type  1   force =   -12.33075406    4.08957314    8.91292513
     atom    3 type  2   force =    12.31904838   -4.09177609   -8.90137328
     atom    4 type  2   force =     0.11619934    0.06470734   -0.00650875
     The non-local contrib.  to forces
     atom    1 type  1   force =    -0.49916537   -0.30615960    0.21423930
     atom    2 type  1   force =     3.09043840   -1.03413622   -2.21726160
     atom    3 type  2   force =    -1.11259029    0.31826991    0.61829019
     atom    4 type  2   force =    -0.31787132   -0.19105676    0.28271420
     The ionic contribution  to forces
     atom    1 type  1   force =    -2.84890544   -3.36286434    1.64771325
     atom    2 type  1   force =   -39.63277029   13.74484696   27.09974257
     atom    3 type  2   force =    39.26731933  -12.62235661  -27.69742571
     atom    4 type  2   force =     3.21435640    2.24037399   -1.05003010
     The local contribution  to forces
     atom    1 type  1   force =     3.20717103    3.58350671   -1.85348436
     atom    2 type  1   force =    23.66153144   -8.43698935  -15.57581366
     atom    3 type  2   force =   -25.81568864    8.20524337   18.16178916
     atom    4 type  2   force =    -2.78241983   -1.98584132    0.76352365
     The core correction contribution to forces
     atom    1 type  1   force =     0.03639637    0.02301098   -0.01348450
     atom    2 type  1   force =     0.55007559   -0.18415308   -0.39377547
     atom    3 type  2   force =    -0.02002022    0.00707859    0.01598087
     atom    4 type  2   force =     0.00212199    0.00122534   -0.00270922
     The Hubbard contrib.    to forces
     atom    1 type  1   force =     0.00000000    0.00000000    0.00000000
     atom    2 type  1   force =     0.00000000    0.00000000    0.00000000
     atom    3 type  2   force =     0.00000000    0.00000000    0.00000000
     atom    4 type  2   force =     0.00000000    0.00000000    0.00000000
     The SCF correction term to forces
     atom    1 type  1   force =     0.00000734    0.00000268   -0.00002578
     atom    2 type  1   force =    -0.00003161    0.00000564    0.00003430
     atom    3 type  2   force =     0.00002579   -0.00001054   -0.00000677
     atom    4 type  2   force =     0.00000969    0.00000690   -0.00000627

     Total force =    22.270630     Total SCF correction =     0.000063

     Writing all to output data dir ./ZnO_ANN.save/

     General routines

     Parallel routines

   This run was terminated on:  20:15:38  24Jun2025

   JOB DONE.
Note: The following floating-point exceptions are signalling: IEEE_INVALID_FLAG