     Program PWSCF v.7.2 starts on 24Jun2025 at 17:54: 3

     Reading input from /home/jvc/QEspresso7.2/ZnO_DataBase/scf_025_NOSYM.in/scf-6.30-1.71-0.25-1.in

     Current dimensions of program PWSCF are:
     Max number of different atomic species (ntypx) = 10
     Max number of k-points (npk) =  40000
     Max angular momentum in pseudopotentials (lmaxx) =  4
     file Zn.upf: wavefunction(s)  3D renormalized

     R & G space division:  proc/nbgrp/npool/nimage =       8
     Subspace diagonalization in iterative solution of the eigenvalue problem:
     a serial algorithm will be used

     Using Slab Decomposition

     bravais-lattice index     =            0
     lattice parameter (alat)  =       6.3024  a.u.
     unit-cell volume          =     346.8711 (a.u.)^3
     number of atoms/cell      =            4
     number of atomic types    =            2
     number of electrons       =        36.00
     number of Kohn-Sham states=           18
     kinetic-energy cutoff     =      50.0000  Ry
     charge density cutoff     =     400.0000  Ry
     scf convergence threshold =      1.0E-08
     mixing beta               =       0.3000
     number of iterations used =            8  plain     mixing
     Exchange-correlation= PBE
                           (   1   4   3   4   0   0   0)

     celldm(1)=   6.302398  celldm(2)=   0.000000  celldm(3)=   0.000000
     celldm(4)=   0.000000  celldm(5)=   0.000000  celldm(6)=   0.000000

     crystal axes: (cart. coord. in units of alat)
               a(1) = (   1.000000   0.000000   0.000000 )
               a(2) = (  -0.500000   0.866025   0.000000 )
               a(3) = (   0.000000   0.000000   1.600000 )

     reciprocal axes: (cart. coord. in units 2 pi/alat)
               b(1) = (  1.000000  0.577350 -0.000000 )
               b(2) = (  0.000000  1.154701  0.000000 )
               b(3) = (  0.000000 -0.000000  0.625000 )

     PseudoPot. # 1 for Zn read from file:
     ./pseudos/Zn.upf
     MD5 check sum: 7f56cabf9682ed8c977c2f7d0c5985c5
     Pseudo is Ultrasoft + core correction, Zval = 12.0
     Generated using &quot;atomic&quot; code by A. Dal Corso  v.6.2.2
     Using radial grid of 1201 points,  6 beta functions with:
                l(1) =   0
                l(2) =   0
                l(3) =   1
                l(4) =   1
                l(5) =   2
                l(6) =   2
     Q(r) pseudized with 0 coefficients

     PseudoPot. # 2 for O  read from file:
     ./pseudos/O.upf
     MD5 check sum: 91400c9766925bcf19f520983a725ff0
     Pseudo is Ultrasoft + core correction, Zval =  6.0
     Generated using &quot;atomic&quot; code by A. Dal Corso  v.6.3MaX
     Using radial grid of 1095 points,  4 beta functions with:
                l(1) =   0
                l(2) =   0
                l(3) =   1
                l(4) =   1
     Q(r) pseudized with 0 coefficients

     atomic species   valence    mass     pseudopotential
        Zn            12.00    63.38000     Zn( 1.00)
        O              6.00    15.99900     O ( 1.00)

     No symmetry found

   Cartesian axes

     site n.     atom                  positions (alat units)
         1           Zn  tau(   1) = (   0.4878420   0.4659445   0.5420632  )
         2           Zn  tau(   2) = (  -0.0461171   0.4143608   0.3675780  )
         3           O   tau(   3) = (   0.3780929   0.1234853   1.1102327  )
         4           O   tau(   4) = (  -0.1333775   0.3894504   0.5108586  )

     number of k points=   112

     Number of k-points >= 100: set verbosity='high' to print them.

     Check: negative core charge=   -0.000003

     Initial potential from superposition of free atoms

     starting charge      35.9925, renormalised to      36.0000
     Starting wfcs are   26 randomized atomic wfcs

     Self-consistent Calculation

     iteration #  1     ecut=    50.00 Ry     beta= 0.30
     Davidson diagonalization with overlap
     ethr =  1.00E-02,  avg # of iterations =  5.3

     total energy              =    -335.18903075 Ry
     estimated scf accuracy    <       2.41012565 Ry

[...]

     iteration #  7     ecut=    50.00 Ry     beta= 0.30
     Davidson diagonalization with overlap
     c_bands:  1 eigenvalues not converged
     ethr =  2.65E-04,  avg # of iterations =  7.1

[...]

     iteration # 45     ecut=    50.00 Ry     beta= 0.30
     Davidson diagonalization with overlap
     c_bands:  1 eigenvalues not converged
     c_bands:  1 eigenvalues not converged
     ethr =  1.19E-09,  avg # of iterations =  8.2

[...]

     total energy              =    -335.47242917 Ry
     estimated scf accuracy    <       0.00000051 Ry

     iteration # 47     ecut=    50.00 Ry     beta= 0.30
     Davidson diagonalization with overlap
     ethr =  1.19E-09,  avg # of iterations =  5.1

     End of self-consistent calculation

     Number of k-points >= 100: set verbosity='high' to print the bands.

     highest occupied level (ev):     9.5240

!    total energy              =    -335.47242925 Ry
     estimated scf accuracy    <          3.1E-09 Ry

     The total energy is the sum of the following terms:
     one-electron contribution =    -372.48866267 Ry
     hartree contribution      =     215.64574831 Ry
     xc contribution           =    -113.58350152 Ry
     ewald contribution        =     -65.04601337 Ry

     convergence has been achieved in  47 iterations

     Forces acting on atoms (cartesian axes, Ry/au):

     atom    1 type  1   force =    -2.39352507    0.47129128    0.84552174
     atom    2 type  1   force =    32.86582272    9.03225098  -53.27785412
     atom    3 type  2   force =    -0.00516824    0.01573273   -0.09293804
     atom    4 type  2   force =   -30.46712941   -9.51927498   52.52527042
     The non-local contrib.  to forces
     atom    1 type  1   force =     0.11939139    0.11181282   -0.86008466
     atom    2 type  1   force =   -13.57522838   -3.77267064   22.35800070
     atom    3 type  2   force =     0.02227808    0.23735058   -0.61797824
     atom    4 type  2   force =     2.96799115    1.16334853   -6.00946877
     The ionic contribution  to forces
     atom    1 type  1   force =   -20.14990115    6.70579480   12.92186032
     atom    2 type  1   force =    68.70689418   16.00521695 -126.91908893
     atom    3 type  2   force =    -0.20902291   -1.20615544   11.89341763
     atom    4 type  2   force =   -48.34797012  -21.50485631  102.10381098
     The local contribution  to forces
     atom    1 type  1   force =    17.44427070   -6.29372514  -11.17660163
     atom    2 type  1   force =   -21.41412787   -2.97091311   49.89398932
     atom    3 type  2   force =     0.18177001    0.98686987  -11.37423107
     atom    4 type  2   force =    14.81294315   10.79314647  -43.40602245
     The core correction contribution to forces
     atom    1 type  1   force =     0.19273046   -0.05248896   -0.03970059
     atom    2 type  1   force =    -0.85170769   -0.22939782    1.38930946
     atom    3 type  2   force =    -0.00016743   -0.00235899    0.00579342
     atom    4 type  2   force =     0.09989847    0.02906222   -0.16309677
     The Hubbard contrib.    to forces
     atom    1 type  1   force =     0.00000000    0.00000000    0.00000000
     atom    2 type  1   force =     0.00000000    0.00000000    0.00000000
     atom    3 type  2   force =     0.00000000    0.00000000    0.00000000
     atom    4 type  2   force =     0.00000000    0.00000000    0.00000000
     The SCF correction term to forces
     atom    1 type  1   force =     0.00000391   -0.00011779    0.00003322
     atom    2 type  1   force =     0.00001287    0.00000005   -0.00007976
     atom    3 type  2   force =    -0.00000560    0.00001116    0.00004514
     atom    4 type  2   force =     0.00002833    0.00000856    0.00003234

     Total force =    88.231033     Total SCF correction =     0.000160

     Writing all to output data dir ./ZnO_ANN.save/

     General routines

     Parallel routines

   This run was terminated on:  18: 0: 0  24Jun2025

   JOB DONE.
Note: The following floating-point exceptions are signalling: IEEE_INVALID_FLAG