     Program PWSCF v.7.2 starts on 24Jun2025 at 19:12: 2

     Reading input from /home/jvc/QEspresso7.2/ZnO_DataBase/scf_025_NOSYM.in/scf-6.55-1.61-0.25-2.in

     Current dimensions of program PWSCF are:
     Max number of different atomic species (ntypx) = 10
     Max number of k-points (npk) =  40000
     Max angular momentum in pseudopotentials (lmaxx) =  4
     file Zn.upf: wavefunction(s)  3D renormalized

     R & G space division:  proc/nbgrp/npool/nimage =       8
     Subspace diagonalization in iterative solution of the eigenvalue problem:
     a serial algorithm will be used

     Using Slab Decomposition

     bravais-lattice index     =            0
     lattice parameter (alat)  =       6.5496  a.u.
     unit-cell volume          =     389.3007 (a.u.)^3
     number of atoms/cell      =            4
     number of atomic types    =            2
     number of electrons       =        36.00
     number of Kohn-Sham states=           18
     kinetic-energy cutoff     =      50.0000  Ry
     charge density cutoff     =     400.0000  Ry
     scf convergence threshold =      1.0E-08
     mixing beta               =       0.3000
     number of iterations used =            8  plain     mixing
     Exchange-correlation= PBE
                           (   1   4   3   4   0   0   0)

     celldm(1)=   6.549551  celldm(2)=   0.000000  celldm(3)=   0.000000
     celldm(4)=   0.000000  celldm(5)=   0.000000  celldm(6)=   0.000000

     crystal axes: (cart. coord. in units of alat)
               a(1) = (   1.000000   0.000000   0.000000 )
               a(2) = (  -0.500000   0.866025   0.000000 )
               a(3) = (   0.000000   0.000000   1.600000 )

     reciprocal axes: (cart. coord. in units 2 pi/alat)
               b(1) = (  1.000000  0.577350 -0.000000 )
               b(2) = (  0.000000  1.154701  0.000000 )
               b(3) = (  0.000000 -0.000000  0.625000 )

     PseudoPot. # 1 for Zn read from file:
     ./pseudos/Zn.upf
     MD5 check sum: 7f56cabf9682ed8c977c2f7d0c5985c5
     Pseudo is Ultrasoft + core correction, Zval = 12.0
     Generated using &quot;atomic&quot; code by A. Dal Corso  v.6.2.2
     Using radial grid of 1201 points,  6 beta functions with:
                l(1) =   0
                l(2) =   0
                l(3) =   1
                l(4) =   1
                l(5) =   2
                l(6) =   2
     Q(r) pseudized with 0 coefficients

     PseudoPot. # 2 for O  read from file:
     ./pseudos/O.upf
     MD5 check sum: 91400c9766925bcf19f520983a725ff0
     Pseudo is Ultrasoft + core correction, Zval =  6.0
     Generated using &quot;atomic&quot; code by A. Dal Corso  v.6.3MaX
     Using radial grid of 1095 points,  4 beta functions with:
                l(1) =   0
                l(2) =   0
                l(3) =   1
                l(4) =   1
     Q(r) pseudized with 0 coefficients

     atomic species   valence    mass     pseudopotential
        Zn            12.00    63.38000     Zn( 1.00)
        O              6.00    15.99900     O ( 1.00)

     No symmetry found

   Cartesian axes

     site n.     atom                  positions (alat units)
         1           Zn  tau(   1) = (   0.6483138   0.2673690   0.7247529  )
         2           Zn  tau(   2) = (  -0.0506991   0.7936515  -0.2436769  )
         3           O   tau(   3) = (   0.3423919   0.1471107   1.0336165  )
         4           O   tau(   4) = (  -0.3080638   0.7683505   0.2600485  )

     number of k points=   112

     Number of k-points >= 100: set verbosity='high' to print them.

     Check: negative core charge=   -0.000002

     Initial potential from superposition of free atoms

     starting charge      35.9925, renormalised to      36.0000
     Starting wfcs are   26 randomized atomic wfcs

     Self-consistent Calculation

     iteration #  1     ecut=    50.00 Ry     beta= 0.30
     Davidson diagonalization with overlap
     ethr =  1.00E-02,  avg # of iterations =  2.0

     total energy              =    -360.77878716 Ry
     estimated scf accuracy    <       1.18416315 Ry

[...]

     iteration # 13     ecut=    50.00 Ry     beta= 0.30
     Davidson diagonalization with overlap
     c_bands:  1 eigenvalues not converged
     ethr =  2.51E-06,  avg # of iterations = 12.5

[...]

     iteration # 32     ecut=    50.00 Ry     beta= 0.30
     Davidson diagonalization with overlap
     c_bands:  1 eigenvalues not converged
     ethr =  4.90E-11,  avg # of iterations =  8.0

[...]

     total energy              =    -361.04013491 Ry
     estimated scf accuracy    <       0.00000002 Ry

     iteration # 35     ecut=    50.00 Ry     beta= 0.30
     Davidson diagonalization with overlap
     ethr =  4.90E-11,  avg # of iterations =  2.1

     End of self-consistent calculation

     Number of k-points >= 100: set verbosity='high' to print the bands.

     highest occupied level (ev):     5.6259

!    total energy              =    -361.04013491 Ry
     estimated scf accuracy    <          5.6E-09 Ry

     The total energy is the sum of the following terms:
     one-electron contribution =    -199.26853663 Ry
     hartree contribution      =     136.98854222 Ry
     xc contribution           =    -109.49777241 Ry
     ewald contribution        =    -189.26236808 Ry

     convergence has been achieved in  35 iterations

     Forces acting on atoms (cartesian axes, Ry/au):

     atom    1 type  1   force =     0.25662518    0.14217736   -0.40953656
     atom    2 type  1   force =     0.18996411   -0.51143111    0.88946107
     atom    3 type  2   force =    -0.47065805    0.41461337   -0.50341110
     atom    4 type  2   force =     0.02406875   -0.04535961    0.02348659
     The non-local contrib.  to forces
     atom    1 type  1   force =     0.76415954    0.12562012   -0.30634506
     atom    2 type  1   force =     0.60458753   -0.62790847    0.32371914
     atom    3 type  2   force =     1.00813368   -0.29892553    0.17234510
     atom    4 type  2   force =     0.41565028   -0.33611133   -0.27329844
     The ionic contribution  to forces
     atom    1 type  1   force =     7.44823598    3.08108036  -15.24661026
     atom    2 type  1   force =     5.56878680   -8.73241179   17.87425578
     atom    3 type  2   force =   -10.48083904    5.46168132   -3.99724512
     atom    4 type  2   force =    -2.53618375    0.18965011    1.36959960
     The local contribution  to forces
     atom    1 type  1   force =    -7.88531121   -3.04510072   15.08719019
     atom    2 type  1   force =    -5.91815726    8.75755837  -17.21231653
     atom    3 type  2   force =     9.00805533   -4.74869414    3.32063778
     atom    4 type  2   force =     2.14853309    0.09741815   -1.07505837
     The core correction contribution to forces
     atom    1 type  1   force =    -0.07049668   -0.01943578    0.05615010
     atom    2 type  1   force =    -0.06531128    0.09137836   -0.09610989
     atom    3 type  2   force =    -0.00601431    0.00055144    0.00083924
     atom    4 type  2   force =    -0.00392522    0.00368662    0.00224675
     The Hubbard contrib.    to forces
     atom    1 type  1   force =     0.00000000    0.00000000    0.00000000
     atom    2 type  1   force =     0.00000000    0.00000000    0.00000000
     atom    3 type  2   force =     0.00000000    0.00000000    0.00000000
     atom    4 type  2   force =     0.00000000    0.00000000    0.00000000
     The SCF correction term to forces
     atom    1 type  1   force =     0.00004780    0.00001061    0.00007699
     atom    2 type  1   force =     0.00006857   -0.00005033   -0.00008893
     atom    3 type  2   force =     0.00001654   -0.00000248    0.00001041
     atom    4 type  2   force =     0.00000461   -0.00000593   -0.00000444

     Total force =     1.411600     Total SCF correction =     0.000155

     Writing all to output data dir ./ZnO_ANN.save/

     General routines

     Parallel routines

   This run was terminated on:  19:17: 6  24Jun2025

   JOB DONE.
Note: The following floating-point exceptions are signalling: IEEE_INVALID_FLAG