     Program PWSCF v.7.2 starts on 24Jun2025 at 15: 8:30

     Reading input from /home/jvc/QEspresso7.2/ZnO_DataBase/scf_025_NOSYM.in/scf-5.68-1.78-0.25-2.in

     Current dimensions of program PWSCF are:
     Max number of different atomic species (ntypx) = 10
     Max number of k-points (npk) =  40000
     Max angular momentum in pseudopotentials (lmaxx) =  4
     file Zn.upf: wavefunction(s)  3D renormalized

     R & G space division:  proc/nbgrp/npool/nimage =       8
     Subspace diagonalization in iterative solution of the eigenvalue problem:
     a serial algorithm will be used

     Using Slab Decomposition

     bravais-lattice index     =            0
     lattice parameter (alat)  =       5.6845  a.u.
     unit-cell volume          =     254.5253 (a.u.)^3
     number of atoms/cell      =            4
     number of atomic types    =            2
     number of electrons       =        36.00
     number of Kohn-Sham states=           18
     kinetic-energy cutoff     =      50.0000  Ry
     charge density cutoff     =     400.0000  Ry
     scf convergence threshold =      1.0E-08
     mixing beta               =       0.3000
     number of iterations used =            8  plain     mixing
     Exchange-correlation= PBE
                           (   1   4   3   4   0   0   0)

     celldm(1)=   5.684516  celldm(2)=   0.000000  celldm(3)=   0.000000
     celldm(4)=   0.000000  celldm(5)=   0.000000  celldm(6)=   0.000000

     crystal axes: (cart. coord. in units of alat)
               a(1) = (   1.000000   0.000000   0.000000 )
               a(2) = (  -0.500000   0.866025   0.000000 )
               a(3) = (   0.000000   0.000000   1.600000 )

     reciprocal axes: (cart. coord. in units 2 pi/alat)
               b(1) = (  1.000000  0.577350 -0.000000 )
               b(2) = (  0.000000  1.154701  0.000000 )
               b(3) = (  0.000000 -0.000000  0.625000 )

     PseudoPot. # 1 for Zn read from file:
     ./pseudos/Zn.upf
     MD5 check sum: 7f56cabf9682ed8c977c2f7d0c5985c5
     Pseudo is Ultrasoft + core correction, Zval = 12.0
     Generated using &quot;atomic&quot; code by A. Dal Corso  v.6.2.2
     Using radial grid of 1201 points,  6 beta functions with:
                l(1) =   0
                l(2) =   0
                l(3) =   1
                l(4) =   1
                l(5) =   2
                l(6) =   2
     Q(r) pseudized with 0 coefficients

     PseudoPot. # 2 for O  read from file:
     ./pseudos/O.upf
     MD5 check sum: 91400c9766925bcf19f520983a725ff0
     Pseudo is Ultrasoft + core correction, Zval =  6.0
     Generated using &quot;atomic&quot; code by A. Dal Corso  v.6.3MaX
     Using radial grid of 1095 points,  4 beta functions with:
                l(1) =   0
                l(2) =   0
                l(3) =   1
                l(4) =   1
     Q(r) pseudized with 0 coefficients

     atomic species   valence    mass     pseudopotential
        Zn            12.00    63.38000     Zn( 1.00)
        O              6.00    15.99900     O ( 1.00)

     No symmetry found

   Cartesian axes

     site n.     atom                  positions (alat units)
         1           Zn  tau(   1) = (   0.6389859   0.1297646   1.1544268  )
         2           Zn  tau(   2) = (   0.1994132   0.4995555   0.2526096  )
         3           O   tau(   3) = (   0.5860357   0.3783365   1.6603466  )
         4           O   tau(   4) = (   0.2312991   0.4653713   0.8893865  )

     number of k points=   112

     Number of k-points >= 100: set verbosity='high' to print them.

     Check: negative core charge=   -0.000001

     Initial potential from superposition of free atoms

     starting charge      35.9925, renormalised to      36.0000
     Starting wfcs are   26 randomized atomic wfcs

     Self-consistent Calculation

     iteration #  1     ecut=    50.00 Ry     beta= 0.30
     Davidson diagonalization with overlap
     ethr =  1.00E-02,  avg # of iterations =  2.1

     total energy              =    -360.88023056 Ry
     estimated scf accuracy    <       0.84660528 Ry

[...]

     total energy              =    -361.04334604 Ry
     estimated scf accuracy    <       0.00000007 Ry

     iteration # 19     ecut=    50.00 Ry     beta= 0.30
     Davidson diagonalization with overlap
     ethr =  1.89E-10,  avg # of iterations =  5.3

     End of self-consistent calculation

     Number of k-points >= 100: set verbosity='high' to print the bands.

     highest occupied level (ev):    11.8421

!    total energy              =    -361.04334608 Ry
     estimated scf accuracy    <          1.4E-09 Ry

     The total energy is the sum of the following terms:
     one-electron contribution =    -134.52050612 Ry
     hartree contribution      =     112.52190891 Ry
     xc contribution           =    -110.29030292 Ry
     ewald contribution        =    -228.75444596 Ry

     convergence has been achieved in  19 iterations

     Forces acting on atoms (cartesian axes, Ry/au):

     atom    1 type  1   force =     0.09270534   -0.07529578   -0.14613898
     atom    2 type  1   force =    -1.13752649    0.34533868    0.60172250
     atom    3 type  2   force =     1.14738209   -0.28703935   -0.39354866
     atom    4 type  2   force =    -0.10256093    0.01699644   -0.06203486
     The non-local contrib.  to forces
     atom    1 type  1   force =     0.22424221   -0.15701019    0.13948242
     atom    2 type  1   force =    -0.86990799    0.40530634    0.18071485
     atom    3 type  2   force =    -0.15285953   -0.09179110    0.00386388
     atom    4 type  2   force =    -0.04278460    0.25198637    0.12047412
     The ionic contribution  to forces
     atom    1 type  1   force =     2.35742267   -1.88665694   -8.47340276
     atom    2 type  1   force =   -10.13125574    3.53264199   12.23276571
     atom    3 type  2   force =     9.38930770   -0.83092481    0.66598029
     atom    4 type  2   force =    -1.61547463   -0.81506024   -4.42534323
     The local contribution  to forces
     atom    1 type  1   force =    -2.46452182    1.95066255    8.17943967
     atom    2 type  1   force =     9.72113928   -3.53546138  -11.75072341
     atom    3 type  2   force =    -8.08536271    0.63383852   -1.06471335
     atom    4 type  2   force =     1.55457673    0.58248775    4.24338703
     The core correction contribution to forces
     atom    1 type  1   force =    -0.02442997    0.01771554    0.00826027
     atom    2 type  1   force =     0.14246896   -0.05715104   -0.06096272
     atom    3 type  2   force =    -0.00368633    0.00184115    0.00134923
     atom    4 type  2   force =     0.00111893   -0.00241962   -0.00057068
     The Hubbard contrib.    to forces
     atom    1 type  1   force =     0.00000000    0.00000000    0.00000000
     atom    2 type  1   force =     0.00000000    0.00000000    0.00000000
     atom    3 type  2   force =     0.00000000    0.00000000    0.00000000
     atom    4 type  2   force =     0.00000000    0.00000000    0.00000000
     The SCF correction term to forces
     atom    1 type  1   force =    -0.00000211   -0.00000778    0.00008594
     atom    2 type  1   force =     0.00003464    0.00000172   -0.00006741
     atom    3 type  2   force =    -0.00001140   -0.00000415   -0.00002418
     atom    4 type  2   force =     0.00000828    0.00000115    0.00002243

     Total force =     1.838295     Total SCF correction =     0.000120

     Writing all to output data dir ./ZnO_ANN.save/

     General routines

     Parallel routines

   This run was terminated on:  15:11: 4  24Jun2025

   JOB DONE.
Note: The following floating-point exceptions are signalling: IEEE_INVALID_FLAG