     Program PWSCF v.7.2 starts on 24Jun2025 at 15: 6:36

     Reading input from /home/jvc/QEspresso7.2/ZnO_DataBase/scf_025_NOSYM.in/scf-5.68-1.74-0.25-2.in

     Current dimensions of program PWSCF are:
     Max number of different atomic species (ntypx) = 10
     Max number of k-points (npk) =  40000
     Max angular momentum in pseudopotentials (lmaxx) =  4
     file Zn.upf: wavefunction(s)  3D renormalized

     R & G space division:  proc/nbgrp/npool/nimage =       8
     Subspace diagonalization in iterative solution of the eigenvalue problem:
     a serial algorithm will be used

     Using Slab Decomposition

     bravais-lattice index     =            0
     lattice parameter (alat)  =       5.6845  a.u.
     unit-cell volume          =     254.5253 (a.u.)^3
     number of atoms/cell      =            4
     number of atomic types    =            2
     number of electrons       =        36.00
     number of Kohn-Sham states=           18
     kinetic-energy cutoff     =      50.0000  Ry
     charge density cutoff     =     400.0000  Ry
     scf convergence threshold =      1.0E-08
     mixing beta               =       0.3000
     number of iterations used =            8  plain     mixing
     Exchange-correlation= PBE
                           (   1   4   3   4   0   0   0)

     celldm(1)=   5.684516  celldm(2)=   0.000000  celldm(3)=   0.000000
     celldm(4)=   0.000000  celldm(5)=   0.000000  celldm(6)=   0.000000

     crystal axes: (cart. coord. in units of alat)
               a(1) = (   1.000000   0.000000   0.000000 )
               a(2) = (  -0.500000   0.866025   0.000000 )
               a(3) = (   0.000000   0.000000   1.600000 )

     reciprocal axes: (cart. coord. in units 2 pi/alat)
               b(1) = (  1.000000  0.577350 -0.000000 )
               b(2) = (  0.000000  1.154701  0.000000 )
               b(3) = (  0.000000 -0.000000  0.625000 )

     PseudoPot. # 1 for Zn read from file:
     ./pseudos/Zn.upf
     MD5 check sum: 7f56cabf9682ed8c977c2f7d0c5985c5
     Pseudo is Ultrasoft + core correction, Zval = 12.0
     Generated using &quot;atomic&quot; code by A. Dal Corso  v.6.2.2
     Using radial grid of 1201 points,  6 beta functions with:
                l(1) =   0
                l(2) =   0
                l(3) =   1
                l(4) =   1
                l(5) =   2
                l(6) =   2
     Q(r) pseudized with 0 coefficients

     PseudoPot. # 2 for O  read from file:
     ./pseudos/O.upf
     MD5 check sum: 91400c9766925bcf19f520983a725ff0
     Pseudo is Ultrasoft + core correction, Zval =  6.0
     Generated using &quot;atomic&quot; code by A. Dal Corso  v.6.3MaX
     Using radial grid of 1095 points,  4 beta functions with:
                l(1) =   0
                l(2) =   0
                l(3) =   1
                l(4) =   1
     Q(r) pseudized with 0 coefficients

     atomic species   valence    mass     pseudopotential
        Zn            12.00    63.38000     Zn( 1.00)
        O              6.00    15.99900     O ( 1.00)

     No symmetry found

   Cartesian axes

     site n.     atom                  positions (alat units)
         1           Zn  tau(   1) = (   0.6083334   0.3812631   0.9616028  )
         2           Zn  tau(   2) = (  -0.0453420   0.5195258   0.2165835  )
         3           O   tau(   3) = (   0.5963342   0.2161964   1.7388821  )
         4           O   tau(   4) = (  -0.1163321   0.7698405   0.2549869  )

     number of k points=   112

     Number of k-points >= 100: set verbosity='high' to print them.

     Check: negative core charge=   -0.000002

     Initial potential from superposition of free atoms

     starting charge      35.9925, renormalised to      36.0000
     Starting wfcs are   26 randomized atomic wfcs

     Self-consistent Calculation

     iteration #  1     ecut=    50.00 Ry     beta= 0.30
     Davidson diagonalization with overlap
     ethr =  1.00E-02,  avg # of iterations =  6.5

     total energy              =    -351.81901183 Ry
     estimated scf accuracy    <       0.71029111 Ry

[...]

     iteration #  7     ecut=    50.00 Ry     beta= 0.30
     Davidson diagonalization with overlap
     c_bands:  1 eigenvalues not converged
     ethr =  1.41E-05,  avg # of iterations =  8.7

[...]

     iteration # 17     ecut=    50.00 Ry     beta= 0.30
     Davidson diagonalization with overlap
     c_bands:  1 eigenvalues not converged
     c_bands:  1 eigenvalues not converged
     ethr =  3.74E-11,  avg # of iterations = 10.5

     total energy              =    -351.96926690 Ry
     estimated scf accuracy    <       0.00000009 Ry

     iteration # 18     ecut=    50.00 Ry     beta= 0.30
     Davidson diagonalization with overlap
     ethr =  3.74E-11,  avg # of iterations =  7.9

     End of self-consistent calculation

     Number of k-points >= 100: set verbosity='high' to print the bands.

     highest occupied level (ev):    14.8108

!    total energy              =    -351.96926691 Ry
     estimated scf accuracy    <          1.7E-09 Ry

     The total energy is the sum of the following terms:
     one-electron contribution =    -207.39730835 Ry
     hartree contribution      =     145.30311275 Ry
     xc contribution           =    -112.16005390 Ry
     ewald contribution        =    -177.71501741 Ry

     convergence has been achieved in  18 iterations

     Forces acting on atoms (cartesian axes, Ry/au):

     atom    1 type  1   force =    -0.01347117    0.00277690    0.07438991
     atom    2 type  1   force =     6.44019552  -20.82688392   -3.01775033
     atom    3 type  2   force =    -0.33469758    0.11610190   -0.36404342
     atom    4 type  2   force =    -6.09202677   20.70800512    3.30740385
     The non-local contrib.  to forces
     atom    1 type  1   force =     0.12877043   -0.00319993   -0.07568654
     atom    2 type  1   force =    -1.62685285    6.19046438    1.01047391
     atom    3 type  2   force =    -0.79136706   -1.37752353    0.88782760
     atom    4 type  2   force =     1.86651723    0.67447073   -0.92997437
     The ionic contribution  to forces
     atom    1 type  1   force =    -1.12024960    0.05603651    6.73127633
     atom    2 type  1   force =    22.75976186  -51.11870554   -8.82309671
     atom    3 type  2   force =    -1.42518271    3.01614887   -9.70118450
     atom    4 type  2   force =   -20.21432956   48.04652016   11.79300488
     The local contribution  to forces
     atom    1 type  1   force =     0.97833807   -0.05064018   -6.58166635
     atom    2 type  1   force =   -14.37909711   23.34597143    4.68282857
     atom    3 type  2   force =     1.87237753   -1.53503090    8.45482810
     atom    4 type  2   force =    12.25726599  -27.96766351   -7.55571526
     The core correction contribution to forces
     atom    1 type  1   force =    -0.00036472    0.00062893    0.00050643
     atom    2 type  1   force =    -0.31354677    0.75524196    0.11194572
     atom    3 type  2   force =     0.00949489    0.01257193   -0.00554437
     atom    4 type  2   force =    -0.00148843   -0.04525859    0.00005892
     The Hubbard contrib.    to forces
     atom    1 type  1   force =     0.00000000    0.00000000    0.00000000
     atom    2 type  1   force =     0.00000000    0.00000000    0.00000000
     atom    3 type  2   force =     0.00000000    0.00000000    0.00000000
     atom    4 type  2   force =     0.00000000    0.00000000    0.00000000
     The SCF correction term to forces
     atom    1 type  1   force =     0.00002349   -0.00001081   -0.00002643
     atom    2 type  1   force =    -0.00008076    0.00018148    0.00011171
     atom    3 type  2   force =    -0.00003139   -0.00002685    0.00004326
     atom    4 type  2   force =    -0.00000316   -0.00002604    0.00004319

     Total force =    31.007724     Total SCF correction =     0.000244

     Writing all to output data dir ./ZnO_ANN.save/

     General routines

     Parallel routines

   This run was terminated on:  15: 8:37  24Jun2025

   JOB DONE.
Note: The following floating-point exceptions are signalling: IEEE_INVALID_FLAG