     Program PWSCF v.7.2 starts on 24Jun2025 at 16:51: 4

     Reading input from /home/jvc/QEspresso7.2/ZnO_DataBase/scf_025_NOSYM.in/scf-6.18-1.49-0.25-5.in

     Current dimensions of program PWSCF are:
     Max number of different atomic species (ntypx) = 10
     Max number of k-points (npk) =  40000
     Max angular momentum in pseudopotentials (lmaxx) =  4
     file Zn.upf: wavefunction(s)  3D renormalized

     R & G space division:  proc/nbgrp/npool/nimage =       8
     Subspace diagonalization in iterative solution of the eigenvalue problem:
     a serial algorithm will be used

     Using Slab Decomposition

     bravais-lattice index     =            0
     lattice parameter (alat)  =       6.1788  a.u.
     unit-cell volume          =     326.8643 (a.u.)^3
     number of atoms/cell      =            4
     number of atomic types    =            2
     number of electrons       =        36.00
     number of Kohn-Sham states=           18
     kinetic-energy cutoff     =      50.0000  Ry
     charge density cutoff     =     400.0000  Ry
     scf convergence threshold =      1.0E-08
     mixing beta               =       0.3000
     number of iterations used =            8  plain     mixing
     Exchange-correlation= PBE
                           (   1   4   3   4   0   0   0)

     celldm(1)=   6.178821  celldm(2)=   0.000000  celldm(3)=   0.000000
     celldm(4)=   0.000000  celldm(5)=   0.000000  celldm(6)=   0.000000

     crystal axes: (cart. coord. in units of alat)
               a(1) = (   1.000000   0.000000   0.000000 )
               a(2) = (  -0.500000   0.866025   0.000000 )
               a(3) = (   0.000000   0.000000   1.600000 )

     reciprocal axes: (cart. coord. in units 2 pi/alat)
               b(1) = (  1.000000  0.577350 -0.000000 )
               b(2) = (  0.000000  1.154701  0.000000 )
               b(3) = (  0.000000 -0.000000  0.625000 )

     PseudoPot. # 1 for Zn read from file:
     ./pseudos/Zn.upf
     MD5 check sum: 7f56cabf9682ed8c977c2f7d0c5985c5
     Pseudo is Ultrasoft + core correction, Zval = 12.0
     Generated using &quot;atomic&quot; code by A. Dal Corso  v.6.2.2
     Using radial grid of 1201 points,  6 beta functions with:
                l(1) =   0
                l(2) =   0
                l(3) =   1
                l(4) =   1
                l(5) =   2
                l(6) =   2
     Q(r) pseudized with 0 coefficients

     PseudoPot. # 2 for O  read from file:
     ./pseudos/O.upf
     MD5 check sum: 91400c9766925bcf19f520983a725ff0
     Pseudo is Ultrasoft + core correction, Zval =  6.0
     Generated using &quot;atomic&quot; code by A. Dal Corso  v.6.3MaX
     Using radial grid of 1095 points,  4 beta functions with:
                l(1) =   0
                l(2) =   0
                l(3) =   1
                l(4) =   1
     Q(r) pseudized with 0 coefficients

     atomic species   valence    mass     pseudopotential
        Zn            12.00    63.38000     Zn( 1.00)
        O              6.00    15.99900     O ( 1.00)

     No symmetry found

   Cartesian axes

     site n.     atom                  positions (alat units)
         1           Zn  tau(   1) = (   0.5816769   0.1308385   0.9868454  )
         2           Zn  tau(   2) = (  -0.0909889   0.6828736  -0.1741892  )
         3           O   tau(   3) = (   0.6292880   0.0786088   1.0881840  )
         4           O   tau(   4) = (  -0.1166319   0.4533841   0.3464985  )

     number of k points=   112

     Number of k-points >= 100: set verbosity='high' to print them.

     Check: negative core charge=   -0.000002

     Initial potential from superposition of free atoms

     starting charge      35.9925, renormalised to      36.0000
     Starting wfcs are   26 randomized atomic wfcs

     Self-consistent Calculation

     iteration #  1     ecut=    50.00 Ry     beta= 0.30
     Davidson diagonalization with overlap
     ethr =  1.00E-02,  avg # of iterations =  5.0

     total energy              =    -303.96938111 Ry
     estimated scf accuracy    <       3.32329759 Ry

[...]

     total energy              =    -304.10482091 Ry
     estimated scf accuracy    <       0.00000005 Ry

     iteration # 34     ecut=    50.00 Ry     beta= 0.30
     Davidson diagonalization with overlap
     ethr =  1.51E-10,  avg # of iterations =  7.1

     End of self-consistent calculation

     Number of k-points >= 100: set verbosity='high' to print the bands.

     highest occupied level (ev):     9.7482

!    total energy              =    -304.10482092 Ry
     estimated scf accuracy    <          7.5E-09 Ry

     The total energy is the sum of the following terms:
     one-electron contribution =    -313.64851109 Ry
     hartree contribution      =     186.11716738 Ry
     xc contribution           =    -115.19692026 Ry
     ewald contribution        =     -61.37655695 Ry

     convergence has been achieved in  34 iterations

     Forces acting on atoms (cartesian axes, Ry/au):

     atom    1 type  1   force =   -66.79995873   73.72894196 -143.05480443
     atom    2 type  1   force =    -0.33067844   -0.50945307    0.92962514
     atom    3 type  2   force =    67.13245998  -73.23131705  142.22523514
     atom    4 type  2   force =    -0.00182281    0.01182816   -0.10005585
     The non-local contrib.  to forces
     atom    1 type  1   force =    14.75968203  -16.53183213   32.39884253
     atom    2 type  1   force =     0.03752966    0.39121893   -1.21819014
     atom    3 type  2   force =    -1.90524575    1.55209325   -3.13692158
     atom    4 type  2   force =    -0.00208340    0.38240825   -0.96643850
     The ionic contribution  to forces
     atom    1 type  1   force =   -91.86412287  108.19931459 -221.42032680
     atom    2 type  1   force =    -6.58174224   -7.42251383   26.38073495
     atom    3 type  2   force =    98.28706758  -98.79046302  190.00004609
     atom    4 type  2   force =     0.15879753   -1.98633774    5.03954576
     The local contribution  to forces
     atom    1 type  1   force =     9.46421372  -16.99737457   44.14193631
     atom    2 type  1   force =     6.17233088    6.48653350  -24.19722992
     atom    3 type  2   force =   -29.06387127   23.80164411  -44.24298438
     atom    4 type  2   force =    -0.15858319    1.61928320   -4.18251079
     The core correction contribution to forces
     atom    1 type  1   force =     0.84029748   -0.94115719    1.82466283
     atom    2 type  1   force =     0.04119517    0.03531089   -0.03569650
     atom    3 type  2   force =    -0.18549582    0.20542693   -0.39497038
     atom    4 type  2   force =     0.00003989   -0.00352810    0.00944082
     The Hubbard contrib.    to forces
     atom    1 type  1   force =     0.00000000    0.00000000    0.00000000
     atom    2 type  1   force =     0.00000000    0.00000000    0.00000000
     atom    3 type  2   force =     0.00000000    0.00000000    0.00000000
     atom    4 type  2   force =     0.00000000    0.00000000    0.00000000
     The SCF correction term to forces
     atom    1 type  1   force =    -0.00004365   -0.00000922    0.00008023
     atom    2 type  1   force =    -0.00000647   -0.00000305    0.00000628
     atom    3 type  2   force =    -0.00000931   -0.00001881    0.00006492
     atom    4 type  2   force =    -0.00000819    0.00000206   -0.00009361

     Total force =   245.889654     Total SCF correction =     0.000148

     Writing all to output data dir ./ZnO_ANN.save/

     General routines

     Parallel routines

   This run was terminated on:  16:55: 2  24Jun2025

   JOB DONE.
Note: The following floating-point exceptions are signalling: IEEE_INVALID_FLAG