     Program PWSCF v.7.2 starts on 24Jun2025 at 14:23: 9

     Reading input from /home/jvc/QEspresso7.2/ZnO_DataBase/scf_025_NOSYM.in/scf-5.56-1.45-0.25-2.in

     Current dimensions of program PWSCF are:
     Max number of different atomic species (ntypx) = 10
     Max number of k-points (npk) =  40000
     Max angular momentum in pseudopotentials (lmaxx) =  4
     file Zn.upf: wavefunction(s)  3D renormalized

     R & G space division:  proc/nbgrp/npool/nimage =       8
     Subspace diagonalization in iterative solution of the eigenvalue problem:
     a serial algorithm will be used

     Using Slab Decomposition

     bravais-lattice index     =            0
     lattice parameter (alat)  =       5.5609  a.u.
     unit-cell volume          =     238.2841 (a.u.)^3
     number of atoms/cell      =            4
     number of atomic types    =            2
     number of electrons       =        36.00
     number of Kohn-Sham states=           18
     kinetic-energy cutoff     =      50.0000  Ry
     charge density cutoff     =     400.0000  Ry
     scf convergence threshold =      1.0E-08
     mixing beta               =       0.3000
     number of iterations used =            8  plain     mixing
     Exchange-correlation= PBE
                           (   1   4   3   4   0   0   0)

     celldm(1)=   5.560939  celldm(2)=   0.000000  celldm(3)=   0.000000
     celldm(4)=   0.000000  celldm(5)=   0.000000  celldm(6)=   0.000000

     crystal axes: (cart. coord. in units of alat)
               a(1) = (   1.000000   0.000000   0.000000 )
               a(2) = (  -0.500000   0.866025   0.000000 )
               a(3) = (   0.000000   0.000000   1.600000 )

     reciprocal axes: (cart. coord. in units 2 pi/alat)
               b(1) = (  1.000000  0.577350 -0.000000 )
               b(2) = (  0.000000  1.154701  0.000000 )
               b(3) = (  0.000000 -0.000000  0.625000 )

     PseudoPot. # 1 for Zn read from file:
     ./pseudos/Zn.upf
     MD5 check sum: 7f56cabf9682ed8c977c2f7d0c5985c5
     Pseudo is Ultrasoft + core correction, Zval = 12.0
     Generated using &quot;atomic&quot; code by A. Dal Corso  v.6.2.2
     Using radial grid of 1201 points,  6 beta functions with:
                l(1) =   0
                l(2) =   0
                l(3) =   1
                l(4) =   1
                l(5) =   2
                l(6) =   2
     Q(r) pseudized with 0 coefficients

     PseudoPot. # 2 for O  read from file:
     ./pseudos/O.upf
     MD5 check sum: 91400c9766925bcf19f520983a725ff0
     Pseudo is Ultrasoft + core correction, Zval =  6.0
     Generated using &quot;atomic&quot; code by A. Dal Corso  v.6.3MaX
     Using radial grid of 1095 points,  4 beta functions with:
                l(1) =   0
                l(2) =   0
                l(3) =   1
                l(4) =   1
     Q(r) pseudized with 0 coefficients

     atomic species   valence    mass     pseudopotential
        Zn            12.00    63.38000     Zn( 1.00)
        O              6.00    15.99900     O ( 1.00)

     No symmetry found

   Cartesian axes

     site n.     atom                  positions (alat units)
         1           Zn  tau(   1) = (   0.6354220   0.1537502   0.8174429  )
         2           Zn  tau(   2) = (  -0.0858365   0.3949967   0.2686566  )
         3           O   tau(   3) = (   0.2654421   0.3211821   1.2305921  )
         4           O   tau(   4) = (   0.2997204   0.4785107   0.5344553  )

     number of k points=   112

     Number of k-points >= 100: set verbosity='high' to print them.

     Check: negative core charge=   -0.000002

     Initial potential from superposition of free atoms

     starting charge      35.9925, renormalised to      36.0000
     Starting wfcs are   26 randomized atomic wfcs

     Self-consistent Calculation

     iteration #  1     ecut=    50.00 Ry     beta= 0.30
     Davidson diagonalization with overlap
     ethr =  1.00E-02,  avg # of iterations =  2.1

     total energy              =    -360.49839553 Ry
     estimated scf accuracy    <       1.03181276 Ry

[...]

     iteration #  8     ecut=    50.00 Ry     beta= 0.30
     Davidson diagonalization with overlap
     c_bands:  3 eigenvalues not converged
     ethr =  5.90E-06,  avg # of iterations = 10.9

[...]

     iteration # 26     ecut=    50.00 Ry     beta= 0.30
     Davidson diagonalization with overlap
     ethr =  6.04E-10,  avg # of iterations =  5.3

[...]

     total energy              =    -360.72667732 Ry
     estimated scf accuracy    <       0.00000020 Ry

     iteration # 28     ecut=    50.00 Ry     beta= 0.30
     Davidson diagonalization with overlap
     c_bands:  1 eigenvalues not converged
     ethr =  4.04E-11,  avg # of iterations =  9.2

     End of self-consistent calculation

     Number of k-points >= 100: set verbosity='high' to print the bands.

     highest occupied level (ev):    13.1361

!    total energy              =    -360.72667733 Ry
     estimated scf accuracy    <          7.2E-09 Ry

     The total energy is the sum of the following terms:
     one-electron contribution =    -145.18850632 Ry
     hartree contribution      =     118.51348067 Ry
     xc contribution           =    -110.40127292 Ry
     ewald contribution        =    -223.65037876 Ry

     convergence has been achieved in  28 iterations

     Forces acting on atoms (cartesian axes, Ry/au):

     atom    1 type  1   force =     0.21697132   -0.29451177    0.46806458
     atom    2 type  1   force =    -0.71334391   -0.10287654   -0.96319667
     atom    3 type  2   force =    -0.15370091    0.00559187    0.26494380
     atom    4 type  2   force =     0.65007350    0.39179644    0.23018829
     The non-local contrib.  to forces
     atom    1 type  1   force =     0.68737041   -0.21977985   -0.78709706
     atom    2 type  1   force =    -0.99106750   -0.17753748   -0.05713001
     atom    3 type  2   force =     0.05084250   -0.33469788   -0.02102475
     atom    4 type  2   force =    -0.03448672   -0.01470988   -0.48580808
     The ionic contribution  to forces
     atom    1 type  1   force =     3.36891146   -5.21843522   20.14208371
     atom    2 type  1   force =    -6.16861440    0.20249419  -29.29400576
     atom    3 type  2   force =    -2.13339601    0.88618071    9.65235727
     atom    4 type  2   force =     4.93309896    4.12976032   -0.50043522
     The local contribution  to forces
     atom    1 type  1   force =    -3.77778887    5.10576525  -18.87118795
     atom    2 type  1   force =     6.33318632   -0.14916654   28.28925798
     atom    3 type  2   force =     1.92828304   -0.54890720   -9.36448438
     atom    4 type  2   force =    -4.24600539   -3.72149856    1.21313126
     The core correction contribution to forces
     atom    1 type  1   force =    -0.06145230    0.03791713   -0.01592227
     atom    2 type  1   force =     0.11310809    0.02132071    0.09875991
     atom    3 type  2   force =     0.00056080    0.00302608   -0.00187973
     atom    4 type  2   force =    -0.00254604   -0.00174051    0.00324457
     The Hubbard contrib.    to forces
     atom    1 type  1   force =     0.00000000    0.00000000    0.00000000
     atom    2 type  1   force =     0.00000000    0.00000000    0.00000000
     atom    3 type  2   force =     0.00000000    0.00000000    0.00000000
     atom    4 type  2   force =     0.00000000    0.00000000    0.00000000
     The SCF correction term to forces
     atom    1 type  1   force =    -0.00007332    0.00002751    0.00020404
     atom    2 type  1   force =     0.00003964    0.00001916   -0.00006290
     atom    3 type  2   force =     0.00000483   -0.00000325   -0.00000871
     atom    4 type  2   force =     0.00000876   -0.00000834    0.00007166

     Total force =     1.588404     Total SCF correction =     0.000243

     Writing all to output data dir ./ZnO_ANN.save/

     General routines

     Parallel routines

   This run was terminated on:  14:25:42  24Jun2025

   JOB DONE.
Note: The following floating-point exceptions are signalling: IEEE_INVALID_FLAG