     Program PWSCF v.7.2 starts on 24Jun2025 at 16: 6:24

     Reading input from /home/jvc/QEspresso7.2/ZnO_DataBase/scf_025_NOSYM.in/scf-5.93-1.74-0.25-2.in

     Current dimensions of program PWSCF are:
     Max number of different atomic species (ntypx) = 10
     Max number of k-points (npk) =  40000
     Max angular momentum in pseudopotentials (lmaxx) =  4
     file Zn.upf: wavefunction(s)  3D renormalized

     R & G space division:  proc/nbgrp/npool/nimage =       8
     Subspace diagonalization in iterative solution of the eigenvalue problem:
     a serial algorithm will be used

     Using Slab Decomposition

     bravais-lattice index     =            0
     lattice parameter (alat)  =       5.9317  a.u.
     unit-cell volume          =     289.1886 (a.u.)^3
     number of atoms/cell      =            4
     number of atomic types    =            2
     number of electrons       =        36.00
     number of Kohn-Sham states=           18
     kinetic-energy cutoff     =      50.0000  Ry
     charge density cutoff     =     400.0000  Ry
     scf convergence threshold =      1.0E-08
     mixing beta               =       0.3000
     number of iterations used =            8  plain     mixing
     Exchange-correlation= PBE
                           (   1   4   3   4   0   0   0)

     celldm(1)=   5.931669  celldm(2)=   0.000000  celldm(3)=   0.000000
     celldm(4)=   0.000000  celldm(5)=   0.000000  celldm(6)=   0.000000

     crystal axes: (cart. coord. in units of alat)
               a(1) = (   1.000000   0.000000   0.000000 )
               a(2) = (  -0.500000   0.866025   0.000000 )
               a(3) = (   0.000000   0.000000   1.600000 )

     reciprocal axes: (cart. coord. in units 2 pi/alat)
               b(1) = (  1.000000  0.577350 -0.000000 )
               b(2) = (  0.000000  1.154701  0.000000 )
               b(3) = (  0.000000 -0.000000  0.625000 )

     PseudoPot. # 1 for Zn read from file:
     ./pseudos/Zn.upf
     MD5 check sum: 7f56cabf9682ed8c977c2f7d0c5985c5
     Pseudo is Ultrasoft + core correction, Zval = 12.0
     Generated using &quot;atomic&quot; code by A. Dal Corso  v.6.2.2
     Using radial grid of 1201 points,  6 beta functions with:
                l(1) =   0
                l(2) =   0
                l(3) =   1
                l(4) =   1
                l(5) =   2
                l(6) =   2
     Q(r) pseudized with 0 coefficients

     PseudoPot. # 2 for O  read from file:
     ./pseudos/O.upf
     MD5 check sum: 91400c9766925bcf19f520983a725ff0
     Pseudo is Ultrasoft + core correction, Zval =  6.0
     Generated using &quot;atomic&quot; code by A. Dal Corso  v.6.3MaX
     Using radial grid of 1095 points,  4 beta functions with:
                l(1) =   0
                l(2) =   0
                l(3) =   1
                l(4) =   1
     Q(r) pseudized with 0 coefficients

     atomic species   valence    mass     pseudopotential
        Zn            12.00    63.38000     Zn( 1.00)
        O              6.00    15.99900     O ( 1.00)

     No symmetry found

   Cartesian axes

     site n.     atom                  positions (alat units)
         1           Zn  tau(   1) = (   0.6462351   0.2537988   1.0601638  )
         2           Zn  tau(   2) = (  -0.1031423   0.3814474  -0.3079823  )
         3           O   tau(   3) = (   0.6521779   0.0935623   1.5303412  )
         4           O   tau(   4) = (  -0.0087746   0.7714698   0.8865717  )

     number of k points=   112

     Number of k-points >= 100: set verbosity='high' to print them.

     Check: negative core charge=   -0.000003

     Initial potential from superposition of free atoms

     starting charge      35.9925, renormalised to      36.0000
     Starting wfcs are   26 randomized atomic wfcs

     Self-consistent Calculation

     iteration #  1     ecut=    50.00 Ry     beta= 0.30
     Davidson diagonalization with overlap
     ethr =  1.00E-02,  avg # of iterations =  3.1

     total energy              =    -356.48781142 Ry
     estimated scf accuracy    <       1.58039984 Ry

[...]

     total energy              =    -356.77221356 Ry
     estimated scf accuracy    <       0.00000008 Ry

     iteration # 19     ecut=    50.00 Ry     beta= 0.30
     Davidson diagonalization with overlap
     ethr =  2.21E-10,  avg # of iterations =  4.7

     End of self-consistent calculation

     Number of k-points >= 100: set verbosity='high' to print the bands.

     highest occupied level (ev):     9.4425

!    total energy              =    -356.77221358 Ry
     estimated scf accuracy    <          1.7E-09 Ry

     The total energy is the sum of the following terms:
     one-electron contribution =    -332.99025760 Ry
     hartree contribution      =     205.90057645 Ry
     xc contribution           =    -112.35457963 Ry
     ewald contribution        =    -117.32795280 Ry

     convergence has been achieved in  19 iterations

     Forces acting on atoms (cartesian axes, Ry/au):

     atom    1 type  1   force =    -5.07724994   -1.35275336   -5.29139350
     atom    2 type  1   force =     6.27796387    3.58658992    4.86548219
     atom    3 type  2   force =    -0.54578097   -0.87590816    1.29060527
     atom    4 type  2   force =    -0.65493296   -1.35792840   -0.86469396
     The non-local contrib.  to forces
     atom    1 type  1   force =     2.78510123    2.42444381    1.85783036
     atom    2 type  1   force =    -1.80834975   -0.63376233   -3.14915442
     atom    3 type  2   force =     0.40915466    0.54595874   -0.85354749
     atom    4 type  2   force =    -0.12006699   -0.10322487    1.03412802
     The ionic contribution  to forces
     atom    1 type  1   force =   -27.75189583   -1.93162874  -47.70607367
     atom    2 type  1   force =    38.24422433   20.52849766   41.96001097
     atom    3 type  2   force =    -5.88812707   -9.88605947   33.90092436
     atom    4 type  2   force =    -4.60420143   -8.71080945  -28.15486166
     The local contribution  to forces
     atom    1 type  1   force =    19.67150907   -1.80390163   40.28957903
     atom    2 type  1   force =   -29.80410026  -16.09270949  -33.74697620
     atom    3 type  2   force =     4.93386681    8.46436881  -31.75576154
     atom    4 type  2   force =     4.06544107    7.44982760   26.25987162
     The core correction contribution to forces
     atom    1 type  1   force =     0.21799268   -0.04162660    0.26729858
     atom    2 type  1   force =    -0.35389974   -0.21550232   -0.19842766
     atom    3 type  2   force =    -0.00075238   -0.00023471   -0.00110101
     atom    4 type  2   force =     0.00380667    0.00619913   -0.00390268
     The Hubbard contrib.    to forces
     atom    1 type  1   force =     0.00000000    0.00000000    0.00000000
     atom    2 type  1   force =     0.00000000    0.00000000    0.00000000
     atom    3 type  2   force =     0.00000000    0.00000000    0.00000000
     atom    4 type  2   force =     0.00000000    0.00000000    0.00000000
     The SCF correction term to forces
     atom    1 type  1   force =    -0.00004356   -0.00010812   -0.00011938
     atom    2 type  1   force =     0.00000282   -0.00000153   -0.00006209
     atom    3 type  2   force =    -0.00000947   -0.00000945   -0.00000063
     atom    4 type  2   force =     0.00000125    0.00001127   -0.00002084

     Total force =    11.717849     Total SCF correction =     0.000180

     Writing all to output data dir ./ZnO_ANN.save/

     General routines

     Parallel routines

   This run was terminated on:  16: 8:58  24Jun2025

   JOB DONE.
Note: The following floating-point exceptions are signalling: IEEE_INVALID_FLAG