     Program PWSCF v.7.2 starts on 23Jul2025 at 14:45:39

     Reading input from /home/jvc/QEspresso7.2/ZnO_database/scripts/cell321.in/ZnO-3.20-1.68-321.in
Warning: card &CELL ignored
Warning: card / ignored
Warning: card &FCP ignored
Warning: card / ignored
Warning: card &RISM ignored
Warning: card / ignored

     Current dimensions of program PWSCF are:
     Max number of different atomic species (ntypx) = 10
     Max number of k-points (npk) =  40000
     Max angular momentum in pseudopotentials (lmaxx) =  4
     file Zn.upf: wavefunction(s)  3D renormalized
     Found identity + ( -0.0000 -0.5000  0.0000) symmetry
     This is a supercell, fractional translations are disabled

     K-points division:     npool     =       8
     R & G space division:  proc/nbgrp/npool/nimage =       4
     Subspace diagonalization in iterative solution of the eigenvalue problem:
     a serial algorithm will be used

     Using Slab Decomposition

     bravais-lattice index     =            0
     lattice parameter (alat)  =      18.5365  a.u.
     unit-cell volume          =    1978.7861 (a.u.)^3
     number of atoms/cell      =           24
     number of atomic types    =            2
     number of electrons       =       216.00
     number of Kohn-Sham states=          108
     kinetic-energy cutoff     =      50.0000  Ry
     charge density cutoff     =     400.0000  Ry
     scf convergence threshold =      1.0E-08
     mixing beta               =       0.3000
     number of iterations used =            8  plain     mixing
     Exchange-correlation= PBE
                           (   1   4   3   4   0   0   0)

     celldm(1)=  18.536466  celldm(2)=   0.000000  celldm(3)=   0.000000
     celldm(4)=   0.000000  celldm(5)=   0.000000  celldm(6)=   0.000000

     crystal axes: (cart. coord. in units of alat)
               a(1) = (   1.000000   0.000000   0.000000 )
               a(2) = (  -0.333333   0.577350   0.000000 )
               a(3) = (   0.000000   0.000000   0.538119 )

     reciprocal axes: (cart. coord. in units 2 pi/alat)
               b(1) = (  1.000000  0.577350 -0.000000 )
               b(2) = (  0.000000  1.732051  0.000000 )
               b(3) = (  0.000000 -0.000000  1.858323 )

     PseudoPot. # 1 for Zn read from file:
     /home/jvc/QEspresso7.2/ZnO_database/pseudos/Zn.upf
     MD5 check sum: 7f56cabf9682ed8c977c2f7d0c5985c5
     Pseudo is Ultrasoft + core correction, Zval = 12.0
     Generated using &quot;atomic&quot; code by A. Dal Corso  v.6.2.2
     Using radial grid of 1201 points,  6 beta functions with:
                l(1) =   0
                l(2) =   0
                l(3) =   1
                l(4) =   1
                l(5) =   2
                l(6) =   2
     Q(r) pseudized with 0 coefficients

     PseudoPot. # 2 for O  read from file:
     /home/jvc/QEspresso7.2/ZnO_database/pseudos/O.upf
     MD5 check sum: 91400c9766925bcf19f520983a725ff0
     Pseudo is Ultrasoft + core correction, Zval =  6.0
     Generated using &quot;atomic&quot; code by A. Dal Corso  v.6.3MaX
     Using radial grid of 1095 points,  4 beta functions with:
                l(1) =   0
                l(2) =   0
                l(3) =   1
                l(4) =   1
     Q(r) pseudized with 0 coefficients

     atomic species   valence    mass     pseudopotential
        Zn            12.00    65.38000     Zn( 1.00)
        O              6.00    15.99900     O ( 1.00)

     No symmetry found

                                    s                        frac. trans.

      isym =  1     identity

 cryst.   s( 1) = (     1          0          0      )
                  (     0          1          0      )
                  (     0          0          1      )

 cart.    s( 1) = (  1.0000000  0.0000000  0.0000000 )
                  (  0.0000000  1.0000000  0.0000000 )
                  (  0.0000000  0.0000000  1.0000000 )

   Cartesian axes

     site n.     atom                  positions (alat units)
         1           Zn  tau(   1) = (   0.1666667   0.0962250   0.2694007  )
         2           Zn  tau(   2) = (   0.0000000   0.1924501   0.0003409  )
         3           O   tau(   3) = (   0.1666667   0.0962250   0.4733710  )
         4           O   tau(   4) = (   0.0000000   0.1924501   0.2043113  )
         5           Zn  tau(   5) = (   0.0000000   0.3849002   0.2694007  )
         6           Zn  tau(   6) = (  -0.1666667   0.4811252   0.0003409  )
         7           O   tau(   7) = (   0.0000000   0.3849002   0.4733710  )
         8           O   tau(   8) = (  -0.1666667   0.4811252   0.2043113  )
         9           Zn  tau(   9) = (   0.5000000   0.0962250   0.2694007  )
        10           Zn  tau(  10) = (   0.3333333   0.1924501   0.0003409  )
        11           O   tau(  11) = (   0.5000000   0.0962250   0.4733710  )
        12           O   tau(  12) = (   0.3333333   0.1924501   0.2043113  )
        13           Zn  tau(  13) = (   0.3333333   0.3849002   0.2694007  )
        14           Zn  tau(  14) = (   0.1666667   0.4811252   0.0003409  )
        15           O   tau(  15) = (   0.3333333   0.3849002   0.4733710  )
        16           O   tau(  16) = (   0.1666667   0.4811252   0.2043113  )
        17           Zn  tau(  17) = (   0.8333333   0.0962250   0.2694007  )
        18           Zn  tau(  18) = (   0.6666667   0.1924501   0.0003409  )
        19           O   tau(  19) = (   0.8333333   0.0962250   0.4733710  )
        20           O   tau(  20) = (   0.6666667   0.1924501   0.2043113  )
        21           Zn  tau(  21) = (   0.6666667   0.3849002   0.2694007  )
        22           Zn  tau(  22) = (   0.5000000   0.4811252   0.0003409  )
        23           O   tau(  23) = (   0.6666667   0.3849002   0.4733710  )
        24           O   tau(  24) = (   0.5000000   0.4811252   0.2043113  )

   Crystallographic axes

     site n.     atom                  positions (cryst. coord.)
         1           Zn  tau(   1) = (  0.2222222  0.1666667  0.5006336  )
         2           Zn  tau(   2) = (  0.1111111  0.3333333  0.0006336  )
         3           O   tau(   3) = (  0.2222222  0.1666667  0.8796764  )
         4           O   tau(   4) = (  0.1111111  0.3333333  0.3796764  )
         5           Zn  tau(   5) = (  0.2222222  0.6666667  0.5006336  )
         6           Zn  tau(   6) = (  0.1111111  0.8333333  0.0006336  )
         7           O   tau(   7) = (  0.2222222  0.6666667  0.8796764  )
         8           O   tau(   8) = (  0.1111111  0.8333333  0.3796764  )
         9           Zn  tau(   9) = (  0.5555556  0.1666667  0.5006336  )
        10           Zn  tau(  10) = (  0.4444444  0.3333333  0.0006336  )
        11           O   tau(  11) = (  0.5555556  0.1666667  0.8796764  )
        12           O   tau(  12) = (  0.4444444  0.3333333  0.3796764  )
        13           Zn  tau(  13) = (  0.5555556  0.6666667  0.5006336  )
        14           Zn  tau(  14) = (  0.4444444  0.8333333  0.0006336  )
        15           O   tau(  15) = (  0.5555556  0.6666667  0.8796764  )
        16           O   tau(  16) = (  0.4444444  0.8333333  0.3796764  )
        17           Zn  tau(  17) = (  0.8888889  0.1666667  0.5006336  )
        18           Zn  tau(  18) = (  0.7777778  0.3333333  0.0006336  )
        19           O   tau(  19) = (  0.8888889  0.1666667  0.8796764  )
        20           O   tau(  20) = (  0.7777778  0.3333333  0.3796764  )
        21           Zn  tau(  21) = (  0.8888889  0.6666667  0.5006336  )
        22           Zn  tau(  22) = (  0.7777778  0.8333333  0.0006336  )
        23           O   tau(  23) = (  0.8888889  0.6666667  0.8796764  )
        24           O   tau(  24) = (  0.7777778  0.8333333  0.3796764  )

     number of k points=    20
                       cart. coord. in units 2pi/alat
        k(    1) = (   0.0000000   0.0000000   0.0000000), wk =   0.0555556
        k(    2) = (   0.0000000   0.0000000   0.3097206), wk =   0.1111111
        k(    3) = (   0.0000000   0.0000000   0.6194412), wk =   0.1111111
        k(    4) = (   0.0000000   0.0000000  -0.9291617), wk =   0.0555556
        k(    5) = (   0.0000000   0.5773503   0.0000000), wk =   0.1111111
        k(    6) = (   0.0000000   0.5773503   0.3097206), wk =   0.1111111
        k(    7) = (   0.0000000   0.5773503   0.6194412), wk =   0.1111111
        k(    8) = (   0.0000000   0.5773503  -0.9291617), wk =   0.1111111
        k(    9) = (  -0.5000000  -0.2886751   0.0000000), wk =   0.0555556
        k(   10) = (  -0.5000000  -0.2886751   0.3097206), wk =   0.1111111
        k(   11) = (  -0.5000000  -0.2886751   0.6194412), wk =   0.1111111
        k(   12) = (  -0.5000000  -0.2886751  -0.9291617), wk =   0.0555556
        k(   13) = (  -0.5000000   0.2886751   0.0000000), wk =   0.1111111
        k(   14) = (  -0.5000000   0.2886751   0.3097206), wk =   0.1111111
        k(   15) = (  -0.5000000   0.2886751   0.6194412), wk =   0.1111111
        k(   16) = (  -0.5000000   0.2886751  -0.9291617), wk =   0.1111111
        k(   17) = (   0.0000000  -0.5773503   0.3097206), wk =   0.1111111
        k(   18) = (   0.0000000  -0.5773503   0.6194412), wk =   0.1111111
        k(   19) = (   0.5000000  -0.2886751   0.3097206), wk =   0.1111111
        k(   20) = (   0.5000000  -0.2886751   0.6194412), wk =   0.1111111

                       cryst. coord.
        k(    1) = (   0.0000000   0.0000000   0.0000000), wk =   0.0555556
        k(    2) = (   0.0000000   0.0000000   0.1666667), wk =   0.1111111
        k(    3) = (   0.0000000   0.0000000   0.3333333), wk =   0.1111111
        k(    4) = (   0.0000000   0.0000000  -0.5000000), wk =   0.0555556
        k(    5) = (   0.0000000   0.3333333   0.0000000), wk =   0.1111111
        k(    6) = (   0.0000000   0.3333333   0.1666667), wk =   0.1111111
        k(    7) = (   0.0000000   0.3333333   0.3333333), wk =   0.1111111
        k(    8) = (   0.0000000   0.3333333  -0.5000000), wk =   0.1111111
        k(    9) = (  -0.5000000   0.0000000   0.0000000), wk =   0.0555556
        k(   10) = (  -0.5000000   0.0000000   0.1666667), wk =   0.1111111
        k(   11) = (  -0.5000000   0.0000000   0.3333333), wk =   0.1111111
        k(   12) = (  -0.5000000   0.0000000  -0.5000000), wk =   0.0555556
        k(   13) = (  -0.5000000   0.3333333   0.0000000), wk =   0.1111111
        k(   14) = (  -0.5000000   0.3333333   0.1666667), wk =   0.1111111
        k(   15) = (  -0.5000000   0.3333333   0.3333333), wk =   0.1111111
        k(   16) = (  -0.5000000   0.3333333  -0.5000000), wk =   0.1111111
        k(   17) = (   0.0000000  -0.3333333   0.1666667), wk =   0.1111111
        k(   18) = (   0.0000000  -0.3333333   0.3333333), wk =   0.1111111
        k(   19) = (   0.5000000  -0.3333333   0.1666667), wk =   0.1111111
        k(   20) = (   0.5000000  -0.3333333   0.3333333), wk =   0.1111111

     Check: negative core charge=   -0.000002

     Initial potential from superposition of free atoms

     starting charge     215.9553, renormalised to     216.0000
     Starting wfcs are  156 randomized atomic wfcs

     Self-consistent Calculation

[...]
     1.0000   1.0000   1.0000   1.0000

[...]

          k =-0.5000-0.2887 0.0000 ( 11772 PWs)   bands (ev):

[...]

          k =-0.5000 0.2887-0.9292 ( 11824 PWs)   bands (ev):

[...]

          k = 0.5000-0.2887 0.6194 ( 11825 PWs)   bands (ev):

   -10.7128 -10.5179 -10.5179 -10.4121 -10.2962 -10.2962 -10.2962 -10.2905
   -10.2905 -10.1859 -10.1859 -10.1859   1.0368   1.0368   1.0820   1.1038
     1.1038   1.1038   1.1268   1.1268   1.1443   1.1968   1.1968   1.1968
     1.4331   1.4425   1.5169   1.5169   1.5221   1.5381   1.5381   1.5437
     1.5839   1.5839   1.5839   1.6853   1.6853   1.7338   1.7338   1.7338
     1.7417   1.7418   1.8904   1.8904   1.8904   1.9133   1.9133   1.9133
     2.4609   2.4609   2.4695   2.4884   2.4958   2.4958   2.4958   2.5183
     2.5183   2.5677   2.5677   2.5677   2.5935   2.6056   2.6056   2.6172
     2.6725   2.6725   2.6913   2.6913   2.6913   2.8116   2.8116   2.8116
     3.2568   3.2568   3.2568   3.5916   3.5916   3.5916   3.8659   3.8659
     3.9343   4.4657   4.4657   4.5350   4.5350   4.5350   4.9825   4.9825
     5.0817   5.0817   5.0817   5.1229   5.3664   5.3664   5.3813   5.3813
     5.3813   5.5974   5.8447   5.8447   5.8447   5.9570   5.9570   6.0234
     6.0904   6.0904   6.2837   6.4800

     occupation numbers
     1.0000   1.0000   1.0000   1.0000   1.0000   1.0000   1.0000   1.0000
     1.0000   1.0000   1.0000   1.0000   1.0000   1.0000   1.0000   1.0000
     1.0000   1.0000   1.0000   1.0000   1.0000   1.0000   1.0000   1.0000
     1.0000   1.0000   1.0000   1.0000   1.0000   1.0000   1.0000   1.0000
     1.0000   1.0000   1.0000   1.0000   1.0000   1.0000   1.0000   1.0000
     1.0000   1.0000   1.0000   1.0000   1.0000   1.0000   1.0000   1.0000
     1.0000   1.0000   1.0000   1.0000   1.0000   1.0000   1.0000   1.0000
     1.0000   1.0000   1.0000   1.0000   1.0000   1.0000   1.0000   1.0000
     1.0000   1.0000   1.0000   1.0000   1.0000   1.0000   1.0000   1.0000
     1.0000   1.0000   1.0000   1.0000   1.0000   1.0000   1.0000   1.0000
     1.0000   1.0000   1.0000   1.0000   1.0000   1.0000   1.0000   1.0000
     1.0000   1.0000   1.0000   1.0000   1.0000   1.0000   1.0000   1.0000
     1.0000   1.0000   1.0000   1.0000   1.0000   1.0000   1.0000   1.0000
     1.0000   1.0000   1.0000   1.0000

     highest occupied level (ev):     6.8873

!    total energy              =   -2169.82132741 Ry
     estimated scf accuracy    <          2.4E-09 Ry

     The total energy is the sum of the following terms:
     one-electron contribution =    -927.15104630 Ry
     hartree contribution      =     709.73470652 Ry
     xc contribution           =    -657.27659571 Ry
     ewald contribution        =   -1295.12839192 Ry

     convergence has been achieved in  29 iterations

     Forces acting on atoms (cartesian axes, Ry/au):

     atom    1 type  1   force =     0.00001455    0.00000134    0.00006539
     atom    2 type  1   force =     0.00001818    0.00000928    0.00006235
     atom    3 type  2   force =    -0.00000039   -0.00000099   -0.00006279
     atom    4 type  2   force =    -0.00000107   -0.00000050   -0.00006250
     atom    5 type  1   force =     0.00001137    0.00001255    0.00006406
     atom    6 type  1   force =     0.00001730    0.00001217    0.00006189
     atom    7 type  2   force =    -0.00000021   -0.00000046   -0.00006313
     atom    8 type  2   force =    -0.00000127    0.00000049   -0.00006175
     atom    9 type  1   force =    -0.00001333   -0.00000605    0.00006862
     atom   10 type  1   force =    -0.00000576    0.00000446    0.00005481
     atom   11 type  2   force =     0.00000100    0.00000041   -0.00006280
     atom   12 type  2   force =     0.00000014   -0.00000052   -0.00006228
     atom   13 type  1   force =    -0.00000830   -0.00000576    0.00006985
     atom   14 type  1   force =     0.00000159   -0.00000524    0.00005628
     atom   15 type  2   force =     0.00000070    0.00000087   -0.00006181
     atom   16 type  2   force =    -0.00000108    0.00000059   -0.00006281
     atom   17 type  1   force =     0.00000226   -0.00000773    0.00006340
     atom   18 type  1   force =    -0.00001593   -0.00000737    0.00005777
     atom   19 type  2   force =     0.00000029    0.00000038   -0.00006255
     atom   20 type  2   force =    -0.00000166   -0.00000011   -0.00006308
     atom   21 type  1   force =    -0.00000110    0.00000430    0.00006645
     atom   22 type  1   force =    -0.00001780   -0.00001206    0.00006097
     atom   23 type  2   force =     0.00000052   -0.00000012   -0.00006357
     atom   24 type  2   force =     0.00000002    0.00000009   -0.00006280
     The non-local contrib.  to forces
     atom    1 type  1   force =     0.00000807    0.00000258   -0.00483239
     atom    2 type  1   force =     0.00001018    0.00000500   -0.00483252
     atom    3 type  2   force =    -0.00000484   -0.00000417    0.00575584
     atom    4 type  2   force =    -0.00000582   -0.00000370    0.00575626
     atom    5 type  1   force =     0.00000790    0.00000630   -0.00483309
     atom    6 type  1   force =     0.00000842    0.00000570   -0.00483183
     atom    7 type  2   force =    -0.00000464   -0.00000431    0.00575430
     atom    8 type  2   force =    -0.00000615   -0.00000244    0.00575635
     atom    9 type  1   force =    -0.00000575   -0.00000381   -0.00483076
     atom   10 type  1   force =    -0.00000384    0.00000078   -0.00483711
     atom   11 type  2   force =     0.00000634    0.00000356    0.00575447
     atom   12 type  2   force =     0.00000106   -0.00000148    0.00575656
     atom   13 type  1   force =    -0.00000494   -0.00000238   -0.00482988
     atom   14 type  1   force =    -0.00000123   -0.00000354   -0.00483644
     atom   15 type  2   force =     0.00000643    0.00000387    0.00575699
     atom   16 type  2   force =    -0.00000000    0.00000190    0.00575523
     atom   17 type  1   force =    -0.00000198   -0.00000333   -0.00483098
     atom   18 type  1   force =    -0.00000706   -0.00000300   -0.00483363
     atom   19 type  2   force =     0.00000124    0.00000138    0.00575431
     atom   20 type  2   force =     0.00000371    0.00000143    0.00575532
     atom   21 type  1   force =    -0.00000280    0.00000044   -0.00483059
     atom   22 type  1   force =    -0.00000686   -0.00000501   -0.00483360
     atom   23 type  2   force =     0.00000171   -0.00000066    0.00575369
     atom   24 type  2   force =     0.00000582    0.00000370    0.00575502
     The ionic contribution  to forces
     atom    1 type  1   force =     0.00000001    0.00000001    0.06271748
     atom    2 type  1   force =     0.00000000    0.00000001    0.06271747
     atom    3 type  2   force =     0.00000001    0.00000001   -0.06271748
     atom    4 type  2   force =     0.00000000    0.00000001   -0.06271747
     atom    5 type  1   force =     0.00000001    0.00000000    0.06271747
     atom    6 type  1   force =     0.00000001   -0.00000001    0.06271747
     atom    7 type  2   force =     0.00000000   -0.00000000   -0.06271747
     atom    8 type  2   force =     0.00000001   -0.00000001   -0.06271747
     atom    9 type  1   force =    -0.00000001    0.00000001    0.06271747
     atom   10 type  1   force =     0.00000001    0.00000001    0.06271747
     atom   11 type  2   force =    -0.00000000    0.00000001   -0.06271747
     atom   12 type  2   force =     0.00000000    0.00000000   -0.06271747
     atom   13 type  1   force =    -0.00000001   -0.00000000    0.06271747
     atom   14 type  1   force =     0.00000001   -0.00000002    0.06271747
     atom   15 type  2   force =    -0.00000001    0.00000000   -0.06271747
     atom   16 type  2   force =     0.00000001   -0.00000001   -0.06271747
     atom   17 type  1   force =    -0.00000000    0.00000000    0.06271747
     atom   18 type  1   force =    -0.00000001    0.00000001    0.06271747
     atom   19 type  2   force =    -0.00000000    0.00000000   -0.06271747
     atom   20 type  2   force =    -0.00000001    0.00000000   -0.06271747
     atom   21 type  1   force =    -0.00000001   -0.00000001    0.06271747
     atom   22 type  1   force =    -0.00000001   -0.00000002    0.06271747
     atom   23 type  2   force =    -0.00000001   -0.00000000   -0.06271747
     atom   24 type  2   force =    -0.00000000   -0.00000001   -0.06271747
     The local contribution  to forces
     atom    1 type  1   force =    -0.00002019   -0.00000318   -0.05829374
     atom    2 type  1   force =    -0.00002840   -0.00001466   -0.05828930
     atom    3 type  2   force =    -0.00000963   -0.00000398    0.05696415
     atom    4 type  2   force =    -0.00000806   -0.00000369    0.05696584
     atom    5 type  1   force =    -0.00001813   -0.00001854   -0.05829148
     atom    6 type  1   force =    -0.00002354   -0.00001516   -0.05829201
     atom    7 type  2   force =    -0.00001110   -0.00000476    0.05696346
     atom    8 type  2   force =    -0.00000667   -0.00000584    0.05696212
     atom    9 type  1   force =     0.00001860    0.00001346   -0.05829966
     atom   10 type  1   force =     0.00000653   -0.00000758   -0.05827644
     atom   11 type  2   force =     0.00000209    0.00000061    0.05696391
     atom   12 type  2   force =     0.00000324    0.00000278    0.05696237
     atom   13 type  1   force =     0.00001547    0.00000602   -0.05830474
     atom   14 type  1   force =    -0.00000310    0.00000915   -0.05828006
     atom   15 type  2   force =     0.00000370    0.00000098    0.05696088
     atom   16 type  2   force =     0.00000319    0.00000118    0.05696240
     atom   17 type  1   force =    -0.00000071    0.00000937   -0.05829217
     atom   18 type  1   force =     0.00002388    0.00000970   -0.05828250
     atom   19 type  2   force =     0.00000056    0.00000252    0.05696412
     atom   20 type  2   force =     0.00000834    0.00000333    0.05696365
     atom   21 type  1   force =     0.00000150   -0.00000671   -0.05829539
     atom   22 type  1   force =     0.00002585    0.00001973   -0.05828536
     atom   23 type  2   force =     0.00000103   -0.00000007    0.05696643
     atom   24 type  2   force =     0.00000525    0.00000408    0.05696484
     The core correction contribution to forces
     atom    1 type  1   force =     0.00000008   -0.00000014    0.00046413
     atom    2 type  1   force =     0.00000027    0.00000018    0.00046382
     atom    3 type  2   force =     0.00000005    0.00000005   -0.00006505
     atom    4 type  2   force =     0.00000007    0.00000004   -0.00006505
     atom    5 type  1   force =     0.00000004    0.00000021    0.00046411
     atom    6 type  1   force =     0.00000013    0.00000009    0.00046396
     atom    7 type  2   force =     0.00000005    0.00000005   -0.00006504
     atom    8 type  2   force =     0.00000008    0.00000003   -0.00006506
     atom    9 type  1   force =    -0.00000029   -0.00000034    0.00046424
     atom   10 type  1   force =     0.00000013    0.00000032    0.00046376
     atom   11 type  2   force =    -0.00000009   -0.00000005   -0.00006504
     atom   12 type  2   force =    -0.00000001    0.00000002   -0.00006506
     atom   13 type  1   force =    -0.00000027    0.00000001    0.00046445
     atom   14 type  1   force =     0.00000033   -0.00000006    0.00046388
     atom   15 type  2   force =    -0.00000008   -0.00000005   -0.00006508
     atom   16 type  2   force =     0.00000000   -0.00000003   -0.00006505
     atom   17 type  1   force =     0.00000019   -0.00000004    0.00046392
     atom   18 type  1   force =    -0.00000042   -0.00000009    0.00046370
     atom   19 type  2   force =    -0.00000002   -0.00000002   -0.00006504
     atom   20 type  2   force =    -0.00000003   -0.00000001   -0.00006505
     atom   21 type  1   force =     0.00000021    0.00000033    0.00046396
     atom   22 type  1   force =    -0.00000055   -0.00000041    0.00046380
     atom   23 type  2   force =    -0.00000003    0.00000000   -0.00006503
     atom   24 type  2   force =    -0.00000007   -0.00000004   -0.00006504
     The Hubbard contrib.    to forces
     atom    1 type  1   force =     0.00000000    0.00000000    0.00000000
     atom    2 type  1   force =     0.00000000    0.00000000    0.00000000
     atom    3 type  2   force =     0.00000000    0.00000000    0.00000000
     atom    4 type  2   force =     0.00000000    0.00000000    0.00000000
     atom    5 type  1   force =     0.00000000    0.00000000    0.00000000
     atom    6 type  1   force =     0.00000000    0.00000000    0.00000000
     atom    7 type  2   force =     0.00000000    0.00000000    0.00000000
     atom    8 type  2   force =     0.00000000    0.00000000    0.00000000
     atom    9 type  1   force =     0.00000000    0.00000000    0.00000000
     atom   10 type  1   force =     0.00000000    0.00000000    0.00000000
     atom   11 type  2   force =     0.00000000    0.00000000    0.00000000
     atom   12 type  2   force =     0.00000000    0.00000000    0.00000000
     atom   13 type  1   force =     0.00000000    0.00000000    0.00000000
     atom   14 type  1   force =     0.00000000    0.00000000    0.00000000
     atom   15 type  2   force =     0.00000000    0.00000000    0.00000000
     atom   16 type  2   force =     0.00000000    0.00000000    0.00000000
     atom   17 type  1   force =     0.00000000    0.00000000    0.00000000
     atom   18 type  1   force =     0.00000000    0.00000000    0.00000000
     atom   19 type  2   force =     0.00000000    0.00000000    0.00000000
     atom   20 type  2   force =     0.00000000    0.00000000    0.00000000
     atom   21 type  1   force =     0.00000000    0.00000000    0.00000000
     atom   22 type  1   force =     0.00000000    0.00000000    0.00000000
     atom   23 type  2   force =     0.00000000    0.00000000    0.00000000
     atom   24 type  2   force =     0.00000000    0.00000000    0.00000000
     The SCF correction term to forces
     atom    1 type  1   force =     0.00002688    0.00000215    0.00001046
     atom    2 type  1   force =     0.00003644    0.00001884    0.00000343
     atom    3 type  2   force =     0.00001434    0.00000719    0.00000029
     atom    4 type  2   force =     0.00001304    0.00000693   -0.00000154
     atom    5 type  1   force =     0.00002186    0.00002467    0.00000759
     atom    6 type  1   force =     0.00003259    0.00002164    0.00000485
     atom    7 type  2   force =     0.00001579    0.00000866    0.00000217
     atom    8 type  2   force =     0.00001178    0.00000884    0.00000285
     atom    9 type  1   force =    -0.00002558   -0.00001527    0.00001787
     atom   10 type  1   force =    -0.00000826    0.00001101   -0.00001233
     atom   11 type  2   force =    -0.00000704   -0.00000363    0.00000187
     atom   12 type  2   force =    -0.00000384   -0.00000176    0.00000186
     atom   13 type  1   force =    -0.00001824   -0.00000932    0.00002310
     atom   14 type  1   force =     0.00000589   -0.00001068   -0.00000803
     atom   15 type  2   force =    -0.00000904   -0.00000383    0.00000341
     atom   16 type  2   force =    -0.00000397   -0.00000236    0.00000262
     atom   17 type  1   force =     0.00000509   -0.00001365    0.00000570
     atom   18 type  1   force =    -0.00003200   -0.00001391   -0.00000672
     atom   19 type  2   force =    -0.00000117   -0.00000342    0.00000208
     atom   20 type  2   force =    -0.00001336   -0.00000477    0.00000102
     atom   21 type  1   force =     0.00000030    0.00001033    0.00001154
     atom   22 type  1   force =    -0.00003592   -0.00002626   -0.00000080
     atom   23 type  2   force =    -0.00000187    0.00000069   -0.00000065
     atom   24 type  2   force =    -0.00001066   -0.00000754    0.00000039

     Total force =     0.000312     Total SCF correction =     0.000115
     SCF correction compared to forces is large: reduce conv_thr to get better values

     General routines

     Parallel routines

   This run was terminated on:  14:51:59  23Jul2025

   JOB DONE.
Note: The following floating-point exceptions are signalling: IEEE_INVALID_FLAG
Note: The following floating-point exceptions are signalling: IEEE_INVALID_FLAG
Note: The following floating-point exceptions are signalling: IEEE_INVALID_FLAG
Note: The following floating-point exceptions are signalling: IEEE_INVALID_FLAG
Note: The following floating-point exceptions are signalling: IEEE_INVALID_FLAG
Note: The following floating-point exceptions are signalling: IEEE_INVALID_FLAG
Note: The following floating-point exceptions are signalling: IEEE_INVALID_FLAG
Note: The following floating-point exceptions are signalling: IEEE_INVALID_FLAG