     Program PWSCF v.7.2 starts on 23Jul2025 at 17:48: 8

     Reading input from /home/jvc/QEspresso7.2/ZnO_database/scripts/cell321.in/ZnO-3.40-1.55-321.in
Warning: card &CELL ignored
Warning: card / ignored
Warning: card &FCP ignored
Warning: card / ignored
Warning: card &RISM ignored
Warning: card / ignored

     Current dimensions of program PWSCF are:
     Max number of different atomic species (ntypx) = 10
     Max number of k-points (npk) =  40000
     Max angular momentum in pseudopotentials (lmaxx) =  4
     file Zn.upf: wavefunction(s)  3D renormalized
     Found identity + ( -0.0000 -0.5000  0.0000) symmetry
     This is a supercell, fractional translations are disabled

     K-points division:     npool     =       8
     R & G space division:  proc/nbgrp/npool/nimage =       4
     Subspace diagonalization in iterative solution of the eigenvalue problem:
     a serial algorithm will be used

     Using Slab Decomposition

     bravais-lattice index     =            0
     lattice parameter (alat)  =      18.5365  a.u.
     unit-cell volume          =    1978.7861 (a.u.)^3
     number of atoms/cell      =           24
     number of atomic types    =            2
     number of electrons       =       216.00
     number of Kohn-Sham states=          108
     kinetic-energy cutoff     =      50.0000  Ry
     charge density cutoff     =     400.0000  Ry
     scf convergence threshold =      1.0E-08
     mixing beta               =       0.3000
     number of iterations used =            8  plain     mixing
     Exchange-correlation= PBE
                           (   1   4   3   4   0   0   0)

     celldm(1)=  18.536466  celldm(2)=   0.000000  celldm(3)=   0.000000
     celldm(4)=   0.000000  celldm(5)=   0.000000  celldm(6)=   0.000000

     crystal axes: (cart. coord. in units of alat)
               a(1) = (   1.000000   0.000000   0.000000 )
               a(2) = (  -0.333333   0.577350   0.000000 )
               a(3) = (   0.000000   0.000000   0.538119 )

     reciprocal axes: (cart. coord. in units 2 pi/alat)
               b(1) = (  1.000000  0.577350 -0.000000 )
               b(2) = (  0.000000  1.732051  0.000000 )
               b(3) = (  0.000000 -0.000000  1.858323 )

     PseudoPot. # 1 for Zn read from file:
     /home/jvc/QEspresso7.2/ZnO_database/pseudos/Zn.upf
     MD5 check sum: 7f56cabf9682ed8c977c2f7d0c5985c5
     Pseudo is Ultrasoft + core correction, Zval = 12.0
     Generated using &quot;atomic&quot; code by A. Dal Corso  v.6.2.2
     Using radial grid of 1201 points,  6 beta functions with:
                l(1) =   0
                l(2) =   0
                l(3) =   1
                l(4) =   1
                l(5) =   2
                l(6) =   2
     Q(r) pseudized with 0 coefficients

     PseudoPot. # 2 for O  read from file:
     /home/jvc/QEspresso7.2/ZnO_database/pseudos/O.upf
     MD5 check sum: 91400c9766925bcf19f520983a725ff0
     Pseudo is Ultrasoft + core correction, Zval =  6.0
     Generated using &quot;atomic&quot; code by A. Dal Corso  v.6.3MaX
     Using radial grid of 1095 points,  4 beta functions with:
                l(1) =   0
                l(2) =   0
                l(3) =   1
                l(4) =   1
     Q(r) pseudized with 0 coefficients

     atomic species   valence    mass     pseudopotential
        Zn            12.00    65.38000     Zn( 1.00)
        O              6.00    15.99900     O ( 1.00)

     No symmetry found

                                    s                        frac. trans.

      isym =  1     identity

 cryst.   s( 1) = (     1          0          0      )
                  (     0          1          0      )
                  (     0          0          1      )

 cart.    s( 1) = (  1.0000000  0.0000000  0.0000000 )
                  (  0.0000000  1.0000000  0.0000000 )
                  (  0.0000000  0.0000000  1.0000000 )

   Cartesian axes

     site n.     atom                  positions (alat units)
         1           Zn  tau(   1) = (   0.1666667   0.0962250   0.2694007  )
         2           Zn  tau(   2) = (   0.0000000   0.1924501   0.0003409  )
         3           O   tau(   3) = (   0.1666667   0.0962250   0.4733710  )
         4           O   tau(   4) = (   0.0000000   0.1924501   0.2043113  )
         5           Zn  tau(   5) = (   0.0000000   0.3849002   0.2694007  )
         6           Zn  tau(   6) = (  -0.1666667   0.4811252   0.0003409  )
         7           O   tau(   7) = (   0.0000000   0.3849002   0.4733710  )
         8           O   tau(   8) = (  -0.1666667   0.4811252   0.2043113  )
         9           Zn  tau(   9) = (   0.5000000   0.0962250   0.2694007  )
        10           Zn  tau(  10) = (   0.3333333   0.1924501   0.0003409  )
        11           O   tau(  11) = (   0.5000000   0.0962250   0.4733710  )
        12           O   tau(  12) = (   0.3333333   0.1924501   0.2043113  )
        13           Zn  tau(  13) = (   0.3333333   0.3849002   0.2694007  )
        14           Zn  tau(  14) = (   0.1666667   0.4811252   0.0003409  )
        15           O   tau(  15) = (   0.3333333   0.3849002   0.4733710  )
        16           O   tau(  16) = (   0.1666667   0.4811252   0.2043113  )
        17           Zn  tau(  17) = (   0.8333333   0.0962250   0.2694007  )
        18           Zn  tau(  18) = (   0.6666667   0.1924501   0.0003409  )
        19           O   tau(  19) = (   0.8333333   0.0962250   0.4733710  )
        20           O   tau(  20) = (   0.6666667   0.1924501   0.2043113  )
        21           Zn  tau(  21) = (   0.6666667   0.3849002   0.2694007  )
        22           Zn  tau(  22) = (   0.5000000   0.4811252   0.0003409  )
        23           O   tau(  23) = (   0.6666667   0.3849002   0.4733710  )
        24           O   tau(  24) = (   0.5000000   0.4811252   0.2043113  )

   Crystallographic axes

     site n.     atom                  positions (cryst. coord.)
         1           Zn  tau(   1) = (  0.2222222  0.1666667  0.5006336  )
         2           Zn  tau(   2) = (  0.1111111  0.3333333  0.0006336  )
         3           O   tau(   3) = (  0.2222222  0.1666667  0.8796764  )
         4           O   tau(   4) = (  0.1111111  0.3333333  0.3796764  )
         5           Zn  tau(   5) = (  0.2222222  0.6666667  0.5006336  )
         6           Zn  tau(   6) = (  0.1111111  0.8333333  0.0006336  )
         7           O   tau(   7) = (  0.2222222  0.6666667  0.8796764  )
         8           O   tau(   8) = (  0.1111111  0.8333333  0.3796764  )
         9           Zn  tau(   9) = (  0.5555556  0.1666667  0.5006336  )
        10           Zn  tau(  10) = (  0.4444444  0.3333333  0.0006336  )
        11           O   tau(  11) = (  0.5555556  0.1666667  0.8796764  )
        12           O   tau(  12) = (  0.4444444  0.3333333  0.3796764  )
        13           Zn  tau(  13) = (  0.5555556  0.6666667  0.5006336  )
        14           Zn  tau(  14) = (  0.4444444  0.8333333  0.0006336  )
        15           O   tau(  15) = (  0.5555556  0.6666667  0.8796764  )
        16           O   tau(  16) = (  0.4444444  0.8333333  0.3796764  )
        17           Zn  tau(  17) = (  0.8888889  0.1666667  0.5006336  )
        18           Zn  tau(  18) = (  0.7777778  0.3333333  0.0006336  )
        19           O   tau(  19) = (  0.8888889  0.1666667  0.8796764  )
        20           O   tau(  20) = (  0.7777778  0.3333333  0.3796764  )
        21           Zn  tau(  21) = (  0.8888889  0.6666667  0.5006336  )
        22           Zn  tau(  22) = (  0.7777778  0.8333333  0.0006336  )
        23           O   tau(  23) = (  0.8888889  0.6666667  0.8796764  )
        24           O   tau(  24) = (  0.7777778  0.8333333  0.3796764  )

     number of k points=    20
                       cart. coord. in units 2pi/alat
        k(    1) = (   0.0000000   0.0000000   0.0000000), wk =   0.0555556
        k(    2) = (   0.0000000   0.0000000   0.3097206), wk =   0.1111111
        k(    3) = (   0.0000000   0.0000000   0.6194412), wk =   0.1111111
        k(    4) = (   0.0000000   0.0000000  -0.9291617), wk =   0.0555556
        k(    5) = (   0.0000000   0.5773503   0.0000000), wk =   0.1111111
        k(    6) = (   0.0000000   0.5773503   0.3097206), wk =   0.1111111
        k(    7) = (   0.0000000   0.5773503   0.6194412), wk =   0.1111111
        k(    8) = (   0.0000000   0.5773503  -0.9291617), wk =   0.1111111
        k(    9) = (  -0.5000000  -0.2886751   0.0000000), wk =   0.0555556
        k(   10) = (  -0.5000000  -0.2886751   0.3097206), wk =   0.1111111
        k(   11) = (  -0.5000000  -0.2886751   0.6194412), wk =   0.1111111
        k(   12) = (  -0.5000000  -0.2886751  -0.9291617), wk =   0.0555556
        k(   13) = (  -0.5000000   0.2886751   0.0000000), wk =   0.1111111
        k(   14) = (  -0.5000000   0.2886751   0.3097206), wk =   0.1111111
        k(   15) = (  -0.5000000   0.2886751   0.6194412), wk =   0.1111111
        k(   16) = (  -0.5000000   0.2886751  -0.9291617), wk =   0.1111111
        k(   17) = (   0.0000000  -0.5773503   0.3097206), wk =   0.1111111
        k(   18) = (   0.0000000  -0.5773503   0.6194412), wk =   0.1111111
        k(   19) = (   0.5000000  -0.2886751   0.3097206), wk =   0.1111111
        k(   20) = (   0.5000000  -0.2886751   0.6194412), wk =   0.1111111

                       cryst. coord.
        k(    1) = (   0.0000000   0.0000000   0.0000000), wk =   0.0555556
        k(    2) = (   0.0000000   0.0000000   0.1666667), wk =   0.1111111
        k(    3) = (   0.0000000   0.0000000   0.3333333), wk =   0.1111111
        k(    4) = (   0.0000000   0.0000000  -0.5000000), wk =   0.0555556
        k(    5) = (   0.0000000   0.3333333   0.0000000), wk =   0.1111111
        k(    6) = (   0.0000000   0.3333333   0.1666667), wk =   0.1111111
        k(    7) = (   0.0000000   0.3333333   0.3333333), wk =   0.1111111
        k(    8) = (   0.0000000   0.3333333  -0.5000000), wk =   0.1111111
        k(    9) = (  -0.5000000   0.0000000   0.0000000), wk =   0.0555556
        k(   10) = (  -0.5000000   0.0000000   0.1666667), wk =   0.1111111
        k(   11) = (  -0.5000000   0.0000000   0.3333333), wk =   0.1111111
        k(   12) = (  -0.5000000   0.0000000  -0.5000000), wk =   0.0555556
        k(   13) = (  -0.5000000   0.3333333   0.0000000), wk =   0.1111111
        k(   14) = (  -0.5000000   0.3333333   0.1666667), wk =   0.1111111
        k(   15) = (  -0.5000000   0.3333333   0.3333333), wk =   0.1111111
        k(   16) = (  -0.5000000   0.3333333  -0.5000000), wk =   0.1111111
        k(   17) = (   0.0000000  -0.3333333   0.1666667), wk =   0.1111111
        k(   18) = (   0.0000000  -0.3333333   0.3333333), wk =   0.1111111
        k(   19) = (   0.5000000  -0.3333333   0.1666667), wk =   0.1111111
        k(   20) = (   0.5000000  -0.3333333   0.3333333), wk =   0.1111111

     Check: negative core charge=   -0.000002

     Initial potential from superposition of free atoms

     starting charge     215.9553, renormalised to     216.0000
     Starting wfcs are  156 randomized atomic wfcs

     Self-consistent Calculation

[...]
     1.0000   1.0000   1.0000   1.0000

[...]

          k =-0.5000-0.2887 0.0000 ( 11772 PWs)   bands (ev):

[...]

          k =-0.5000 0.2887-0.9292 ( 11824 PWs)   bands (ev):

[...]

          k = 0.5000-0.2887 0.6194 ( 11825 PWs)   bands (ev):

   -10.7128 -10.5179 -10.5179 -10.4121 -10.2962 -10.2962 -10.2962 -10.2905
   -10.2905 -10.1859 -10.1859 -10.1859   1.0368   1.0368   1.0820   1.1038
     1.1038   1.1038   1.1268   1.1268   1.1443   1.1968   1.1968   1.1968
     1.4331   1.4425   1.5169   1.5169   1.5221   1.5381   1.5381   1.5437
     1.5839   1.5839   1.5839   1.6853   1.6853   1.7338   1.7338   1.7338
     1.7417   1.7418   1.8904   1.8904   1.8904   1.9133   1.9133   1.9133
     2.4609   2.4609   2.4695   2.4884   2.4958   2.4958   2.4958   2.5183
     2.5183   2.5677   2.5677   2.5677   2.5935   2.6056   2.6056   2.6172
     2.6725   2.6725   2.6913   2.6913   2.6913   2.8116   2.8116   2.8116
     3.2568   3.2568   3.2568   3.5916   3.5916   3.5916   3.8659   3.8659
     3.9343   4.4657   4.4657   4.5350   4.5350   4.5350   4.9825   4.9825
     5.0817   5.0817   5.0817   5.1229   5.3664   5.3664   5.3813   5.3813
     5.3813   5.5974   5.8447   5.8447   5.8447   5.9570   5.9570   6.0234
     6.0904   6.0904   6.2837   6.4800

     occupation numbers
     1.0000   1.0000   1.0000   1.0000   1.0000   1.0000   1.0000   1.0000
     1.0000   1.0000   1.0000   1.0000   1.0000   1.0000   1.0000   1.0000
     1.0000   1.0000   1.0000   1.0000   1.0000   1.0000   1.0000   1.0000
     1.0000   1.0000   1.0000   1.0000   1.0000   1.0000   1.0000   1.0000
     1.0000   1.0000   1.0000   1.0000   1.0000   1.0000   1.0000   1.0000
     1.0000   1.0000   1.0000   1.0000   1.0000   1.0000   1.0000   1.0000
     1.0000   1.0000   1.0000   1.0000   1.0000   1.0000   1.0000   1.0000
     1.0000   1.0000   1.0000   1.0000   1.0000   1.0000   1.0000   1.0000
     1.0000   1.0000   1.0000   1.0000   1.0000   1.0000   1.0000   1.0000
     1.0000   1.0000   1.0000   1.0000   1.0000   1.0000   1.0000   1.0000
     1.0000   1.0000   1.0000   1.0000   1.0000   1.0000   1.0000   1.0000
     1.0000   1.0000   1.0000   1.0000   1.0000   1.0000   1.0000   1.0000
     1.0000   1.0000   1.0000   1.0000   1.0000   1.0000   1.0000   1.0000
     1.0000   1.0000   1.0000   1.0000

     highest occupied level (ev):     6.8873

!    total energy              =   -2169.82132741 Ry
     estimated scf accuracy    <          2.4E-09 Ry

     The total energy is the sum of the following terms:
     one-electron contribution =    -927.15104437 Ry
     hartree contribution      =     709.73470361 Ry
     xc contribution           =    -657.27659474 Ry
     ewald contribution        =   -1295.12839192 Ry

     convergence has been achieved in  29 iterations

     Forces acting on atoms (cartesian axes, Ry/au):

     atom    1 type  1   force =     0.00001453    0.00000135    0.00006536
     atom    2 type  1   force =     0.00001817    0.00000928    0.00006239
     atom    3 type  2   force =    -0.00000038   -0.00000095   -0.00006279
     atom    4 type  2   force =    -0.00000113   -0.00000049   -0.00006249
     atom    5 type  1   force =     0.00001138    0.00001254    0.00006407
     atom    6 type  1   force =     0.00001731    0.00001215    0.00006190
     atom    7 type  2   force =    -0.00000019   -0.00000046   -0.00006317
     atom    8 type  2   force =    -0.00000129    0.00000046   -0.00006177
     atom    9 type  1   force =    -0.00001335   -0.00000606    0.00006861
     atom   10 type  1   force =    -0.00000575    0.00000447    0.00005483
     atom   11 type  2   force =     0.00000095    0.00000042   -0.00006280
     atom   12 type  2   force =     0.00000014   -0.00000049   -0.00006228
     atom   13 type  1   force =    -0.00000824   -0.00000574    0.00006984
     atom   14 type  1   force =     0.00000158   -0.00000524    0.00005633
     atom   15 type  2   force =     0.00000068    0.00000087   -0.00006183
     atom   16 type  2   force =    -0.00000107    0.00000059   -0.00006278
     atom   17 type  1   force =     0.00000229   -0.00000775    0.00006338
     atom   18 type  1   force =    -0.00001597   -0.00000736    0.00005779
     atom   19 type  2   force =     0.00000030    0.00000037   -0.00006254
     atom   20 type  2   force =    -0.00000166   -0.00000014   -0.00006306
     atom   21 type  1   force =    -0.00000109    0.00000429    0.00006641
     atom   22 type  1   force =    -0.00001779   -0.00001207    0.00006099
     atom   23 type  2   force =     0.00000054   -0.00000013   -0.00006358
     atom   24 type  2   force =     0.00000002    0.00000009   -0.00006282
     The non-local contrib.  to forces
     atom    1 type  1   force =     0.00000805    0.00000258   -0.00483244
     atom    2 type  1   force =     0.00001016    0.00000501   -0.00483247
     atom    3 type  2   force =    -0.00000486   -0.00000409    0.00575581
     atom    4 type  2   force =    -0.00000589   -0.00000370    0.00575628
     atom    5 type  1   force =     0.00000793    0.00000632   -0.00483309
     atom    6 type  1   force =     0.00000844    0.00000567   -0.00483184
     atom    7 type  2   force =    -0.00000468   -0.00000439    0.00575432
     atom    8 type  2   force =    -0.00000611   -0.00000244    0.00575631
     atom    9 type  1   force =    -0.00000578   -0.00000383   -0.00483080
     atom   10 type  1   force =    -0.00000385    0.00000080   -0.00483711
     atom   11 type  2   force =     0.00000630    0.00000364    0.00575444
     atom   12 type  2   force =     0.00000102   -0.00000146    0.00575658
     atom   13 type  1   force =    -0.00000490   -0.00000236   -0.00482992
     atom   14 type  1   force =    -0.00000126   -0.00000356   -0.00483637
     atom   15 type  2   force =     0.00000647    0.00000384    0.00575691
     atom   16 type  2   force =    -0.00000000    0.00000191    0.00575524
     atom   17 type  1   force =    -0.00000197   -0.00000336   -0.00483098
     atom   18 type  1   force =    -0.00000713   -0.00000297   -0.00483362
     atom   19 type  2   force =     0.00000122    0.00000136    0.00575432
     atom   20 type  2   force =     0.00000376    0.00000140    0.00575531
     atom   21 type  1   force =    -0.00000278    0.00000043   -0.00483064
     atom   22 type  1   force =    -0.00000685   -0.00000503   -0.00483359
     atom   23 type  2   force =     0.00000166   -0.00000069    0.00575362
     atom   24 type  2   force =     0.00000583    0.00000378    0.00575498
     The ionic contribution  to forces
     atom    1 type  1   force =     0.00000001    0.00000001    0.06271748
     atom    2 type  1   force =     0.00000000    0.00000001    0.06271747
     atom    3 type  2   force =     0.00000001    0.00000001   -0.06271748
     atom    4 type  2   force =     0.00000000    0.00000001   -0.06271747
     atom    5 type  1   force =     0.00000001    0.00000000    0.06271747
     atom    6 type  1   force =     0.00000001   -0.00000001    0.06271747
     atom    7 type  2   force =     0.00000000   -0.00000000   -0.06271747
     atom    8 type  2   force =     0.00000001   -0.00000001   -0.06271747
     atom    9 type  1   force =    -0.00000001    0.00000001    0.06271747
     atom   10 type  1   force =     0.00000001    0.00000001    0.06271747
     atom   11 type  2   force =    -0.00000000    0.00000001   -0.06271747
     atom   12 type  2   force =     0.00000000    0.00000000   -0.06271747
     atom   13 type  1   force =    -0.00000001   -0.00000000    0.06271747
     atom   14 type  1   force =     0.00000001   -0.00000002    0.06271747
     atom   15 type  2   force =    -0.00000001    0.00000000   -0.06271747
     atom   16 type  2   force =     0.00000001   -0.00000001   -0.06271747
     atom   17 type  1   force =    -0.00000000    0.00000000    0.06271747
     atom   18 type  1   force =    -0.00000001    0.00000001    0.06271747
     atom   19 type  2   force =    -0.00000000    0.00000000   -0.06271747
     atom   20 type  2   force =    -0.00000001    0.00000000   -0.06271747
     atom   21 type  1   force =    -0.00000001   -0.00000001    0.06271747
     atom   22 type  1   force =    -0.00000001   -0.00000002    0.06271747
     atom   23 type  2   force =    -0.00000001   -0.00000000   -0.06271747
     atom   24 type  2   force =    -0.00000000   -0.00000001   -0.06271747
     The local contribution  to forces
     atom    1 type  1   force =    -0.00002019   -0.00000319   -0.05829369
     atom    2 type  1   force =    -0.00002838   -0.00001470   -0.05828938
     atom    3 type  2   force =    -0.00000958   -0.00000401    0.05696415
     atom    4 type  2   force =    -0.00000804   -0.00000367    0.05696586
     atom    5 type  1   force =    -0.00001816   -0.00001854   -0.05829149
     atom    6 type  1   force =    -0.00002357   -0.00001514   -0.05829199
     atom    7 type  2   force =    -0.00001100   -0.00000464    0.05696335
     atom    8 type  2   force =    -0.00000673   -0.00000590    0.05696216
     atom    9 type  1   force =     0.00001867    0.00001343   -0.05829964
     atom   10 type  1   force =     0.00000653   -0.00000762   -0.05827643
     atom   11 type  2   force =     0.00000209    0.00000052    0.05696396
     atom   12 type  2   force =     0.00000327    0.00000283    0.05696234
     atom   13 type  1   force =     0.00001539    0.00000603   -0.05830469
     atom   14 type  1   force =    -0.00000307    0.00000920   -0.05828012
     atom   15 type  2   force =     0.00000361    0.00000104    0.05696094
     atom   16 type  2   force =     0.00000321    0.00000115    0.05696244
     atom   17 type  1   force =    -0.00000074    0.00000943   -0.05829215
     atom   18 type  1   force =     0.00002395    0.00000966   -0.05828251
     atom   19 type  2   force =     0.00000056    0.00000250    0.05696412
     atom   20 type  2   force =     0.00000829    0.00000334    0.05696370
     atom   21 type  1   force =     0.00000150   -0.00000674   -0.05829528
     atom   22 type  1   force =     0.00002587    0.00001978   -0.05828540
     atom   23 type  2   force =     0.00000110   -0.00000004    0.05696646
     atom   24 type  2   force =     0.00000522    0.00000398    0.05696488
     The core correction contribution to forces
     atom    1 type  1   force =     0.00000008   -0.00000014    0.00046413
     atom    2 type  1   force =     0.00000028    0.00000018    0.00046381
     atom    3 type  2   force =     0.00000005    0.00000005   -0.00006505
     atom    4 type  2   force =     0.00000007    0.00000004   -0.00006505
     atom    5 type  1   force =     0.00000004    0.00000021    0.00046411
     atom    6 type  1   force =     0.00000013    0.00000010    0.00046395
     atom    7 type  2   force =     0.00000005    0.00000005   -0.00006504
     atom    8 type  2   force =     0.00000007    0.00000003   -0.00006506
     atom    9 type  1   force =    -0.00000028   -0.00000034    0.00046425
     atom   10 type  1   force =     0.00000013    0.00000032    0.00046376
     atom   11 type  2   force =    -0.00000008   -0.00000005   -0.00006504
     atom   12 type  2   force =    -0.00000001    0.00000002   -0.00006506
     atom   13 type  1   force =    -0.00000027    0.00000001    0.00046446
     atom   14 type  1   force =     0.00000033   -0.00000006    0.00046388
     atom   15 type  2   force =    -0.00000008   -0.00000005   -0.00006508
     atom   16 type  2   force =     0.00000000   -0.00000003   -0.00006505
     atom   17 type  1   force =     0.00000019   -0.00000004    0.00046392
     atom   18 type  1   force =    -0.00000042   -0.00000009    0.00046369
     atom   19 type  2   force =    -0.00000002   -0.00000002   -0.00006504
     atom   20 type  2   force =    -0.00000003   -0.00000001   -0.00006505
     atom   21 type  1   force =     0.00000021    0.00000033    0.00046396
     atom   22 type  1   force =    -0.00000055   -0.00000041    0.00046380
     atom   23 type  2   force =    -0.00000003    0.00000000   -0.00006503
     atom   24 type  2   force =    -0.00000007   -0.00000004   -0.00006504
     The Hubbard contrib.    to forces
     atom    1 type  1   force =     0.00000000    0.00000000    0.00000000
     atom    2 type  1   force =     0.00000000    0.00000000    0.00000000
     atom    3 type  2   force =     0.00000000    0.00000000    0.00000000
     atom    4 type  2   force =     0.00000000    0.00000000    0.00000000
     atom    5 type  1   force =     0.00000000    0.00000000    0.00000000
     atom    6 type  1   force =     0.00000000    0.00000000    0.00000000
     atom    7 type  2   force =     0.00000000    0.00000000    0.00000000
     atom    8 type  2   force =     0.00000000    0.00000000    0.00000000
     atom    9 type  1   force =     0.00000000    0.00000000    0.00000000
     atom   10 type  1   force =     0.00000000    0.00000000    0.00000000
     atom   11 type  2   force =     0.00000000    0.00000000    0.00000000
     atom   12 type  2   force =     0.00000000    0.00000000    0.00000000
     atom   13 type  1   force =     0.00000000    0.00000000    0.00000000
     atom   14 type  1   force =     0.00000000    0.00000000    0.00000000
     atom   15 type  2   force =     0.00000000    0.00000000    0.00000000
     atom   16 type  2   force =     0.00000000    0.00000000    0.00000000
     atom   17 type  1   force =     0.00000000    0.00000000    0.00000000
     atom   18 type  1   force =     0.00000000    0.00000000    0.00000000
     atom   19 type  2   force =     0.00000000    0.00000000    0.00000000
     atom   20 type  2   force =     0.00000000    0.00000000    0.00000000
     atom   21 type  1   force =     0.00000000    0.00000000    0.00000000
     atom   22 type  1   force =     0.00000000    0.00000000    0.00000000
     atom   23 type  2   force =     0.00000000    0.00000000    0.00000000
     atom   24 type  2   force =     0.00000000    0.00000000    0.00000000
     The SCF correction term to forces
     atom    1 type  1   force =     0.00002689    0.00000217    0.00001042
     atom    2 type  1   force =     0.00003642    0.00001887    0.00000349
     atom    3 type  2   force =     0.00001432    0.00000719    0.00000030
     atom    4 type  2   force =     0.00001305    0.00000692   -0.00000157
     atom    5 type  1   force =     0.00002188    0.00002464    0.00000762
     atom    6 type  1   force =     0.00003261    0.00002163    0.00000484
     atom    7 type  2   force =     0.00001575    0.00000861    0.00000221
     atom    8 type  2   force =     0.00001179    0.00000886    0.00000283
     atom    9 type  1   force =    -0.00002564   -0.00001524    0.00001786
     atom   10 type  1   force =    -0.00000825    0.00001105   -0.00001232
     atom   11 type  2   force =    -0.00000704   -0.00000360    0.00000184
     atom   12 type  2   force =    -0.00000383   -0.00000180    0.00000188
     atom   13 type  1   force =    -0.00001813   -0.00000933    0.00002306
     atom   14 type  1   force =     0.00000587   -0.00001070   -0.00000799
     atom   15 type  2   force =    -0.00000900   -0.00000386    0.00000340
     atom   16 type  2   force =    -0.00000399   -0.00000234    0.00000260
     atom   17 type  1   force =     0.00000513   -0.00001370    0.00000566
     atom   18 type  1   force =    -0.00003206   -0.00001387   -0.00000672
     atom   19 type  2   force =    -0.00000115   -0.00000339    0.00000208
     atom   20 type  2   force =    -0.00001336   -0.00000478    0.00000100
     atom   21 type  1   force =     0.00000029    0.00001036    0.00001143
     atom   22 type  1   force =    -0.00003593   -0.00002630   -0.00000075
     atom   23 type  2   force =    -0.00000187    0.00000070   -0.00000063
     atom   24 type  2   force =    -0.00001066   -0.00000752    0.00000037

     Total force =     0.000312     Total SCF correction =     0.000115
     SCF correction compared to forces is large: reduce conv_thr to get better values

     General routines

     Parallel routines

   This run was terminated on:  17:54:22  23Jul2025

   JOB DONE.
Note: The following floating-point exceptions are signalling: IEEE_INVALID_FLAG
Note: The following floating-point exceptions are signalling: IEEE_INVALID_FLAG
Note: The following floating-point exceptions are signalling: IEEE_INVALID_FLAG
Note: The following floating-point exceptions are signalling: IEEE_INVALID_FLAG
Note: The following floating-point exceptions are signalling: IEEE_INVALID_FLAG
Note: The following floating-point exceptions are signalling: IEEE_INVALID_FLAG
Note: The following floating-point exceptions are signalling: IEEE_INVALID_FLAG
Note: The following floating-point exceptions are signalling: IEEE_INVALID_FLAG