     Program PWSCF v.7.2 starts on 15Jul2025 at 20: 9:27

     Reading input from cell121.in//ZnO-2.94-1.78-121.in
Warning: card &CELL ignored
Warning: card / ignored
Warning: card &FCP ignored
Warning: card / ignored
Warning: card &RISM ignored
Warning: card / ignored

     Current dimensions of program PWSCF are:
     Max number of different atomic species (ntypx) = 10
     Max number of k-points (npk) =  40000
     Max angular momentum in pseudopotentials (lmaxx) =  4
     file Zn.upf: wavefunction(s)  3D renormalized
     Found identity + ( -0.0000  0.5000  0.0000) symmetry
     This is a supercell, fractional translations are disabled
     Message from routine setup:
     using ibrav=0 with symmetry is DISCOURAGED, use correct ibrav instead

     K-points division:     npool     =       4
     R & G space division:  proc/nbgrp/npool/nimage =       4
     Subspace diagonalization in iterative solution of the eigenvalue problem:
     a serial algorithm will be used

     Using Slab Decomposition

     bravais-lattice index     =            0
     lattice parameter (alat)  =       6.1788  a.u.
     unit-cell volume          =     659.5954 (a.u.)^3
     number of atoms/cell      =            8
     number of atomic types    =            2
     number of electrons       =        72.00
     number of Kohn-Sham states=           36
     kinetic-energy cutoff     =      50.0000  Ry
     charge density cutoff     =     400.0000  Ry
     scf convergence threshold =      1.0E-08
     mixing beta               =       0.3000
     number of iterations used =            8  plain     mixing
     Exchange-correlation= PBE
                           (   1   4   3   4   0   0   0)

     celldm(1)=   6.178822  celldm(2)=   0.000000  celldm(3)=   0.000000
     celldm(4)=   0.000000  celldm(5)=   0.000000  celldm(6)=   0.000000

     crystal axes: (cart. coord. in units of alat)
               a(1) = (   1.000000   0.000000   0.000000 )
               a(2) = (  -1.000000   1.732051   0.000000 )
               a(3) = (   0.000000   0.000000   1.614358 )

     reciprocal axes: (cart. coord. in units 2 pi/alat)
               b(1) = (  1.000000  0.577350 -0.000000 )
               b(2) = (  0.000000  0.577350  0.000000 )
               b(3) = (  0.000000 -0.000000  0.619441 )

     PseudoPot. # 1 for Zn read from file:
     /home/jvc/QEspresso7.2/ZnO_database/pseudos/Zn.upf
     MD5 check sum: 7f56cabf9682ed8c977c2f7d0c5985c5
     Pseudo is Ultrasoft + core correction, Zval = 12.0
     Generated using &quot;atomic&quot; code by A. Dal Corso  v.6.2.2
     Using radial grid of 1201 points,  6 beta functions with:
                l(1) =   0
                l(2) =   0
                l(3) =   1
                l(4) =   1
                l(5) =   2
                l(6) =   2
     Q(r) pseudized with 0 coefficients

     PseudoPot. # 2 for O  read from file:
     /home/jvc/QEspresso7.2/ZnO_database/pseudos/O.upf
     MD5 check sum: 91400c9766925bcf19f520983a725ff0
     Pseudo is Ultrasoft + core correction, Zval =  6.0
     Generated using &quot;atomic&quot; code by A. Dal Corso  v.6.3MaX
     Using radial grid of 1095 points,  4 beta functions with:
                l(1) =   0
                l(2) =   0
                l(3) =   1
                l(4) =   1
     Q(r) pseudized with 0 coefficients

     atomic species   valence    mass     pseudopotential
        Zn            12.00    65.38000     Zn( 1.00)
        O              6.00    15.99900     O ( 1.00)

      2 Sym. Ops. (no inversion) found

                                    s                        frac. trans.

      isym =  1     identity

 cryst.   s( 1) = (     1          0          0      )
                  (     0          1          0      )
                  (     0          0          1      )

 cart.    s( 1) = (  1.0000000 -0.0000000  0.0000000 )
                  (  0.0000000  1.0000000  0.0000000 )
                  (  0.0000000  0.0000000  1.0000000 )

      isym =  2     inv. 180 deg rotation - cart. axis [1,0,0]

 cryst.   s( 2) = (    -1          0          0      )
                  (     2          1          0      )
                  (     0          0          1      )

 cart.    s( 2) = ( -1.0000000  0.0000000  0.0000000 )
                  (  0.0000000  1.0000000  0.0000000 )
                  (  0.0000000  0.0000000  1.0000000 )

   Cartesian axes

     site n.     atom                  positions (alat units)
         1           Zn  tau(   1) = (   0.5000000   0.2886751   0.8082020  )
         2           Zn  tau(   2) = (   0.0000000   0.5773503   0.0010228  )
         3           O   tau(   3) = (   0.5000000   0.2886751   1.4201130  )
         4           O   tau(   4) = (   0.0000000   0.5773503   0.6129338  )
         5           Zn  tau(   5) = (   0.0000000   1.1547005   0.8082020  )
         6           Zn  tau(   6) = (  -0.5000000   1.4433757   0.0010228  )
         7           O   tau(   7) = (   0.0000000   1.1547005   1.4201130  )
         8           O   tau(   8) = (  -0.5000000   1.4433757   0.6129338  )

   Crystallographic axes

     site n.     atom                  positions (cryst. coord.)
         1           Zn  tau(   1) = (  0.6666667  0.1666667  0.5006336  )
         2           Zn  tau(   2) = (  0.3333333  0.3333333  0.0006336  )
         3           O   tau(   3) = (  0.6666667  0.1666667  0.8796764  )
         4           O   tau(   4) = (  0.3333333  0.3333333  0.3796764  )
         5           Zn  tau(   5) = (  0.6666667  0.6666667  0.5006336  )
         6           Zn  tau(   6) = (  0.3333333  0.8333333  0.0006336  )
         7           O   tau(   7) = (  0.6666667  0.6666667  0.8796764  )
         8           O   tau(   8) = (  0.3333333  0.8333333  0.3796764  )

     number of k points=    40
                       cart. coord. in units 2pi/alat
        k(    1) = (   0.0000000   0.0000000   0.0000000), wk =   0.0185185
        k(    2) = (   0.0000000   0.0000000   0.1032402), wk =   0.0370370
        k(    3) = (   0.0000000   0.0000000   0.2064804), wk =   0.0370370
        k(    4) = (   0.0000000   0.0000000  -0.3097206), wk =   0.0185185
        k(    5) = (   0.0000000   0.1924501   0.0000000), wk =   0.0370370
        k(    6) = (   0.0000000   0.1924501   0.1032402), wk =   0.0370370
        k(    7) = (   0.0000000   0.1924501   0.2064804), wk =   0.0370370
        k(    8) = (   0.0000000   0.1924501  -0.3097206), wk =   0.0370370
        k(    9) = (   0.1666667   0.0962250   0.0000000), wk =   0.0740741
        k(   10) = (   0.1666667   0.0962250   0.1032402), wk =   0.0740741
        k(   11) = (   0.1666667   0.0962250   0.2064804), wk =   0.0740741
        k(   12) = (   0.1666667   0.0962250  -0.3097206), wk =   0.0740741
        k(   13) = (   0.1666667   0.2886751   0.0000000), wk =   0.0370370
        k(   14) = (   0.1666667   0.2886751   0.1032402), wk =   0.0740741
        k(   15) = (   0.1666667   0.2886751   0.2064804), wk =   0.0740741
        k(   16) = (   0.1666667   0.2886751  -0.3097206), wk =   0.0370370
        k(   17) = (   0.3333333   0.1924501   0.0000000), wk =   0.0740741
        k(   18) = (   0.3333333   0.1924501   0.1032402), wk =   0.0740741
        k(   19) = (   0.3333333   0.1924501   0.2064804), wk =   0.0740741
        k(   20) = (   0.3333333   0.1924501  -0.3097206), wk =   0.0740741
        k(   21) = (   0.3333333  -0.0000000   0.0000000), wk =   0.0370370
        k(   22) = (   0.3333333  -0.0000000   0.1032402), wk =   0.0740741
        k(   23) = (   0.3333333  -0.0000000   0.2064804), wk =   0.0740741
        k(   24) = (   0.3333333  -0.0000000  -0.3097206), wk =   0.0370370
        k(   25) = (  -0.5000000  -0.2886751   0.0000000), wk =   0.0185185
        k(   26) = (  -0.5000000  -0.2886751   0.1032402), wk =   0.0370370
        k(   27) = (  -0.5000000  -0.2886751   0.2064804), wk =   0.0370370
        k(   28) = (  -0.5000000  -0.2886751  -0.3097206), wk =   0.0185185
        k(   29) = (  -0.5000000  -0.0962250   0.0000000), wk =   0.0370370
        k(   30) = (  -0.5000000  -0.0962250   0.1032402), wk =   0.0370370
        k(   31) = (  -0.5000000  -0.0962250   0.2064804), wk =   0.0370370
        k(   32) = (  -0.5000000  -0.0962250  -0.3097206), wk =   0.0370370
        k(   33) = (   0.0000000   0.1924501  -0.1032402), wk =   0.0370370
        k(   34) = (   0.0000000   0.1924501  -0.2064804), wk =   0.0370370
        k(   35) = (  -0.1666667   0.0962250  -0.1032402), wk =   0.0740741
        k(   36) = (  -0.1666667   0.0962250  -0.2064804), wk =   0.0740741
        k(   37) = (  -0.3333333   0.1924501  -0.1032402), wk =   0.0740741
        k(   38) = (  -0.3333333   0.1924501  -0.2064804), wk =   0.0740741
        k(   39) = (   0.5000000  -0.0962250  -0.1032402), wk =   0.0370370
        k(   40) = (   0.5000000  -0.0962250  -0.2064804), wk =   0.0370370

                       cryst. coord.
        k(    1) = (   0.0000000   0.0000000   0.0000000), wk =   0.0185185
        k(    2) = (   0.0000000   0.0000000   0.1666667), wk =   0.0370370
        k(    3) = (   0.0000000   0.0000000   0.3333333), wk =   0.0370370
        k(    4) = (   0.0000000   0.0000000  -0.5000000), wk =   0.0185185
        k(    5) = (   0.0000000   0.3333333   0.0000000), wk =   0.0370370
        k(    6) = (   0.0000000   0.3333333   0.1666667), wk =   0.0370370
        k(    7) = (   0.0000000   0.3333333   0.3333333), wk =   0.0370370
        k(    8) = (   0.0000000   0.3333333  -0.5000000), wk =   0.0370370
        k(    9) = (   0.1666667  -0.0000000   0.0000000), wk =   0.0740741
        k(   10) = (   0.1666667  -0.0000000   0.1666667), wk =   0.0740741
        k(   11) = (   0.1666667  -0.0000000   0.3333333), wk =   0.0740741
        k(   12) = (   0.1666667  -0.0000000  -0.5000000), wk =   0.0740741
        k(   13) = (   0.1666667   0.3333333   0.0000000), wk =   0.0370370
        k(   14) = (   0.1666667   0.3333333   0.1666667), wk =   0.0740741
        k(   15) = (   0.1666667   0.3333333   0.3333333), wk =   0.0740741
        k(   16) = (   0.1666667   0.3333333  -0.5000000), wk =   0.0370370
        k(   17) = (   0.3333333  -0.0000000   0.0000000), wk =   0.0740741
        k(   18) = (   0.3333333  -0.0000000   0.1666667), wk =   0.0740741
        k(   19) = (   0.3333333  -0.0000000   0.3333333), wk =   0.0740741
        k(   20) = (   0.3333333  -0.0000000  -0.5000000), wk =   0.0740741
        k(   21) = (   0.3333333  -0.3333333   0.0000000), wk =   0.0370370
        k(   22) = (   0.3333333  -0.3333333   0.1666667), wk =   0.0740741
        k(   23) = (   0.3333333  -0.3333333   0.3333333), wk =   0.0740741
        k(   24) = (   0.3333333  -0.3333333  -0.5000000), wk =   0.0370370
        k(   25) = (  -0.5000000   0.0000000   0.0000000), wk =   0.0185185
        k(   26) = (  -0.5000000   0.0000000   0.1666667), wk =   0.0370370
        k(   27) = (  -0.5000000   0.0000000   0.3333333), wk =   0.0370370
        k(   28) = (  -0.5000000   0.0000000  -0.5000000), wk =   0.0185185
        k(   29) = (  -0.5000000   0.3333333   0.0000000), wk =   0.0370370
        k(   30) = (  -0.5000000   0.3333333   0.1666667), wk =   0.0370370
        k(   31) = (  -0.5000000   0.3333333   0.3333333), wk =   0.0370370
        k(   32) = (  -0.5000000   0.3333333  -0.5000000), wk =   0.0370370
        k(   33) = (   0.0000000   0.3333333  -0.1666667), wk =   0.0370370
        k(   34) = (   0.0000000   0.3333333  -0.3333333), wk =   0.0370370
        k(   35) = (  -0.1666667   0.3333333  -0.1666667), wk =   0.0740741
        k(   36) = (  -0.1666667   0.3333333  -0.3333333), wk =   0.0740741
        k(   37) = (  -0.3333333   0.6666667  -0.1666667), wk =   0.0740741
        k(   38) = (  -0.3333333   0.6666667  -0.3333333), wk =   0.0740741
        k(   39) = (   0.5000000  -0.6666667  -0.1666667), wk =   0.0370370
        k(   40) = (   0.5000000  -0.6666667  -0.3333333), wk =   0.0370370

     Check: negative core charge=   -0.000002

     Initial potential from superposition of free atoms

     starting charge      71.9851, renormalised to      72.0000
     Starting wfcs are   52 randomized atomic wfcs

     Self-consistent Calculation

     iteration #  1     ecut=    50.00 Ry     beta= 0.30
     Davidson diagonalization with overlap

     ethr =  1.00E-02,  avg # of iterations =  1.9

     total energy              =    -722.95862839 Ry
     estimated scf accuracy    <       1.38398101 Ry

[...]

     c_bands:  2 eigenvalues not converged
     c_bands:  1 eigenvalues not converged
     ethr =  6.07E-08,  avg # of iterations = 12.6

[...]

     total energy              =    -723.27377570 Ry
     estimated scf accuracy    <       0.00000041 Ry

     iteration # 24     ecut=    50.00 Ry     beta= 0.30
     Davidson diagonalization with overlap

     ethr =  9.65E-11,  avg # of iterations =  7.8

     End of self-consistent calculation

          k = 0.0000 0.0000 0.0000 (  3907 PWs)   bands (ev):

   -10.9983 -10.3491 -10.3180 -10.1405   1.1141   1.3159   1.3159   1.3230
     1.3565   1.4393   1.5014   1.5014   1.5609   1.9413   1.9539   2.0753
     2.4282   2.4282   2.4641   2.5908   2.6248   2.6248   2.6705   2.7417
     2.8918   3.2047   3.4269   4.1407   4.7141   5.6403   6.0831   6.1252
     6.1252   6.8051   6.8875   6.8875

     occupation numbers
     1.0000   1.0000   1.0000   1.0000   1.0000   1.0000   1.0000   1.0000
     1.0000   1.0000   1.0000   1.0000   1.0000   1.0000   1.0000   1.0000
     1.0000   1.0000   1.0000   1.0000   1.0000   1.0000   1.0000   1.0000
     1.0000   1.0000   1.0000   1.0000   1.0000   1.0000   1.0000   1.0000
     1.0000   1.0000   1.0000   1.0000

[...]

          k =-0.5000-0.2887 0.0000 (  3916 PWs)   bands (ev):

[...]

          k =-0.3333 0.1925-0.2065 (  3948 PWs)   bands (ev):

[...]

          k = 0.5000-0.0962-0.2065 (  3952 PWs)   bands (ev):

   -10.2960 -10.2960 -10.1857 -10.1857   1.1038   1.1038   1.1968   1.1968
     1.5839   1.5839   1.7339   1.7339   1.8904   1.8904   1.9133   1.9134
     2.4957   2.4957   2.5676   2.5676   2.6913   2.6913   2.8116   2.8116
     3.2568   3.2568   3.5916   3.5916   4.5351   4.5351   5.0818   5.0818
     5.3814   5.3814   5.8449   5.8449

     occupation numbers
     1.0000   1.0000   1.0000   1.0000   1.0000   1.0000   1.0000   1.0000
     1.0000   1.0000   1.0000   1.0000   1.0000   1.0000   1.0000   1.0000
     1.0000   1.0000   1.0000   1.0000   1.0000   1.0000   1.0000   1.0000
     1.0000   1.0000   1.0000   1.0000   1.0000   1.0000   1.0000   1.0000
     1.0000   1.0000   1.0000   1.0000

     highest occupied level (ev):     6.8875

!    total energy              =    -723.27377579 Ry
     estimated scf accuracy    <          7.0E-09 Ry

     The total energy is the sum of the following terms:
     one-electron contribution =    -309.05012069 Ry
     hartree contribution      =     236.57789183 Ry
     xc contribution           =    -219.09208296 Ry
     ewald contribution        =    -431.70946397 Ry

     convergence has been achieved in  24 iterations

     Forces acting on atoms (cartesian axes, Ry/au):

     atom    1 type  1   force =     0.00000000    0.00000163    0.00007394
     atom    2 type  1   force =     0.00000000   -0.00001220    0.00005237
     atom    3 type  2   force =     0.00000000   -0.00000230   -0.00006298
     atom    4 type  2   force =     0.00000000    0.00000277   -0.00006233
     atom    5 type  1   force =     0.00000000    0.00001058    0.00007681
     atom    6 type  1   force =     0.00000000    0.00000162    0.00004846
     atom    7 type  2   force =     0.00000000   -0.00000135   -0.00006151
     atom    8 type  2   force =     0.00000000   -0.00000075   -0.00006475
     The non-local contrib.  to forces
     atom    1 type  1   force =     0.00000000   -0.00000146   -0.00483022
     atom    2 type  1   force =     0.00000000   -0.00000087   -0.00483776
     atom    3 type  2   force =     0.00000000    0.00000065    0.00575868
     atom    4 type  2   force =     0.00000000    0.00000753    0.00575769
     atom    5 type  1   force =     0.00000000    0.00000304   -0.00483031
     atom    6 type  1   force =     0.00000000    0.00000119   -0.00483822
     atom    7 type  2   force =     0.00000000   -0.00000289    0.00576030
     atom    8 type  2   force =     0.00000000    0.00000064    0.00575466
     The ionic contribution  to forces
     atom    1 type  1   force =     0.00000000    0.00000001    0.06271747
     atom    2 type  1   force =    -0.00000000    0.00000001    0.06271747
     atom    3 type  2   force =     0.00000000    0.00000001   -0.06271747
     atom    4 type  2   force =    -0.00000000    0.00000000   -0.06271747
     atom    5 type  1   force =    -0.00000000   -0.00000000    0.06271747
     atom    6 type  1   force =     0.00000000   -0.00000002    0.06271747
     atom    7 type  2   force =    -0.00000000   -0.00000000   -0.06271747
     atom    8 type  2   force =     0.00000000   -0.00000001   -0.06271747
     The local contribution  to forces
     atom    1 type  1   force =    -0.00000009   -0.00000055   -0.05830076
     atom    2 type  1   force =     0.00000000    0.00000618   -0.05827827
     atom    3 type  2   force =    -0.00000002   -0.00000982    0.05697768
     atom    4 type  2   force =     0.00000000   -0.00000850    0.05695370
     atom    5 type  1   force =    -0.00000009   -0.00000788   -0.05829947
     atom    6 type  1   force =     0.00000009   -0.00000151   -0.05827498
     atom    7 type  2   force =    -0.00000002    0.00000710    0.05695509
     atom    8 type  2   force =     0.00000002   -0.00000179    0.05694750
     The core correction contribution to forces
     atom    1 type  1   force =    -0.00000001    0.00000010    0.00046407
     atom    2 type  1   force =    -0.00000000    0.00000006    0.00046398
     atom    3 type  2   force =     0.00000000   -0.00000004   -0.00006505
     atom    4 type  2   force =    -0.00000000   -0.00000013   -0.00006512
     atom    5 type  1   force =    -0.00000001   -0.00000018    0.00046386
     atom    6 type  1   force =     0.00000001   -0.00000010    0.00046404
     atom    7 type  2   force =     0.00000000    0.00000006   -0.00006517
     atom    8 type  2   force =    -0.00000000   -0.00000001   -0.00006511
     The Hubbard contrib.    to forces
     atom    1 type  1   force =     0.00000000    0.00000000    0.00000000
     atom    2 type  1   force =     0.00000000    0.00000000    0.00000000
     atom    3 type  2   force =     0.00000000    0.00000000    0.00000000
     atom    4 type  2   force =     0.00000000    0.00000000    0.00000000
     atom    5 type  1   force =     0.00000000    0.00000000    0.00000000
     atom    6 type  1   force =     0.00000000    0.00000000    0.00000000
     atom    7 type  2   force =     0.00000000    0.00000000    0.00000000
     atom    8 type  2   force =     0.00000000    0.00000000    0.00000000
     The SCF correction term to forces
     atom    1 type  1   force =    -0.00000000    0.00000423    0.00002584
     atom    2 type  1   force =     0.00000000   -0.00001689   -0.00001058
     atom    3 type  2   force =    -0.00000000    0.00000760   -0.00001434
     atom    4 type  2   force =     0.00000000    0.00000456    0.00001133
     atom    5 type  1   force =    -0.00000000    0.00001630    0.00002774
     atom    6 type  1   force =     0.00000000    0.00000275   -0.00001737
     atom    7 type  2   force =    -0.00000000   -0.00000494    0.00000820
     atom    8 type  2   force =     0.00000000    0.00000112    0.00001814

     Total force =     0.000180     Total SCF correction =     0.000057
     SCF correction compared to forces is large: reduce conv_thr to get better values

     General routines

     Parallel routines

   This run was terminated on:  20:11: 3  15Jul2025

   JOB DONE.
Note: The following floating-point exceptions are signalling: IEEE_INVALID_FLAG
Note: The following floating-point exceptions are signalling: IEEE_INVALID_FLAG
Note: The following floating-point exceptions are signalling: IEEE_INVALID_FLAG
Note: The following floating-point exceptions are signalling: IEEE_INVALID_FLAG