     Program PWSCF v.7.2 starts on 23Aug2025 at 21:55:42

     Reading input from /home/jvc/QEspresso7.2/ZnO_database/scripts/cell221.in/ZnO-3.34-1.74-221.in
Warning: card &CELL ignored
Warning: card / ignored
Warning: card &FCP ignored
Warning: card / ignored
Warning: card &RISM ignored
Warning: card / ignored

     Current dimensions of program PWSCF are:
     Max number of different atomic species (ntypx) = 10
     Max number of k-points (npk) =  40000
     Max angular momentum in pseudopotentials (lmaxx) =  4
     file Zn.upf: wavefunction(s)  3D renormalized
     Found identity + (  0.0000 -0.5000  0.0000) symmetry
     This is a supercell, fractional translations are disabled
     Message from routine setup:
     using ibrav=0 with symmetry is DISCOURAGED, use correct ibrav instead

     K-points division:     npool     =       8
     band groups division:  nbgrp     =       4
     Subspace diagonalization in iterative solution of the eigenvalue problem:
     a serial algorithm will be used

     Using Slab Decomposition

     bravais-lattice index     =            0
     lattice parameter (alat)  =      12.6049  a.u.
     unit-cell volume          =    1511.9542 (a.u.)^3
     number of atoms/cell      =           16
     number of atomic types    =            2
     number of electrons       =       144.00
     number of Kohn-Sham states=           72
     kinetic-energy cutoff     =      50.0000  Ry
     charge density cutoff     =     400.0000  Ry
     scf convergence threshold =      1.0E-08
     mixing beta               =       0.3000
     number of iterations used =            8  plain     mixing
     Exchange-correlation= PBE
                           (   1   4   3   4   0   0   0)

     celldm(1)=  12.604862  celldm(2)=   0.000000  celldm(3)=   0.000000
     celldm(4)=   0.000000  celldm(5)=   0.000000  celldm(6)=   0.000000

     crystal axes: (cart. coord. in units of alat)
               a(1) = (   1.000000   0.000000   0.000000 )
               a(2) = (  -0.500000   0.866025   0.000000 )
               a(3) = (   0.000000   0.000000   0.871754 )

     reciprocal axes: (cart. coord. in units 2 pi/alat)
               b(1) = (  1.000000  0.577350 -0.000000 )
               b(2) = (  0.000000  1.154701  0.000000 )
               b(3) = (  0.000000 -0.000000  1.147113 )

     PseudoPot. # 1 for Zn read from file:
     /home/jvc/QEspresso7.2/ZnO_database/pseudos/Zn.upf
     MD5 check sum: 7f56cabf9682ed8c977c2f7d0c5985c5
     Pseudo is Ultrasoft + core correction, Zval = 12.0
     Generated using &quot;atomic&quot; code by A. Dal Corso  v.6.2.2
     Using radial grid of 1201 points,  6 beta functions with:
                l(1) =   0
                l(2) =   0
                l(3) =   1
                l(4) =   1
                l(5) =   2
                l(6) =   2
     Q(r) pseudized with 0 coefficients

     PseudoPot. # 2 for O  read from file:
     /home/jvc/QEspresso7.2/ZnO_database/pseudos/O.upf
     MD5 check sum: 91400c9766925bcf19f520983a725ff0
     Pseudo is Ultrasoft + core correction, Zval =  6.0
     Generated using &quot;atomic&quot; code by A. Dal Corso  v.6.3MaX
     Using radial grid of 1095 points,  4 beta functions with:
                l(1) =   0
                l(2) =   0
                l(3) =   1
                l(4) =   1
     Q(r) pseudized with 0 coefficients

     atomic species   valence    mass     pseudopotential
        Zn            12.00    65.38000     Zn( 1.00)
        O              6.00    15.99900     O ( 1.00)

      6 Sym. Ops. (no inversion) found

                                    s                        frac. trans.

      isym =  1     identity

 cryst.   s( 1) = (     1          0          0      )
                  (     0          1          0      )
                  (     0          0          1      )

 cart.    s( 1) = (  1.0000000  0.0000000  0.0000000 )
                  (  0.0000000  1.0000000  0.0000000 )
                  (  0.0000000  0.0000000  1.0000000 )

      isym =  2     120 deg rotation - cryst. axis [0,0,1]

[...]

      isym =  3     120 deg rotation - cryst. axis [0,0,-1]

[...]

      isym =  4     inv. 180 deg rotation - cart. axis [1,0,0]

[...]

      isym =  5     inv. 180 deg rotation - cryst. axis [0,1,0]

[...]

      isym =  6     inv. 180 deg rotation - cryst. axis [1,1,0]

 cryst.   s( 6) = (     0         -1          0      )
                  (    -1          0          0      )
                  (     0          0          1      )

 cart.    s( 6) = (  0.5000000 -0.8660254  0.0000000 )
                  ( -0.8660254 -0.5000000  0.0000000 )
                  (  0.0000000  0.0000000  1.0000000 )

   Cartesian axes

     site n.     atom                  positions (alat units)
         1           Zn  tau(   1) = (   0.2500000   0.1443376   0.4364291  )
         2           Zn  tau(   2) = (  -0.0000000   0.2886751   0.0005523  )
         3           O   tau(   3) = (   0.2500000   0.1443376   0.7668610  )
         4           O   tau(   4) = (  -0.0000000   0.2886751   0.3309842  )
         5           Zn  tau(   5) = (   0.0000000   0.5773503   0.4364291  )
         6           Zn  tau(   6) = (  -0.2500000   0.7216878   0.0005523  )
         7           O   tau(   7) = (   0.0000000   0.5773503   0.7668610  )
         8           O   tau(   8) = (  -0.2500000   0.7216878   0.3309842  )
         9           Zn  tau(   9) = (   0.7500000   0.1443376   0.4364291  )
        10           Zn  tau(  10) = (   0.5000000   0.2886751   0.0005523  )
        11           O   tau(  11) = (   0.7500000   0.1443376   0.7668610  )
        12           O   tau(  12) = (   0.5000000   0.2886751   0.3309842  )
        13           Zn  tau(  13) = (   0.5000000   0.5773503   0.4364291  )
        14           Zn  tau(  14) = (   0.2500000   0.7216878   0.0005523  )
        15           O   tau(  15) = (   0.5000000   0.5773503   0.7668610  )
        16           O   tau(  16) = (   0.2500000   0.7216878   0.3309842  )

   Crystallographic axes

     site n.     atom                  positions (cryst. coord.)
         1           Zn  tau(   1) = (  0.3333333  0.1666667  0.5006336  )
         2           Zn  tau(   2) = (  0.1666667  0.3333333  0.0006336  )
         3           O   tau(   3) = (  0.3333333  0.1666667  0.8796764  )
         4           O   tau(   4) = (  0.1666667  0.3333333  0.3796764  )
         5           Zn  tau(   5) = (  0.3333333  0.6666667  0.5006336  )
         6           Zn  tau(   6) = (  0.1666667  0.8333333  0.0006336  )
         7           O   tau(   7) = (  0.3333333  0.6666667  0.8796764  )
         8           O   tau(   8) = (  0.1666667  0.8333333  0.3796764  )
         9           Zn  tau(   9) = (  0.8333333  0.1666667  0.5006336  )
        10           Zn  tau(  10) = (  0.6666667  0.3333333  0.0006336  )
        11           O   tau(  11) = (  0.8333333  0.1666667  0.8796764  )
        12           O   tau(  12) = (  0.6666667  0.3333333  0.3796764  )
        13           Zn  tau(  13) = (  0.8333333  0.6666667  0.5006336  )
        14           Zn  tau(  14) = (  0.6666667  0.8333333  0.0006336  )
        15           O   tau(  15) = (  0.8333333  0.6666667  0.8796764  )
        16           O   tau(  16) = (  0.6666667  0.8333333  0.3796764  )

     number of k points=    34
                       cart. coord. in units 2pi/alat
        k(    1) = (   0.0000000   0.0000000   0.0000000), wk =   0.0092593
        k(    2) = (   0.0000000   0.0000000   0.1911855), wk =   0.0185185
        k(    3) = (   0.0000000   0.0000000   0.3823711), wk =   0.0185185
        k(    4) = (   0.0000000   0.0000000  -0.5735566), wk =   0.0092593
        k(    5) = (   0.0000000   0.1924501   0.0000000), wk =   0.0555556
        k(    6) = (   0.0000000   0.1924501   0.1911855), wk =   0.0555556
        k(    7) = (   0.0000000   0.1924501   0.3823711), wk =   0.0555556
        k(    8) = (   0.0000000   0.1924501  -0.5735566), wk =   0.0555556
        k(    9) = (   0.0000000   0.3849002   0.0000000), wk =   0.0555556
        k(   10) = (   0.0000000   0.3849002   0.1911855), wk =   0.0555556
        k(   11) = (   0.0000000   0.3849002   0.3823711), wk =   0.0555556
        k(   12) = (   0.0000000   0.3849002  -0.5735566), wk =   0.0555556
        k(   13) = (   0.0000000  -0.5773503   0.0000000), wk =   0.0277778
        k(   14) = (   0.0000000  -0.5773503   0.1911855), wk =   0.0555556
        k(   15) = (   0.0000000  -0.5773503   0.3823711), wk =   0.0555556
        k(   16) = (   0.0000000  -0.5773503  -0.5735566), wk =   0.0277778
        k(   17) = (   0.1666667   0.2886751   0.0000000), wk =   0.0555556
        k(   18) = (   0.1666667   0.2886751   0.1911855), wk =   0.1111111
        k(   19) = (   0.1666667   0.2886751   0.3823711), wk =   0.1111111
        k(   20) = (   0.1666667   0.2886751  -0.5735566), wk =   0.0555556
        k(   21) = (   0.1666667   0.4811252   0.0000000), wk =   0.1111111
        k(   22) = (   0.1666667   0.4811252   0.1911855), wk =   0.1111111
        k(   23) = (   0.1666667   0.4811252   0.3823711), wk =   0.1111111
        k(   24) = (   0.1666667   0.4811252  -0.5735566), wk =   0.1111111
        k(   25) = (   0.3333333   0.5773503   0.0000000), wk =   0.0185185
        k(   26) = (   0.3333333   0.5773503   0.1911855), wk =   0.0370370
        k(   27) = (   0.3333333   0.5773503   0.3823711), wk =   0.0370370
        k(   28) = (   0.3333333   0.5773503  -0.5735566), wk =   0.0185185
        k(   29) = (   0.0000000  -0.1924501   0.1911855), wk =   0.0555556
        k(   30) = (   0.0000000  -0.1924501   0.3823711), wk =   0.0555556
        k(   31) = (   0.0000000  -0.3849002   0.1911855), wk =   0.0555556
        k(   32) = (   0.0000000  -0.3849002   0.3823711), wk =   0.0555556
        k(   33) = (  -0.1666667  -0.4811252   0.1911855), wk =   0.1111111
        k(   34) = (  -0.1666667  -0.4811252   0.3823711), wk =   0.1111111

                       cryst. coord.
        k(    1) = (   0.0000000   0.0000000   0.0000000), wk =   0.0092593
        k(    2) = (   0.0000000   0.0000000   0.1666667), wk =   0.0185185
        k(    3) = (   0.0000000   0.0000000   0.3333333), wk =   0.0185185
        k(    4) = (   0.0000000   0.0000000  -0.5000000), wk =   0.0092593
        k(    5) = (   0.0000000   0.1666667   0.0000000), wk =   0.0555556
        k(    6) = (   0.0000000   0.1666667   0.1666667), wk =   0.0555556
        k(    7) = (   0.0000000   0.1666667   0.3333333), wk =   0.0555556
        k(    8) = (   0.0000000   0.1666667  -0.5000000), wk =   0.0555556
        k(    9) = (   0.0000000   0.3333333   0.0000000), wk =   0.0555556
        k(   10) = (   0.0000000   0.3333333   0.1666667), wk =   0.0555556
        k(   11) = (   0.0000000   0.3333333   0.3333333), wk =   0.0555556
        k(   12) = (   0.0000000   0.3333333  -0.5000000), wk =   0.0555556
        k(   13) = (   0.0000000  -0.5000000   0.0000000), wk =   0.0277778
        k(   14) = (   0.0000000  -0.5000000   0.1666667), wk =   0.0555556
        k(   15) = (   0.0000000  -0.5000000   0.3333333), wk =   0.0555556
[...]
        k(   28) = (   0.3333333   0.3333333  -0.5000000), wk =   0.0185185
        k(   29) = (   0.0000000  -0.1666667   0.1666667), wk =   0.0555556
        k(   30) = (   0.0000000  -0.1666667   0.3333333), wk =   0.0555556
        k(   31) = (   0.0000000  -0.3333333   0.1666667), wk =   0.0555556
        k(   32) = (   0.0000000  -0.3333333   0.3333333), wk =   0.0555556
        k(   33) = (  -0.1666667  -0.3333333   0.1666667), wk =   0.1111111
        k(   34) = (  -0.1666667  -0.3333333   0.3333333), wk =   0.1111111

     Check: negative core charge=   -0.000002

     Initial potential from superposition of free atoms

     starting charge     143.9702, renormalised to     144.0000
     Starting wfcs are  104 randomized atomic wfcs

     Self-consistent Calculation

     iteration #  1     ecut=    50.00 Ry     beta= 0.30
     Davidson diagonalization with overlap

     ethr =  1.00E-02,  avg # of iterations =  2.0

     total energy              =   -1445.72646803 Ry
     estimated scf accuracy    <       3.02704387 Ry

[...]

     c_bands:  1 eigenvalues not converged
     c_bands:  1 eigenvalues not converged
     ethr =  4.23E-08,  avg # of iterations = 12.9

[...]

     c_bands:  1 eigenvalues not converged
     c_bands:  1 eigenvalues not converged
     c_bands:  1 eigenvalues not converged
     ethr =  4.23E-08,  avg # of iterations = 17.9

[...]

     total energy              =   -1446.44129524 Ry
     estimated scf accuracy    <       0.00000002 Ry

     iteration # 31     ecut=    50.00 Ry     beta= 0.30
     Davidson diagonalization with overlap

     ethr =  1.40E-11,  avg # of iterations =  2.0

     End of self-consistent calculation

          k = 0.0000 0.0000 0.0000 (  9007 PWs)   bands (ev):

   -11.9127 -11.5006 -11.4035 -11.4035 -11.4035 -11.2794 -11.2794 -11.2794
    -0.1405  -0.1405  -0.1405  -0.0828  -0.0828  -0.0270   0.0288   0.0288
     0.0509   0.0509   0.0509   0.1378   0.1378   0.1378   0.2847   0.4478
     0.4478   0.4478   0.4546   0.4546   0.4546   0.6400   0.6400   0.6400
     0.7301   0.7301   0.8118   0.8118   0.8118   0.8372   0.8372   0.8505
     0.8505   0.8505   0.8835   0.8835   0.8835   0.9469   0.9469   0.9469
     1.2567   1.4420   1.4421   1.4421   1.8705   1.8705   1.8705   2.7723
     2.7723   2.7723   3.5049   3.5049   3.5049   3.9895   3.9895   3.9895
     4.3738   4.3738   4.3738   4.6366   4.6366   4.8641   5.1118   5.1118

     occupation numbers
     1.0000   1.0000   1.0000   1.0000   1.0000   1.0000   1.0000   1.0000
     1.0000   1.0000   1.0000   1.0000   1.0000   1.0000   1.0000   1.0000
     1.0000   1.0000   1.0000   1.0000   1.0000   1.0000   1.0000   1.0000
     1.0000   1.0000   1.0000   1.0000   1.0000   1.0000   1.0000   1.0000
     1.0000   1.0000   1.0000   1.0000   1.0000   1.0000   1.0000   1.0000
     1.0000   1.0000   1.0000   1.0000   1.0000   1.0000   1.0000   1.0000
     1.0000   1.0000   1.0000   1.0000   1.0000   1.0000   1.0000   1.0000
     1.0000   1.0000   1.0000   1.0000   1.0000   1.0000   1.0000   1.0000
     1.0000   1.0000   1.0000   1.0000   1.0000   1.0000   1.0000   1.0000

[...]

          k = 0.0000-0.3849 0.3824 (  9032 PWs)   bands (ev):

[...]

          k =-0.1667-0.4811 0.1912 (  9041 PWs)   bands (ev):

[...]

          k =-0.1667-0.4811 0.3824 (  9018 PWs)   bands (ev):

   -11.6446 -11.5356 -11.4808 -11.4523 -11.4045 -11.3508 -11.3240 -11.2904
    -0.1947  -0.1852  -0.1072  -0.0903  -0.0901  -0.0462  -0.0053   0.0515
     0.0861   0.1172   0.1323   0.1639   0.1700   0.1948   0.2136   0.2215
     0.2407   0.2696   0.3112   0.3128   0.3296   0.3452   0.5041   0.5364
     0.7307   0.7330   0.7400   0.7542   0.7638   0.7851   0.7872   0.8163
     0.8184   0.8317   0.8493   0.8624   0.8789   0.9274   0.9860   1.0616
     1.6230   1.7932   2.0004   2.1508   2.2154   2.3252   2.6053   2.6956
     3.0822   3.3074   3.3099   3.3490   3.5217   3.6966   3.6969   3.9778
     3.9927   4.0011   4.1960   4.2283   4.2624   4.3782   4.3830   4.6157

     occupation numbers
     1.0000   1.0000   1.0000   1.0000   1.0000   1.0000   1.0000   1.0000
     1.0000   1.0000   1.0000   1.0000   1.0000   1.0000   1.0000   1.0000
     1.0000   1.0000   1.0000   1.0000   1.0000   1.0000   1.0000   1.0000
     1.0000   1.0000   1.0000   1.0000   1.0000   1.0000   1.0000   1.0000
     1.0000   1.0000   1.0000   1.0000   1.0000   1.0000   1.0000   1.0000
     1.0000   1.0000   1.0000   1.0000   1.0000   1.0000   1.0000   1.0000
     1.0000   1.0000   1.0000   1.0000   1.0000   1.0000   1.0000   1.0000
     1.0000   1.0000   1.0000   1.0000   1.0000   1.0000   1.0000   1.0000
     1.0000   1.0000   1.0000   1.0000   1.0000   1.0000   1.0000   1.0000

     highest occupied level (ev):     5.1118

!    total energy              =   -1446.44129524 Ry
     estimated scf accuracy    <          6.7E-09 Ry

     The total energy is the sum of the following terms:
     one-electron contribution =    -681.09040650 Ry
     hartree contribution      =     496.00769932 Ry
     xc contribution           =    -437.16713021 Ry
     ewald contribution        =    -824.19145784 Ry

     convergence has been achieved in  31 iterations

     Forces acting on atoms (cartesian axes, Ry/au):

     atom    1 type  1   force =     0.00000398    0.00000230    0.00129277
     atom    2 type  1   force =     0.00000000    0.00000584    0.00127592
     atom    3 type  2   force =    -0.00000044   -0.00000025   -0.00128521
     atom    4 type  2   force =     0.00000000   -0.00000023   -0.00128765
     atom    5 type  1   force =     0.00000000   -0.00000000    0.00130020
     atom    6 type  1   force =     0.00000506   -0.00000292    0.00127592
     atom    7 type  2   force =     0.00000000   -0.00000000   -0.00128389
     atom    8 type  2   force =    -0.00000020    0.00000011   -0.00128765
     atom    9 type  1   force =    -0.00000398    0.00000230    0.00129277
     atom   10 type  1   force =     0.00000000    0.00000000    0.00128269
     atom   11 type  2   force =     0.00000044   -0.00000025   -0.00128521
     atom   12 type  2   force =     0.00000000    0.00000000   -0.00128652
     atom   13 type  1   force =     0.00000000   -0.00000460    0.00129277
     atom   14 type  1   force =    -0.00000506   -0.00000292    0.00127592
     atom   15 type  2   force =     0.00000000    0.00000050   -0.00128521
     atom   16 type  2   force =     0.00000020    0.00000011   -0.00128765
     The non-local contrib.  to forces
     atom    1 type  1   force =     0.00000261    0.00000151    0.19304805
     atom    2 type  1   force =     0.00000000    0.00000372    0.19303607
     atom    3 type  2   force =    -0.00000105   -0.00000061    0.20350475
     atom    4 type  2   force =     0.00000000   -0.00000090    0.20350096
     atom    5 type  1   force =     0.00000000    0.00000000    0.19305184
     atom    6 type  1   force =     0.00000322   -0.00000186    0.19303607
     atom    7 type  2   force =     0.00000000   -0.00000000    0.20350761
     atom    8 type  2   force =    -0.00000078    0.00000045    0.20350096
     atom    9 type  1   force =    -0.00000261    0.00000151    0.19304805
     atom   10 type  1   force =     0.00000000    0.00000000    0.19303917
     atom   11 type  2   force =     0.00000105   -0.00000061    0.20350475
     atom   12 type  2   force =     0.00000000    0.00000000    0.20350373
     atom   13 type  1   force =    -0.00000000   -0.00000302    0.19304805
     atom   14 type  1   force =    -0.00000322   -0.00000186    0.19303607
     atom   15 type  2   force =     0.00000000    0.00000121    0.20350475
     atom   16 type  2   force =     0.00000078    0.00000045    0.20350096
     The ionic contribution  to forces
     atom    1 type  1   force =     0.00000000    0.00000001    1.51200264
     atom    2 type  1   force =     0.00000001    0.00000000    1.51200265
     atom    3 type  2   force =     0.00000000    0.00000000   -1.51200264
     atom    4 type  2   force =     0.00000001    0.00000000   -1.51200265
     atom    5 type  1   force =     0.00000000    0.00000001    1.51200264
     atom    6 type  1   force =     0.00000001    0.00000000    1.51200265
     atom    7 type  2   force =     0.00000000    0.00000000   -1.51200264
     atom    8 type  2   force =     0.00000001    0.00000000   -1.51200265
     atom    9 type  1   force =    -0.00000002   -0.00000000    1.51200264
     atom   10 type  1   force =     0.00000000   -0.00000001    1.51200264
     atom   11 type  2   force =    -0.00000001    0.00000000   -1.51200264
     atom   12 type  2   force =     0.00000000   -0.00000001   -1.51200264
     atom   13 type  1   force =    -0.00000002   -0.00000000    1.51200264
     atom   14 type  1   force =     0.00000000   -0.00000001    1.51200264
     atom   15 type  2   force =    -0.00000001    0.00000000   -1.51200264
     atom   16 type  2   force =     0.00000000   -0.00000001   -1.51200264
     The local contribution  to forces
     atom    1 type  1   force =    -0.00000844   -0.00000477   -1.69147429
     atom    2 type  1   force =     0.00000009   -0.00001238   -1.69144489
     atom    3 type  2   force =    -0.00000231   -0.00000131    1.30899666
     atom    4 type  2   force =     0.00000002   -0.00000112    1.30898575
     atom    5 type  1   force =     0.00000000    0.00000010   -1.69148731
     atom    6 type  1   force =    -0.00001068    0.00000627   -1.69144489
     atom    7 type  2   force =    -0.00000000    0.00000003    1.30899901
     atom    8 type  2   force =    -0.00000096    0.00000058    1.30898575
     atom    9 type  1   force =     0.00000827   -0.00000477   -1.69147429
     atom   10 type  1   force =     0.00000009    0.00000005   -1.69145602
     atom   11 type  2   force =     0.00000227   -0.00000131    1.30899666
     atom   12 type  2   force =     0.00000002    0.00000001    1.30898691
     atom   13 type  1   force =    -0.00000017    0.00000985   -1.69147429
     atom   14 type  1   force =     0.00001086    0.00000627   -1.69144489
     atom   15 type  2   force =    -0.00000005    0.00000270    1.30899666
     atom   16 type  2   force =     0.00000101    0.00000058    1.30898575
     The core correction contribution to forces
     atom    1 type  1   force =     0.00000030    0.00000019   -0.01230271
     atom    2 type  1   force =     0.00000001    0.00000044   -0.01230296
     atom    3 type  2   force =     0.00000004    0.00000002   -0.00178066
     atom    4 type  2   force =    -0.00000000    0.00000004   -0.00178063
     atom    5 type  1   force =    -0.00000000    0.00000001   -0.01230238
     atom    6 type  1   force =     0.00000039   -0.00000021   -0.01230296
     atom    7 type  2   force =     0.00000000   -0.00000000   -0.00178067
     atom    8 type  2   force =     0.00000004   -0.00000002   -0.00178063
     atom    9 type  1   force =    -0.00000032    0.00000019   -0.01230271
     atom   10 type  1   force =     0.00000001    0.00000001   -0.01230268
     atom   11 type  2   force =    -0.00000004    0.00000002   -0.00178066
     atom   12 type  2   force =    -0.00000000   -0.00000000   -0.00178064
     atom   13 type  1   force =    -0.00000002   -0.00000033   -0.01230271
     atom   14 type  1   force =    -0.00000037   -0.00000021   -0.01230296
     atom   15 type  2   force =     0.00000000   -0.00000004   -0.00178066
     atom   16 type  2   force =    -0.00000004   -0.00000002   -0.00178063
     The Hubbard contrib.    to forces
     atom    1 type  1   force =     0.00000000    0.00000000    0.00000000
     atom    2 type  1   force =     0.00000000    0.00000000    0.00000000
     atom    3 type  2   force =     0.00000000    0.00000000    0.00000000
     atom    4 type  2   force =     0.00000000    0.00000000    0.00000000
     atom    5 type  1   force =     0.00000000    0.00000000    0.00000000
     atom    6 type  1   force =     0.00000000    0.00000000    0.00000000
     atom    7 type  2   force =     0.00000000    0.00000000    0.00000000
     atom    8 type  2   force =     0.00000000    0.00000000    0.00000000
     atom    9 type  1   force =     0.00000000    0.00000000    0.00000000
     atom   10 type  1   force =     0.00000000    0.00000000    0.00000000
     atom   11 type  2   force =     0.00000000    0.00000000    0.00000000
     atom   12 type  2   force =     0.00000000    0.00000000    0.00000000
     atom   13 type  1   force =     0.00000000    0.00000000    0.00000000
     atom   14 type  1   force =     0.00000000    0.00000000    0.00000000
     atom   15 type  2   force =     0.00000000    0.00000000    0.00000000
     atom   16 type  2   force =     0.00000000    0.00000000    0.00000000
     The SCF correction term to forces
     atom    1 type  1   force =     0.00000945    0.00000546    0.00001823
     atom    2 type  1   force =    -0.00000000    0.00001412   -0.00001578
     atom    3 type  2   force =     0.00000288    0.00000166   -0.00000417
     atom    4 type  2   force =    -0.00000000    0.00000176    0.00000808
     atom    5 type  1   force =    -0.00000000   -0.00000000    0.00003456
     atom    6 type  1   force =     0.00001223   -0.00000706   -0.00001578
     atom    7 type  2   force =    -0.00000000   -0.00000000   -0.00000805
     atom    8 type  2   force =     0.00000152   -0.00000088    0.00000808
     atom    9 type  1   force =    -0.00000945    0.00000546    0.00001823
     atom   10 type  1   force =    -0.00000000   -0.00000000   -0.00000127
     atom   11 type  2   force =    -0.00000288    0.00000166   -0.00000417
     atom   12 type  2   force =    -0.00000000   -0.00000000    0.00000528
     atom   13 type  1   force =     0.00000000   -0.00001092    0.00001823
     atom   14 type  1   force =    -0.00001223   -0.00000706   -0.00001578
     atom   15 type  2   force =     0.00000000   -0.00000332   -0.00000417
     atom   16 type  2   force =    -0.00000152   -0.00000088    0.00000808

     Total force =     0.005145     Total SCF correction =     0.000065

     General routines

     Parallel routines

   This run was terminated on:  22: 3:54  23Aug2025

   JOB DONE.
Note: The following floating-point exceptions are signalling: IEEE_INVALID_FLAG
Note: The following floating-point exceptions are signalling: IEEE_INVALID_FLAG
Note: The following floating-point exceptions are signalling: IEEE_INVALID_FLAG
Note: The following floating-point exceptions are signalling: IEEE_INVALID_FLAG
Note: The following floating-point exceptions are signalling: IEEE_INVALID_FLAG
Note: The following floating-point exceptions are signalling: IEEE_INVALID_FLAG
Note: The following floating-point exceptions are signalling: IEEE_INVALID_FLAG
Note: The following floating-point exceptions are signalling: IEEE_INVALID_FLAG
Note: The following floating-point exceptions are signalling: IEEE_INVALID_FLAG
Note: The following floating-point exceptions are signalling: IEEE_INVALID_FLAG
Note: The following floating-point exceptions are signalling: IEEE_INVALID_FLAG
Note: The following floating-point exceptions are signalling: IEEE_INVALID_FLAG
Note: The following floating-point exceptions are signalling: IEEE_INVALID_FLAG
Note: The following floating-point exceptions are signalling: IEEE_INVALID_FLAG
Note: The following floating-point exceptions are signalling: IEEE_INVALID_FLAG
Note: The following floating-point exceptions are signalling: IEEE_INVALID_FLAG
Note: The following floating-point exceptions are signalling: IEEE_INVALID_FLAG
Note: The following floating-point exceptions are signalling: IEEE_INVALID_FLAG
Note: The following floating-point exceptions are signalling: IEEE_INVALID_FLAG
Note: The following floating-point exceptions are signalling: IEEE_INVALID_FLAG
Note: The following floating-point exceptions are signalling: IEEE_INVALID_FLAG
Note: The following floating-point exceptions are signalling: IEEE_INVALID_FLAG
Note: The following floating-point exceptions are signalling: IEEE_INVALID_FLAG
Note: The following floating-point exceptions are signalling: IEEE_INVALID_FLAG
Note: The following floating-point exceptions are signalling: IEEE_INVALID_FLAG
Note: The following floating-point exceptions are signalling: IEEE_INVALID_FLAG
Note: The following floating-point exceptions are signalling: IEEE_INVALID_FLAG
Note: The following floating-point exceptions are signalling: IEEE_INVALID_FLAG
Note: The following floating-point exceptions are signalling: IEEE_INVALID_FLAG
Note: The following floating-point exceptions are signalling: IEEE_INVALID_FLAG
Note: The following floating-point exceptions are signalling: IEEE_INVALID_FLAG
Note: The following floating-point exceptions are signalling: IEEE_INVALID_FLAG