     Program PWSCF v.7.2 starts on 23Aug2025 at 14:50:13

     Reading input from /home/jvc/QEspresso7.2/ZnO_database/scripts/cell221.in/ZnO-2.94-1.45-221.in
Warning: card &CELL ignored
Warning: card / ignored
Warning: card &FCP ignored
Warning: card / ignored
Warning: card &RISM ignored
Warning: card / ignored

     Current dimensions of program PWSCF are:
     Max number of different atomic species (ntypx) = 10
     Max number of k-points (npk) =  40000
     Max angular momentum in pseudopotentials (lmaxx) =  4
     file Zn.upf: wavefunction(s)  3D renormalized
     Found identity + ( -0.0000 -0.5000  0.0000) symmetry
     This is a supercell, fractional translations are disabled
     Message from routine setup:
     using ibrav=0 with symmetry is DISCOURAGED, use correct ibrav instead

     K-points division:     npool     =       8
     band groups division:  nbgrp     =       4
     Subspace diagonalization in iterative solution of the eigenvalue problem:
     a serial algorithm will be used

     Using Slab Decomposition

     bravais-lattice index     =            0
     lattice parameter (alat)  =      11.1219  a.u.
     unit-cell volume          =     865.5345 (a.u.)^3
     number of atoms/cell      =           16
     number of atomic types    =            2
     number of electrons       =       144.00
     number of Kohn-Sham states=           72
     kinetic-energy cutoff     =      50.0000  Ry
     charge density cutoff     =     400.0000  Ry
     scf convergence threshold =      1.0E-08
     mixing beta               =       0.3000
     number of iterations used =            8  plain     mixing
     Exchange-correlation= PBE
                           (   1   4   3   4   0   0   0)

     celldm(1)=  11.121937  celldm(2)=   0.000000  celldm(3)=   0.000000
     celldm(4)=   0.000000  celldm(5)=   0.000000  celldm(6)=   0.000000

     crystal axes: (cart. coord. in units of alat)
               a(1) = (   1.000000   0.000000   0.000000 )
               a(2) = (  -0.500000   0.866025   0.000000 )
               a(3) = (   0.000000   0.000000   0.726461 )

     reciprocal axes: (cart. coord. in units 2 pi/alat)
               b(1) = (  1.000000  0.577350 -0.000000 )
               b(2) = (  0.000000  1.154701  0.000000 )
               b(3) = (  0.000000 -0.000000  1.376536 )

     PseudoPot. # 1 for Zn read from file:
     /home/jvc/QEspresso7.2/ZnO_database/pseudos/Zn.upf
     MD5 check sum: 7f56cabf9682ed8c977c2f7d0c5985c5
     Pseudo is Ultrasoft + core correction, Zval = 12.0
     Generated using &quot;atomic&quot; code by A. Dal Corso  v.6.2.2
     Using radial grid of 1201 points,  6 beta functions with:
                l(1) =   0
                l(2) =   0
                l(3) =   1
                l(4) =   1
                l(5) =   2
                l(6) =   2
     Q(r) pseudized with 0 coefficients

     PseudoPot. # 2 for O  read from file:
     /home/jvc/QEspresso7.2/ZnO_database/pseudos/O.upf
     MD5 check sum: 91400c9766925bcf19f520983a725ff0
     Pseudo is Ultrasoft + core correction, Zval =  6.0
     Generated using &quot;atomic&quot; code by A. Dal Corso  v.6.3MaX
     Using radial grid of 1095 points,  4 beta functions with:
                l(1) =   0
                l(2) =   0
                l(3) =   1
                l(4) =   1
     Q(r) pseudized with 0 coefficients

     atomic species   valence    mass     pseudopotential
        Zn            12.00    65.38000     Zn( 1.00)
        O              6.00    15.99900     O ( 1.00)

      6 Sym. Ops. (no inversion) found

                                    s                        frac. trans.

      isym =  1     identity

 cryst.   s( 1) = (     1          0          0      )
                  (     0          1          0      )
                  (     0          0          1      )

 cart.    s( 1) = (  1.0000000  0.0000000  0.0000000 )
                  (  0.0000000  1.0000000  0.0000000 )
                  (  0.0000000  0.0000000  1.0000000 )

      isym =  2     120 deg rotation - cryst. axis [0,0,1]

[...]

      isym =  3     120 deg rotation - cryst. axis [0,0,-1]

[...]

      isym =  4     inv. 180 deg rotation - cart. axis [1,0,0]

[...]

      isym =  5     inv. 180 deg rotation - cryst. axis [0,1,0]

[...]

      isym =  6     inv. 180 deg rotation - cryst. axis [1,1,0]

 cryst.   s( 6) = (     0         -1          0      )
                  (    -1          0          0      )
                  (     0          0          1      )

 cart.    s( 6) = (  0.5000000 -0.8660254  0.0000000 )
                  ( -0.8660254 -0.5000000  0.0000000 )
                  (  0.0000000  0.0000000  1.0000000 )

   Cartesian axes

     site n.     atom                  positions (alat units)
         1           Zn  tau(   1) = (   0.2500000   0.1443376   0.3636909  )
         2           Zn  tau(   2) = (  -0.0000000   0.2886751   0.0004603  )
         3           O   tau(   3) = (   0.2500000   0.1443376   0.6390508  )
         4           O   tau(   4) = (  -0.0000000   0.2886751   0.2758202  )
         5           Zn  tau(   5) = (   0.0000000   0.5773503   0.3636909  )
         6           Zn  tau(   6) = (  -0.2500000   0.7216878   0.0004603  )
         7           O   tau(   7) = (   0.0000000   0.5773503   0.6390508  )
         8           O   tau(   8) = (  -0.2500000   0.7216878   0.2758202  )
         9           Zn  tau(   9) = (   0.7500000   0.1443376   0.3636909  )
        10           Zn  tau(  10) = (   0.5000000   0.2886751   0.0004603  )
        11           O   tau(  11) = (   0.7500000   0.1443376   0.6390508  )
        12           O   tau(  12) = (   0.5000000   0.2886751   0.2758202  )
        13           Zn  tau(  13) = (   0.5000000   0.5773503   0.3636909  )
        14           Zn  tau(  14) = (   0.2500000   0.7216878   0.0004603  )
        15           O   tau(  15) = (   0.5000000   0.5773503   0.6390508  )
        16           O   tau(  16) = (   0.2500000   0.7216878   0.2758202  )

   Crystallographic axes

     site n.     atom                  positions (cryst. coord.)
         1           Zn  tau(   1) = (  0.3333333  0.1666667  0.5006336  )
         2           Zn  tau(   2) = (  0.1666667  0.3333333  0.0006336  )
         3           O   tau(   3) = (  0.3333333  0.1666667  0.8796764  )
         4           O   tau(   4) = (  0.1666667  0.3333333  0.3796764  )
         5           Zn  tau(   5) = (  0.3333333  0.6666667  0.5006336  )
         6           Zn  tau(   6) = (  0.1666667  0.8333333  0.0006336  )
         7           O   tau(   7) = (  0.3333333  0.6666667  0.8796764  )
         8           O   tau(   8) = (  0.1666667  0.8333333  0.3796764  )
         9           Zn  tau(   9) = (  0.8333333  0.1666667  0.5006336  )
        10           Zn  tau(  10) = (  0.6666667  0.3333333  0.0006336  )
        11           O   tau(  11) = (  0.8333333  0.1666667  0.8796764  )
        12           O   tau(  12) = (  0.6666667  0.3333333  0.3796764  )
        13           Zn  tau(  13) = (  0.8333333  0.6666667  0.5006336  )
        14           Zn  tau(  14) = (  0.6666667  0.8333333  0.0006336  )
        15           O   tau(  15) = (  0.8333333  0.6666667  0.8796764  )
        16           O   tau(  16) = (  0.6666667  0.8333333  0.3796764  )

     number of k points=    34
                       cart. coord. in units 2pi/alat
        k(    1) = (   0.0000000   0.0000000   0.0000000), wk =   0.0092593
        k(    2) = (   0.0000000   0.0000000   0.2294226), wk =   0.0185185
        k(    3) = (   0.0000000   0.0000000   0.4588453), wk =   0.0185185
        k(    4) = (   0.0000000   0.0000000  -0.6882679), wk =   0.0092593
        k(    5) = (   0.0000000   0.1924501   0.0000000), wk =   0.0555556
        k(    6) = (   0.0000000   0.1924501   0.2294226), wk =   0.0555556
        k(    7) = (   0.0000000   0.1924501   0.4588453), wk =   0.0555556
        k(    8) = (   0.0000000   0.1924501  -0.6882679), wk =   0.0555556
        k(    9) = (   0.0000000   0.3849002   0.0000000), wk =   0.0555556
        k(   10) = (   0.0000000   0.3849002   0.2294226), wk =   0.0555556
        k(   11) = (   0.0000000   0.3849002   0.4588453), wk =   0.0555556
        k(   12) = (   0.0000000   0.3849002  -0.6882679), wk =   0.0555556
        k(   13) = (   0.0000000  -0.5773503   0.0000000), wk =   0.0277778
        k(   14) = (   0.0000000  -0.5773503   0.2294226), wk =   0.0555556
        k(   15) = (   0.0000000  -0.5773503   0.4588453), wk =   0.0555556
        k(   16) = (   0.0000000  -0.5773503  -0.6882679), wk =   0.0277778
        k(   17) = (   0.1666667   0.2886751   0.0000000), wk =   0.0555556
        k(   18) = (   0.1666667   0.2886751   0.2294226), wk =   0.1111111
        k(   19) = (   0.1666667   0.2886751   0.4588453), wk =   0.1111111
        k(   20) = (   0.1666667   0.2886751  -0.6882679), wk =   0.0555556
        k(   21) = (   0.1666667   0.4811252   0.0000000), wk =   0.1111111
        k(   22) = (   0.1666667   0.4811252   0.2294226), wk =   0.1111111
        k(   23) = (   0.1666667   0.4811252   0.4588453), wk =   0.1111111
        k(   24) = (   0.1666667   0.4811252  -0.6882679), wk =   0.1111111
        k(   25) = (   0.3333333   0.5773503   0.0000000), wk =   0.0185185
        k(   26) = (   0.3333333   0.5773503   0.2294226), wk =   0.0370370
        k(   27) = (   0.3333333   0.5773503   0.4588453), wk =   0.0370370
        k(   28) = (   0.3333333   0.5773503  -0.6882679), wk =   0.0185185
        k(   29) = (   0.0000000  -0.1924501   0.2294226), wk =   0.0555556
        k(   30) = (   0.0000000  -0.1924501   0.4588453), wk =   0.0555556
        k(   31) = (   0.0000000  -0.3849002   0.2294226), wk =   0.0555556
        k(   32) = (   0.0000000  -0.3849002   0.4588453), wk =   0.0555556
        k(   33) = (  -0.1666667  -0.4811252   0.2294226), wk =   0.1111111
        k(   34) = (  -0.1666667  -0.4811252   0.4588453), wk =   0.1111111

                       cryst. coord.
        k(    1) = (   0.0000000   0.0000000   0.0000000), wk =   0.0092593
        k(    2) = (   0.0000000   0.0000000   0.1666667), wk =   0.0185185
        k(    3) = (   0.0000000   0.0000000   0.3333333), wk =   0.0185185
        k(    4) = (   0.0000000   0.0000000  -0.5000000), wk =   0.0092593
        k(    5) = (   0.0000000   0.1666667   0.0000000), wk =   0.0555556
        k(    6) = (   0.0000000   0.1666667   0.1666667), wk =   0.0555556
        k(    7) = (   0.0000000   0.1666667   0.3333333), wk =   0.0555556
        k(    8) = (   0.0000000   0.1666667  -0.5000000), wk =   0.0555556
        k(    9) = (   0.0000000   0.3333333   0.0000000), wk =   0.0555556
        k(   10) = (   0.0000000   0.3333333   0.1666667), wk =   0.0555556
        k(   11) = (   0.0000000   0.3333333   0.3333333), wk =   0.0555556
        k(   12) = (   0.0000000   0.3333333  -0.5000000), wk =   0.0555556
        k(   13) = (   0.0000000  -0.5000000   0.0000000), wk =   0.0277778
        k(   14) = (   0.0000000  -0.5000000   0.1666667), wk =   0.0555556
        k(   15) = (   0.0000000  -0.5000000   0.3333333), wk =   0.0555556
[...]
        k(   23) = (   0.1666667   0.3333333   0.3333333), wk =   0.1111111
        k(   24) = (   0.1666667   0.3333333  -0.5000000), wk =   0.1111111
        k(   25) = (   0.3333333   0.3333333   0.0000000), wk =   0.0185185
        k(   26) = (   0.3333333   0.3333333   0.1666667), wk =   0.0370370
        k(   27) = (   0.3333333   0.3333333   0.3333333), wk =   0.0370370
        k(   28) = (   0.3333333   0.3333333  -0.5000000), wk =   0.0185185
        k(   29) = (   0.0000000  -0.1666667   0.1666667), wk =   0.0555556
        k(   30) = (   0.0000000  -0.1666667   0.3333333), wk =   0.0555556
        k(   31) = (   0.0000000  -0.3333333   0.1666667), wk =   0.0555556
        k(   32) = (   0.0000000  -0.3333333   0.3333333), wk =   0.0555556
        k(   33) = (  -0.1666667  -0.3333333   0.1666667), wk =   0.1111111
        k(   34) = (  -0.1666667  -0.3333333   0.3333333), wk =   0.1111111

     Initial potential from superposition of free atoms

     starting charge     143.9702, renormalised to     144.0000
     Starting wfcs are  104 randomized atomic wfcs

     Self-consistent Calculation

     iteration #  1     ecut=    50.00 Ry     beta= 0.30
     Davidson diagonalization with overlap

     ethr =  1.00E-02,  avg # of iterations =  2.7

     total energy              =   -1444.27260341 Ry
     estimated scf accuracy    <       2.97245072 Ry

[...]

     total energy              =   -1444.78346483 Ry
     estimated scf accuracy    <       0.00000002 Ry

     iteration # 26     ecut=    50.00 Ry     beta= 0.30
     Davidson diagonalization with overlap

     ethr =  1.03E-11,  avg # of iterations =  2.2

     End of self-consistent calculation

          k = 0.0000 0.0000 0.0000 (  5155 PWs)   bands (ev):

    -7.5768  -6.2392  -6.2392  -6.2392  -5.7823  -5.6832  -5.6832  -5.6832
     5.3290   5.3290   5.3290   5.3498   5.3498   5.3498   5.5523   6.0968
     6.0968   6.1926   6.4347   6.4347   6.4347   6.5287   6.5287   6.5714
     6.5714   6.5714   7.2615   7.2615   7.2615   7.5119   7.5119   7.5119
     8.6028   8.6028   8.7264   8.7264   8.7264   9.0752   9.0752   9.0752
     9.2373   9.2373   9.3879   9.3879   9.3879   9.4178   9.4178   9.4178
     9.6816   9.6816   9.6816   9.7393  10.1695  10.1695  10.1695  10.4291
    10.4291  10.4291  10.8506  10.8506  10.8506  12.8938  12.8938  12.9767
    12.9767  12.9767  13.3538  13.3538  13.3538  14.6194  14.6194  14.6450

     occupation numbers
     1.0000   1.0000   1.0000   1.0000   1.0000   1.0000   1.0000   1.0000
     1.0000   1.0000   1.0000   1.0000   1.0000   1.0000   1.0000   1.0000
     1.0000   1.0000   1.0000   1.0000   1.0000   1.0000   1.0000   1.0000
     1.0000   1.0000   1.0000   1.0000   1.0000   1.0000   1.0000   1.0000
     1.0000   1.0000   1.0000   1.0000   1.0000   1.0000   1.0000   1.0000
     1.0000   1.0000   1.0000   1.0000   1.0000   1.0000   1.0000   1.0000
     1.0000   1.0000   1.0000   1.0000   1.0000   1.0000   1.0000   1.0000
     1.0000   1.0000   1.0000   1.0000   1.0000   1.0000   1.0000   1.0000
     1.0000   1.0000   1.0000   1.0000   1.0000   1.0000   1.0000   1.0000

[...]

          k = 0.0000-0.3849 0.4588 (  5170 PWs)   bands (ev):

[...]

          k =-0.1667-0.4811 0.2294 (  5150 PWs)   bands (ev):

[...]

          k =-0.1667-0.4811 0.4588 (  5163 PWs)   bands (ev):

    -6.7545  -6.4882  -6.2757  -6.0207  -5.9155  -5.8922  -5.8100  -5.7603
     5.0125   5.0345   5.0941   5.1048   5.1238   5.2469   5.2477   5.2714
     6.0551   6.2372   6.2658   6.3035   6.3080   6.3288   6.3438   6.4020
     6.4624   6.6144   6.6240   6.7955   6.8057   6.9590   7.1111   7.1535
     8.6834   8.7708   8.7820   8.7856   8.8667   8.9023   8.9340   9.0273
     9.2063   9.2211   9.2616   9.2718   9.3113   9.3849   9.4954   9.6748
     9.9712  10.2106  10.4099  10.4955  10.8369  11.0604  11.3606  11.4236
    11.5328  11.6554  11.9744  12.0151  12.0176  12.0522  12.3453  12.5952
    12.6103  12.7020  13.1513  13.1917  13.5853  13.6184  13.7797  13.9378

     occupation numbers
     1.0000   1.0000   1.0000   1.0000   1.0000   1.0000   1.0000   1.0000
     1.0000   1.0000   1.0000   1.0000   1.0000   1.0000   1.0000   1.0000
     1.0000   1.0000   1.0000   1.0000   1.0000   1.0000   1.0000   1.0000
     1.0000   1.0000   1.0000   1.0000   1.0000   1.0000   1.0000   1.0000
     1.0000   1.0000   1.0000   1.0000   1.0000   1.0000   1.0000   1.0000
     1.0000   1.0000   1.0000   1.0000   1.0000   1.0000   1.0000   1.0000
     1.0000   1.0000   1.0000   1.0000   1.0000   1.0000   1.0000   1.0000
     1.0000   1.0000   1.0000   1.0000   1.0000   1.0000   1.0000   1.0000
     1.0000   1.0000   1.0000   1.0000   1.0000   1.0000   1.0000   1.0000

     highest occupied level (ev):    14.6450

!    total energy              =   -1444.78346482 Ry
     estimated scf accuracy    <          4.8E-09 Ry

     The total energy is the sum of the following terms:
     one-electron contribution =    -419.64069933 Ry
     hartree contribution      =     407.67847052 Ry
     xc contribution           =    -442.78274526 Ry
     ewald contribution        =    -990.03849076 Ry

     convergence has been achieved in  26 iterations

     Forces acting on atoms (cartesian axes, Ry/au):

     atom    1 type  1   force =     0.00000171    0.00000098   -0.21629732
     atom    2 type  1   force =     0.00000000    0.00000023   -0.21629904
     atom    3 type  2   force =    -0.00000031   -0.00000018    0.21629823
     atom    4 type  2   force =     0.00000000   -0.00000032    0.21629806
     atom    5 type  1   force =     0.00000000   -0.00000000   -0.21629791
     atom    6 type  1   force =     0.00000020   -0.00000011   -0.21629904
     atom    7 type  2   force =     0.00000000    0.00000000    0.21629833
     atom    8 type  2   force =    -0.00000028    0.00000016    0.21629806
     atom    9 type  1   force =    -0.00000171    0.00000098   -0.21629732
     atom   10 type  1   force =     0.00000000    0.00000000   -0.21629839
     atom   11 type  2   force =     0.00000031   -0.00000018    0.21629823
     atom   12 type  2   force =     0.00000000   -0.00000000    0.21629818
     atom   13 type  1   force =     0.00000000   -0.00000197   -0.21629732
     atom   14 type  1   force =    -0.00000020   -0.00000011   -0.21629904
     atom   15 type  2   force =     0.00000000    0.00000035    0.21629823
     atom   16 type  2   force =     0.00000028    0.00000016    0.21629806
     The non-local contrib.  to forces
     atom    1 type  1   force =     0.00000154    0.00000089   -0.38230156
     atom    2 type  1   force =     0.00000000    0.00000042   -0.38230271
     atom    3 type  2   force =    -0.00000067   -0.00000039   -0.18127516
     atom    4 type  2   force =     0.00000000   -0.00000020   -0.18127562
     atom    5 type  1   force =     0.00000000    0.00000000   -0.38230204
     atom    6 type  1   force =     0.00000036   -0.00000021   -0.38230271
     atom    7 type  2   force =     0.00000000    0.00000000   -0.18127513
     atom    8 type  2   force =    -0.00000017    0.00000010   -0.18127562
     atom    9 type  1   force =    -0.00000154    0.00000089   -0.38230156
     atom   10 type  1   force =     0.00000000    0.00000000   -0.38230232
     atom   11 type  2   force =     0.00000067   -0.00000039   -0.18127516
     atom   12 type  2   force =     0.00000000    0.00000000   -0.18127518
     atom   13 type  1   force =     0.00000000   -0.00000177   -0.38230156
     atom   14 type  1   force =    -0.00000036   -0.00000021   -0.38230271
     atom   15 type  2   force =     0.00000000    0.00000078   -0.18127516
     atom   16 type  2   force =     0.00000017    0.00000010   -0.18127562
     The ionic contribution  to forces
     atom    1 type  1   force =    -0.00000001    0.00000001   -2.79035798
     atom    2 type  1   force =     0.00000001    0.00000001   -2.79035799
     atom    3 type  2   force =    -0.00000001    0.00000001    2.79035798
     atom    4 type  2   force =     0.00000000    0.00000000    2.79035799
     atom    5 type  1   force =     0.00000000   -0.00000000   -2.79035799
     atom    6 type  1   force =    -0.00000000   -0.00000002   -2.79035799
     atom    7 type  2   force =     0.00000000    0.00000000    2.79035799
     atom    8 type  2   force =    -0.00000000   -0.00000002    2.79035799
     atom    9 type  1   force =    -0.00000001    0.00000001   -2.79035798
     atom   10 type  1   force =     0.00000001    0.00000001   -2.79035799
     atom   11 type  2   force =    -0.00000001    0.00000001    2.79035798
     atom   12 type  2   force =     0.00000000    0.00000000    2.79035799
     atom   13 type  1   force =     0.00000000   -0.00000000   -2.79035799
     atom   14 type  1   force =    -0.00000000   -0.00000002   -2.79035799
     atom   15 type  2   force =     0.00000000    0.00000000    2.79035799
     atom   16 type  2   force =    -0.00000000   -0.00000002    2.79035799
     The local contribution  to forces
     atom    1 type  1   force =    -0.00000409   -0.00000227    2.91289703
     atom    2 type  1   force =     0.00000008   -0.00000011    2.91290106
     atom    3 type  2   force =    -0.00000081   -0.00000044   -2.39331416
     atom    4 type  2   force =     0.00000002   -0.00000096   -2.39331464
     atom    5 type  1   force =     0.00000000    0.00000009    2.91289856
     atom    6 type  1   force =    -0.00000014   -0.00000001    2.91290106
     atom    7 type  2   force =    -0.00000000    0.00000002   -2.39331414
     atom    8 type  2   force =    -0.00000085    0.00000046   -2.39331464
     atom    9 type  1   force =     0.00000409   -0.00000227    2.91289703
     atom   10 type  1   force =     0.00000008    0.00000004    2.91289859
     atom   11 type  2   force =     0.00000081   -0.00000044   -2.39331416
     atom   12 type  2   force =     0.00000002    0.00000001   -2.39331513
     atom   13 type  1   force =     0.00000000    0.00000481    2.91289703
     atom   14 type  1   force =     0.00000014   -0.00000001    2.91290106
     atom   15 type  2   force =     0.00000000    0.00000095   -2.39331416
     atom   16 type  2   force =     0.00000085    0.00000046   -2.39331464
     The core correction contribution to forces
     atom    1 type  1   force =     0.00000006    0.00000004    0.04347373
     atom    2 type  1   force =     0.00000001   -0.00000005    0.04347365
     atom    3 type  2   force =     0.00000001    0.00000000    0.00052841
     atom    4 type  2   force =    -0.00000000    0.00000000    0.00052842
     atom    5 type  1   force =    -0.00000000    0.00000001    0.04347372
     atom    6 type  1   force =    -0.00000005    0.00000001    0.04347365
     atom    7 type  2   force =    -0.00000000   -0.00000000    0.00052841
     atom    8 type  2   force =     0.00000000   -0.00000000    0.00052842
     atom    9 type  1   force =    -0.00000006    0.00000004    0.04347373
     atom   10 type  1   force =     0.00000001    0.00000001    0.04347374
     atom   11 type  2   force =    -0.00000001    0.00000000    0.00052841
     atom   12 type  2   force =    -0.00000000   -0.00000000    0.00052841
     atom   13 type  1   force =    -0.00000000   -0.00000005    0.04347373
     atom   14 type  1   force =     0.00000005    0.00000001    0.04347365
     atom   15 type  2   force =    -0.00000000   -0.00000001    0.00052841
     atom   16 type  2   force =    -0.00000000   -0.00000000    0.00052842
     The Hubbard contrib.    to forces
     atom    1 type  1   force =     0.00000000    0.00000000    0.00000000
     atom    2 type  1   force =     0.00000000    0.00000000    0.00000000
     atom    3 type  2   force =     0.00000000    0.00000000    0.00000000
     atom    4 type  2   force =     0.00000000    0.00000000    0.00000000
     atom    5 type  1   force =     0.00000000    0.00000000    0.00000000
     atom    6 type  1   force =     0.00000000    0.00000000    0.00000000
     atom    7 type  2   force =     0.00000000    0.00000000    0.00000000
     atom    8 type  2   force =     0.00000000    0.00000000    0.00000000
     atom    9 type  1   force =     0.00000000    0.00000000    0.00000000
     atom   10 type  1   force =     0.00000000    0.00000000    0.00000000
     atom   11 type  2   force =     0.00000000    0.00000000    0.00000000
     atom   12 type  2   force =     0.00000000    0.00000000    0.00000000
     atom   13 type  1   force =     0.00000000    0.00000000    0.00000000
     atom   14 type  1   force =     0.00000000    0.00000000    0.00000000
     atom   15 type  2   force =     0.00000000    0.00000000    0.00000000
     atom   16 type  2   force =     0.00000000    0.00000000    0.00000000
     The SCF correction term to forces
     atom    1 type  1   force =     0.00000420    0.00000242   -0.00001060
     atom    2 type  1   force =     0.00000000   -0.00000004   -0.00001511
     atom    3 type  2   force =     0.00000117    0.00000067   -0.00000090
     atom    4 type  2   force =    -0.00000000    0.00000084   -0.00000016
     atom    5 type  1   force =     0.00000000    0.00000000   -0.00001223
     atom    6 type  1   force =    -0.00000004    0.00000002   -0.00001511
     atom    7 type  2   force =     0.00000000   -0.00000000   -0.00000087
     atom    8 type  2   force =     0.00000073   -0.00000042   -0.00000016
     atom    9 type  1   force =    -0.00000420    0.00000242   -0.00001060
     atom   10 type  1   force =     0.00000000    0.00000000   -0.00001248
     atom   11 type  2   force =    -0.00000117    0.00000067   -0.00000090
     atom   12 type  2   force =    -0.00000000   -0.00000000    0.00000002
     atom   13 type  1   force =     0.00000000   -0.00000484   -0.00001060
     atom   14 type  1   force =     0.00000004    0.00000002   -0.00001511
     atom   15 type  2   force =     0.00000000   -0.00000135   -0.00000090
     atom   16 type  2   force =    -0.00000073   -0.00000042   -0.00000016

     Total force =     0.865193     Total SCF correction =     0.000038

     General routines

     Parallel routines

   This run was terminated on:  14:54:28  23Aug2025

   JOB DONE.
Note: The following floating-point exceptions are signalling: IEEE_INVALID_FLAG
Note: The following floating-point exceptions are signalling: IEEE_INVALID_FLAG
Note: The following floating-point exceptions are signalling: IEEE_INVALID_FLAG
Note: The following floating-point exceptions are signalling: IEEE_INVALID_FLAG
Note: The following floating-point exceptions are signalling: IEEE_INVALID_FLAG
Note: The following floating-point exceptions are signalling: IEEE_INVALID_FLAG
Note: The following floating-point exceptions are signalling: IEEE_INVALID_FLAG
Note: The following floating-point exceptions are signalling: IEEE_INVALID_FLAG
Note: The following floating-point exceptions are signalling: IEEE_INVALID_FLAG
Note: The following floating-point exceptions are signalling: IEEE_INVALID_FLAG
Note: The following floating-point exceptions are signalling: IEEE_INVALID_FLAG
Note: The following floating-point exceptions are signalling: IEEE_INVALID_FLAG
Note: The following floating-point exceptions are signalling: IEEE_INVALID_FLAG
Note: The following floating-point exceptions are signalling: IEEE_INVALID_FLAG
Note: The following floating-point exceptions are signalling: IEEE_INVALID_FLAG
Note: The following floating-point exceptions are signalling: IEEE_INVALID_FLAG
Note: The following floating-point exceptions are signalling: IEEE_INVALID_FLAG
Note: The following floating-point exceptions are signalling: IEEE_INVALID_FLAG
Note: The following floating-point exceptions are signalling: IEEE_INVALID_FLAG
Note: The following floating-point exceptions are signalling: IEEE_INVALID_FLAG
Note: The following floating-point exceptions are signalling: IEEE_INVALID_FLAG
Note: The following floating-point exceptions are signalling: IEEE_INVALID_FLAG
Note: The following floating-point exceptions are signalling: IEEE_INVALID_FLAG
Note: The following floating-point exceptions are signalling: IEEE_INVALID_FLAG
Note: The following floating-point exceptions are signalling: IEEE_INVALID_FLAG
Note: The following floating-point exceptions are signalling: IEEE_INVALID_FLAG
Note: The following floating-point exceptions are signalling: IEEE_INVALID_FLAG
Note: The following floating-point exceptions are signalling: IEEE_INVALID_FLAG
Note: The following floating-point exceptions are signalling: IEEE_INVALID_FLAG
Note: The following floating-point exceptions are signalling: IEEE_INVALID_FLAG
Note: The following floating-point exceptions are signalling: IEEE_INVALID_FLAG
Note: The following floating-point exceptions are signalling: IEEE_INVALID_FLAG