     Program PWSCF v.7.2 starts on 23Aug2025 at 20: 8:58

     Reading input from /home/jvc/QEspresso7.2/ZnO_database/scripts/cell221.in/ZnO-3.27-1.65-221.in
Warning: card &CELL ignored
Warning: card / ignored
Warning: card &FCP ignored
Warning: card / ignored
Warning: card &RISM ignored
Warning: card / ignored

     Current dimensions of program PWSCF are:
     Max number of different atomic species (ntypx) = 10
     Max number of k-points (npk) =  40000
     Max angular momentum in pseudopotentials (lmaxx) =  4
     file Zn.upf: wavefunction(s)  3D renormalized
     Found identity + ( -0.0000 -0.5000  0.0000) symmetry
     This is a supercell, fractional translations are disabled
     Message from routine setup:
     using ibrav=0 with symmetry is DISCOURAGED, use correct ibrav instead

     K-points division:     npool     =       8
     band groups division:  nbgrp     =       4
     Subspace diagonalization in iterative solution of the eigenvalue problem:
     a serial algorithm will be used

     Using Slab Decomposition

     bravais-lattice index     =            0
     lattice parameter (alat)  =      12.3577  a.u.
     unit-cell volume          =    1345.5955 (a.u.)^3
     number of atoms/cell      =           16
     number of atomic types    =            2
     number of electrons       =       144.00
     number of Kohn-Sham states=           72
     kinetic-energy cutoff     =      50.0000  Ry
     charge density cutoff     =     400.0000  Ry
     scf convergence threshold =      1.0E-08
     mixing beta               =       0.3000
     number of iterations used =            8  plain     mixing
     Exchange-correlation= PBE
                           (   1   4   3   4   0   0   0)

     celldm(1)=  12.357708  celldm(2)=   0.000000  celldm(3)=   0.000000
     celldm(4)=   0.000000  celldm(5)=   0.000000  celldm(6)=   0.000000

     crystal axes: (cart. coord. in units of alat)
               a(1) = (   1.000000   0.000000   0.000000 )
               a(2) = (  -0.500000   0.866025   0.000000 )
               a(3) = (   0.000000   0.000000   0.823323 )

     reciprocal axes: (cart. coord. in units 2 pi/alat)
               b(1) = (  1.000000  0.577350 -0.000000 )
               b(2) = (  0.000000  1.154701  0.000000 )
               b(3) = (  0.000000 -0.000000  1.214590 )

     PseudoPot. # 1 for Zn read from file:
     /home/jvc/QEspresso7.2/ZnO_database/pseudos/Zn.upf
     MD5 check sum: 7f56cabf9682ed8c977c2f7d0c5985c5
     Pseudo is Ultrasoft + core correction, Zval = 12.0
     Generated using &quot;atomic&quot; code by A. Dal Corso  v.6.2.2
     Using radial grid of 1201 points,  6 beta functions with:
                l(1) =   0
                l(2) =   0
                l(3) =   1
                l(4) =   1
                l(5) =   2
                l(6) =   2
     Q(r) pseudized with 0 coefficients

     PseudoPot. # 2 for O  read from file:
     /home/jvc/QEspresso7.2/ZnO_database/pseudos/O.upf
     MD5 check sum: 91400c9766925bcf19f520983a725ff0
     Pseudo is Ultrasoft + core correction, Zval =  6.0
     Generated using &quot;atomic&quot; code by A. Dal Corso  v.6.3MaX
     Using radial grid of 1095 points,  4 beta functions with:
                l(1) =   0
                l(2) =   0
                l(3) =   1
                l(4) =   1
     Q(r) pseudized with 0 coefficients

     atomic species   valence    mass     pseudopotential
        Zn            12.00    65.38000     Zn( 1.00)
        O              6.00    15.99900     O ( 1.00)

      6 Sym. Ops. (no inversion) found

                                    s                        frac. trans.

      isym =  1     identity

 cryst.   s( 1) = (     1          0          0      )
                  (     0          1          0      )
                  (     0          0          1      )

 cart.    s( 1) = (  1.0000000 -0.0000000  0.0000000 )
                  (  0.0000000  1.0000000  0.0000000 )
                  (  0.0000000  0.0000000  1.0000000 )

      isym =  2     120 deg rotation - cryst. axis [0,0,1]

[...]

      isym =  3     120 deg rotation - cryst. axis [0,0,-1]

[...]

      isym =  4     inv. 180 deg rotation - cart. axis [1,0,0]

[...]

      isym =  5     inv. 180 deg rotation - cryst. axis [0,1,0]

[...]

      isym =  6     inv. 180 deg rotation - cryst. axis [1,1,0]

 cryst.   s( 6) = (     0         -1          0      )
                  (    -1          0          0      )
                  (     0          0          1      )

 cart.    s( 6) = (  0.5000000 -0.8660254  0.0000000 )
                  ( -0.8660254 -0.5000000  0.0000000 )
                  (  0.0000000  0.0000000  1.0000000 )

   Cartesian axes

     site n.     atom                  positions (alat units)
         1           Zn  tau(   1) = (   0.2500000   0.1443376   0.4121830  )
         2           Zn  tau(   2) = (  -0.0000000   0.2886751   0.0005216  )
         3           O   tau(   3) = (   0.2500000   0.1443376   0.7242576  )
         4           O   tau(   4) = (  -0.0000000   0.2886751   0.3125962  )
         5           Zn  tau(   5) = (   0.0000000   0.5773503   0.4121830  )
         6           Zn  tau(   6) = (  -0.2500000   0.7216878   0.0005216  )
         7           O   tau(   7) = (   0.0000000   0.5773503   0.7242576  )
         8           O   tau(   8) = (  -0.2500000   0.7216878   0.3125962  )
         9           Zn  tau(   9) = (   0.7500000   0.1443376   0.4121830  )
        10           Zn  tau(  10) = (   0.5000000   0.2886751   0.0005216  )
        11           O   tau(  11) = (   0.7500000   0.1443376   0.7242576  )
        12           O   tau(  12) = (   0.5000000   0.2886751   0.3125962  )
        13           Zn  tau(  13) = (   0.5000000   0.5773503   0.4121830  )
        14           Zn  tau(  14) = (   0.2500000   0.7216878   0.0005216  )
        15           O   tau(  15) = (   0.5000000   0.5773503   0.7242576  )
        16           O   tau(  16) = (   0.2500000   0.7216878   0.3125962  )

   Crystallographic axes

     site n.     atom                  positions (cryst. coord.)
         1           Zn  tau(   1) = (  0.3333333  0.1666667  0.5006336  )
         2           Zn  tau(   2) = (  0.1666667  0.3333333  0.0006336  )
         3           O   tau(   3) = (  0.3333333  0.1666667  0.8796764  )
         4           O   tau(   4) = (  0.1666667  0.3333333  0.3796764  )
         5           Zn  tau(   5) = (  0.3333333  0.6666667  0.5006336  )
         6           Zn  tau(   6) = (  0.1666667  0.8333333  0.0006336  )
         7           O   tau(   7) = (  0.3333333  0.6666667  0.8796764  )
         8           O   tau(   8) = (  0.1666667  0.8333333  0.3796764  )
         9           Zn  tau(   9) = (  0.8333333  0.1666667  0.5006336  )
        10           Zn  tau(  10) = (  0.6666667  0.3333333  0.0006336  )
        11           O   tau(  11) = (  0.8333333  0.1666667  0.8796764  )
        12           O   tau(  12) = (  0.6666667  0.3333333  0.3796764  )
        13           Zn  tau(  13) = (  0.8333333  0.6666667  0.5006336  )
        14           Zn  tau(  14) = (  0.6666667  0.8333333  0.0006336  )
        15           O   tau(  15) = (  0.8333333  0.6666667  0.8796764  )
        16           O   tau(  16) = (  0.6666667  0.8333333  0.3796764  )

     number of k points=    34
                       cart. coord. in units 2pi/alat
        k(    1) = (   0.0000000   0.0000000   0.0000000), wk =   0.0092593
        k(    2) = (   0.0000000   0.0000000   0.2024317), wk =   0.0185185
        k(    3) = (   0.0000000   0.0000000   0.4048635), wk =   0.0185185
        k(    4) = (   0.0000000   0.0000000  -0.6072952), wk =   0.0092593
        k(    5) = (   0.0000000   0.1924501   0.0000000), wk =   0.0555556
        k(    6) = (   0.0000000   0.1924501   0.2024317), wk =   0.0555556
        k(    7) = (   0.0000000   0.1924501   0.4048635), wk =   0.0555556
        k(    8) = (   0.0000000   0.1924501  -0.6072952), wk =   0.0555556
        k(    9) = (   0.0000000   0.3849002   0.0000000), wk =   0.0555556
        k(   10) = (   0.0000000   0.3849002   0.2024317), wk =   0.0555556
        k(   11) = (   0.0000000   0.3849002   0.4048635), wk =   0.0555556
        k(   12) = (   0.0000000   0.3849002  -0.6072952), wk =   0.0555556
        k(   13) = (   0.0000000  -0.5773503   0.0000000), wk =   0.0277778
        k(   14) = (   0.0000000  -0.5773503   0.2024317), wk =   0.0555556
        k(   15) = (   0.0000000  -0.5773503   0.4048635), wk =   0.0555556
        k(   16) = (   0.0000000  -0.5773503  -0.6072952), wk =   0.0277778
        k(   17) = (   0.1666667   0.2886751   0.0000000), wk =   0.0555556
        k(   18) = (   0.1666667   0.2886751   0.2024317), wk =   0.1111111
        k(   19) = (   0.1666667   0.2886751   0.4048635), wk =   0.1111111
        k(   20) = (   0.1666667   0.2886751  -0.6072952), wk =   0.0555556
        k(   21) = (   0.1666667   0.4811252   0.0000000), wk =   0.1111111
        k(   22) = (   0.1666667   0.4811252   0.2024317), wk =   0.1111111
        k(   23) = (   0.1666667   0.4811252   0.4048635), wk =   0.1111111
        k(   24) = (   0.1666667   0.4811252  -0.6072952), wk =   0.1111111
        k(   25) = (   0.3333333   0.5773503   0.0000000), wk =   0.0185185
        k(   26) = (   0.3333333   0.5773503   0.2024317), wk =   0.0370370
        k(   27) = (   0.3333333   0.5773503   0.4048635), wk =   0.0370370
        k(   28) = (   0.3333333   0.5773503  -0.6072952), wk =   0.0185185
        k(   29) = (   0.0000000  -0.1924501   0.2024317), wk =   0.0555556
        k(   30) = (   0.0000000  -0.1924501   0.4048635), wk =   0.0555556
        k(   31) = (   0.0000000  -0.3849002   0.2024317), wk =   0.0555556
        k(   32) = (   0.0000000  -0.3849002   0.4048635), wk =   0.0555556
        k(   33) = (  -0.1666667  -0.4811252   0.2024317), wk =   0.1111111
        k(   34) = (  -0.1666667  -0.4811252   0.4048635), wk =   0.1111111

                       cryst. coord.
        k(    1) = (   0.0000000   0.0000000   0.0000000), wk =   0.0092593
        k(    2) = (   0.0000000   0.0000000   0.1666667), wk =   0.0185185
        k(    3) = (   0.0000000   0.0000000   0.3333333), wk =   0.0185185
        k(    4) = (   0.0000000   0.0000000  -0.5000000), wk =   0.0092593
        k(    5) = (   0.0000000   0.1666667   0.0000000), wk =   0.0555556
        k(    6) = (   0.0000000   0.1666667   0.1666667), wk =   0.0555556
        k(    7) = (   0.0000000   0.1666667   0.3333333), wk =   0.0555556
        k(    8) = (   0.0000000   0.1666667  -0.5000000), wk =   0.0555556
        k(    9) = (   0.0000000   0.3333333   0.0000000), wk =   0.0555556
        k(   10) = (   0.0000000   0.3333333   0.1666667), wk =   0.0555556
        k(   11) = (   0.0000000   0.3333333   0.3333333), wk =   0.0555556
        k(   12) = (   0.0000000   0.3333333  -0.5000000), wk =   0.0555556
        k(   13) = (   0.0000000  -0.5000000   0.0000000), wk =   0.0277778
        k(   14) = (   0.0000000  -0.5000000   0.1666667), wk =   0.0555556
        k(   15) = (   0.0000000  -0.5000000   0.3333333), wk =   0.0555556
[...]
        k(   26) = (   0.3333333   0.3333333   0.1666667), wk =   0.0370370
        k(   27) = (   0.3333333   0.3333333   0.3333333), wk =   0.0370370
        k(   28) = (   0.3333333   0.3333333  -0.5000000), wk =   0.0185185
        k(   29) = (   0.0000000  -0.1666667   0.1666667), wk =   0.0555556
        k(   30) = (   0.0000000  -0.1666667   0.3333333), wk =   0.0555556
        k(   31) = (   0.0000000  -0.3333333   0.1666667), wk =   0.0555556
        k(   32) = (   0.0000000  -0.3333333   0.3333333), wk =   0.0555556
        k(   33) = (  -0.1666667  -0.3333333   0.1666667), wk =   0.1111111
        k(   34) = (  -0.1666667  -0.3333333   0.3333333), wk =   0.1111111

     Check: negative core charge=   -0.000002

     Initial potential from superposition of free atoms

     starting charge     143.9702, renormalised to     144.0000
     Starting wfcs are  104 randomized atomic wfcs

     Self-consistent Calculation

     iteration #  1     ecut=    50.00 Ry     beta= 0.30
     Davidson diagonalization with overlap

     ethr =  1.00E-02,  avg # of iterations =  2.0

     total energy              =   -1445.90645364 Ry
     estimated scf accuracy    <       2.79003508 Ry

[...]

     c_bands:  1 eigenvalues not converged
     ethr =  2.57E-10,  avg # of iterations = 14.9

[...]

     c_bands:  1 eigenvalues not converged
     ethr =  2.57E-10,  avg # of iterations = 16.3

[...]

     total energy              =   -1446.54575377 Ry
     estimated scf accuracy    <       0.00000002 Ry

     iteration # 33     ecut=    50.00 Ry     beta= 0.30
     Davidson diagonalization with overlap

     ethr =  1.14E-11,  avg # of iterations =  5.5

     End of self-consistent calculation

          k = 0.0000 0.0000 0.0000 (  7979 PWs)   bands (ev):

   -11.1374 -10.5149 -10.5063 -10.5063 -10.5063 -10.3163 -10.3163 -10.3163
     0.9259   0.9259   0.9259   1.1020   1.1020   1.1249   1.1249   1.1249
     1.1501   1.2540   1.2710   1.2710   1.3496   1.3496   1.3496   1.7225
     1.7225   1.7225   1.7852   1.7852   1.7852   1.8225   1.8225   1.8225
     2.1758   2.1758   2.2116   2.2116   2.2116   2.3296   2.3296   2.3296
     2.3515   2.3515   2.3970   2.3970   2.3970   2.4697   2.4697   2.4697
     2.6380   2.9125   2.9125   2.9125   3.1675   3.1675   3.1675   3.9222
     3.9222   3.9222   4.5558   4.5558   4.5558   5.3720   5.3720   5.3720
     5.8099   5.8099   5.8099   5.9223   5.9223   6.4933   6.6175   6.6175

     occupation numbers
     1.0000   1.0000   1.0000   1.0000   1.0000   1.0000   1.0000   1.0000
     1.0000   1.0000   1.0000   1.0000   1.0000   1.0000   1.0000   1.0000
     1.0000   1.0000   1.0000   1.0000   1.0000   1.0000   1.0000   1.0000
     1.0000   1.0000   1.0000   1.0000   1.0000   1.0000   1.0000   1.0000
     1.0000   1.0000   1.0000   1.0000   1.0000   1.0000   1.0000   1.0000
     1.0000   1.0000   1.0000   1.0000   1.0000   1.0000   1.0000   1.0000
     1.0000   1.0000   1.0000   1.0000   1.0000   1.0000   1.0000   1.0000
     1.0000   1.0000   1.0000   1.0000   1.0000   1.0000   1.0000   1.0000
     1.0000   1.0000   1.0000   1.0000   1.0000   1.0000   1.0000   1.0000

[...]

          k = 0.0000-0.3849 0.4049 (  8034 PWs)   bands (ev):

[...]

          k =-0.1667-0.4811 0.2024 (  8036 PWs)   bands (ev):

[...]

          k =-0.1667-0.4811 0.4049 (  8034 PWs)   bands (ev):

   -10.7880 -10.6571 -10.5558 -10.5391 -10.4570 -10.4006 -10.3951 -10.3436
     0.8210   0.8654   0.8956   0.9442   0.9550   0.9842   1.0824   1.1732
     1.2543   1.2790   1.3271   1.3272   1.3610   1.3858   1.3952   1.4063
     1.4268   1.4936   1.5142   1.5267   1.5593   1.6166   1.7733   1.7959
     2.1991   2.2003   2.2034   2.2070   2.2321   2.2504   2.2595   2.2962
     2.3230   2.3349   2.3639   2.3653   2.3981   2.4539   2.5024   2.6108
     2.9297   3.1552   3.3470   3.5430   3.6579   3.7511   3.8256   4.0443
     4.5746   4.6194   4.6355   4.6892   4.7356   5.0259   5.0618   5.2202
     5.3722   5.4121   5.5664   5.6751   5.7133   5.7923   5.8757   6.0315

     occupation numbers
     1.0000   1.0000   1.0000   1.0000   1.0000   1.0000   1.0000   1.0000
     1.0000   1.0000   1.0000   1.0000   1.0000   1.0000   1.0000   1.0000
     1.0000   1.0000   1.0000   1.0000   1.0000   1.0000   1.0000   1.0000
     1.0000   1.0000   1.0000   1.0000   1.0000   1.0000   1.0000   1.0000
     1.0000   1.0000   1.0000   1.0000   1.0000   1.0000   1.0000   1.0000
     1.0000   1.0000   1.0000   1.0000   1.0000   1.0000   1.0000   1.0000
     1.0000   1.0000   1.0000   1.0000   1.0000   1.0000   1.0000   1.0000
     1.0000   1.0000   1.0000   1.0000   1.0000   1.0000   1.0000   1.0000
     1.0000   1.0000   1.0000   1.0000   1.0000   1.0000   1.0000   1.0000

     highest occupied level (ev):     6.6175

!    total energy              =   -1446.54575378 Ry
     estimated scf accuracy    <          2.3E-10 Ry

     The total energy is the sum of the following terms:
     one-electron contribution =    -627.07821170 Ry
     hartree contribution      =     476.31595474 Ry
     xc contribution           =    -438.02101670 Ry
     ewald contribution        =    -857.76248012 Ry

     convergence has been achieved in  33 iterations

     Forces acting on atoms (cartesian axes, Ry/au):

     atom    1 type  1   force =     0.00000107    0.00000062    0.00483549
     atom    2 type  1   force =     0.00000000    0.00000185    0.00483245
     atom    3 type  2   force =     0.00000015    0.00000009   -0.00483412
     atom    4 type  2   force =     0.00000000    0.00000009   -0.00483376
     atom    5 type  1   force =    -0.00000000   -0.00000000    0.00483632
     atom    6 type  1   force =     0.00000160   -0.00000092    0.00483245
     atom    7 type  2   force =     0.00000000   -0.00000000   -0.00483445
     atom    8 type  2   force =     0.00000008   -0.00000004   -0.00483376
     atom    9 type  1   force =    -0.00000107    0.00000062    0.00483549
     atom   10 type  1   force =     0.00000000    0.00000000    0.00483189
     atom   11 type  2   force =    -0.00000015    0.00000009   -0.00483412
     atom   12 type  2   force =     0.00000000    0.00000000   -0.00483394
     atom   13 type  1   force =     0.00000000   -0.00000124    0.00483549
     atom   14 type  1   force =    -0.00000160   -0.00000092    0.00483245
     atom   15 type  2   force =     0.00000000   -0.00000018   -0.00483412
     atom   16 type  2   force =    -0.00000008   -0.00000004   -0.00483376
     The non-local contrib.  to forces
     atom    1 type  1   force =     0.00000057    0.00000033    0.05068803
     atom    2 type  1   force =     0.00000000    0.00000004    0.05068763
     atom    3 type  2   force =    -0.00000029   -0.00000017    0.05415030
     atom    4 type  2   force =     0.00000000   -0.00000001    0.05415034
     atom    5 type  1   force =     0.00000000   -0.00000000    0.05068641
     atom    6 type  1   force =     0.00000003   -0.00000002    0.05068763
     atom    7 type  2   force =     0.00000000    0.00000000    0.05414943
     atom    8 type  2   force =    -0.00000001    0.00000001    0.05415034
     atom    9 type  1   force =    -0.00000057    0.00000033    0.05068803
     atom   10 type  1   force =     0.00000000   -0.00000000    0.05068746
     atom   11 type  2   force =     0.00000029   -0.00000017    0.05415030
     atom   12 type  2   force =     0.00000000   -0.00000000    0.05415048
     atom   13 type  1   force =    -0.00000000   -0.00000066    0.05068803
     atom   14 type  1   force =    -0.00000003   -0.00000002    0.05068763
     atom   15 type  2   force =     0.00000000    0.00000033    0.05415030
     atom   16 type  2   force =     0.00000001    0.00000001    0.05415034
     The ionic contribution  to forces
     atom    1 type  1   force =     0.00000000    0.00000001    0.46504031
     atom    2 type  1   force =     0.00000001    0.00000000    0.46504031
     atom    3 type  2   force =     0.00000000    0.00000001   -0.46504031
     atom    4 type  2   force =     0.00000001   -0.00000000   -0.46504031
     atom    5 type  1   force =     0.00000000    0.00000001    0.46504031
     atom    6 type  1   force =     0.00000001    0.00000000    0.46504031
     atom    7 type  2   force =     0.00000000    0.00000001   -0.46504031
     atom    8 type  2   force =     0.00000001   -0.00000000   -0.46504031
     atom    9 type  1   force =    -0.00000000   -0.00000000    0.46504031
     atom   10 type  1   force =    -0.00000001   -0.00000001    0.46504031
     atom   11 type  2   force =    -0.00000000   -0.00000000   -0.46504031
     atom   12 type  2   force =    -0.00000001   -0.00000000   -0.46504031
     atom   13 type  1   force =    -0.00000000   -0.00000000    0.46504031
     atom   14 type  1   force =    -0.00000001   -0.00000001    0.46504031
     atom   15 type  2   force =    -0.00000000   -0.00000000   -0.46504031
     atom   16 type  2   force =    -0.00000001   -0.00000000   -0.46504031
     The local contribution  to forces
     atom    1 type  1   force =    -0.00000184   -0.00000096   -0.50737699
     atom    2 type  1   force =     0.00000009   -0.00000268   -0.50737196
     atom    3 type  2   force =    -0.00000011   -0.00000004    0.40650841
     atom    4 type  2   force =     0.00000002   -0.00000124    0.40650768
     atom    5 type  1   force =     0.00000000    0.00000010   -0.50737725
     atom    6 type  1   force =    -0.00000228    0.00000141   -0.50737196
     atom    7 type  2   force =     0.00000000    0.00000003    0.40651020
     atom    8 type  2   force =    -0.00000106    0.00000064    0.40650768
     atom    9 type  1   force =     0.00000184   -0.00000096   -0.50737699
     atom   10 type  1   force =    -0.00000009    0.00000005   -0.50737275
     atom   11 type  2   force =     0.00000011   -0.00000004    0.40650841
     atom   12 type  2   force =    -0.00000002    0.00000001    0.40650764
     atom   13 type  1   force =     0.00000000    0.00000222   -0.50737699
     atom   14 type  1   force =     0.00000228    0.00000141   -0.50737196
     atom   15 type  2   force =     0.00000000    0.00000016    0.40650841
     atom   16 type  2   force =     0.00000106    0.00000064    0.40650768
     The core correction contribution to forces
     atom    1 type  1   force =     0.00000003    0.00000003   -0.00351549
     atom    2 type  1   force =     0.00000001    0.00000010   -0.00351569
     atom    3 type  2   force =     0.00000001    0.00000000   -0.00045172
     atom    4 type  2   force =    -0.00000000   -0.00000000   -0.00045172
     atom    5 type  1   force =    -0.00000000    0.00000001   -0.00351535
     atom    6 type  1   force =     0.00000009   -0.00000004   -0.00351569
     atom    7 type  2   force =    -0.00000000   -0.00000000   -0.00045170
     atom    8 type  2   force =    -0.00000000    0.00000000   -0.00045172
     atom    9 type  1   force =    -0.00000003    0.00000003   -0.00351549
     atom   10 type  1   force =    -0.00000001    0.00000001   -0.00351562
     atom   11 type  2   force =    -0.00000001    0.00000000   -0.00045172
     atom   12 type  2   force =     0.00000000   -0.00000000   -0.00045172
     atom   13 type  1   force =    -0.00000000   -0.00000002   -0.00351549
     atom   14 type  1   force =    -0.00000009   -0.00000004   -0.00351569
     atom   15 type  2   force =     0.00000000   -0.00000001   -0.00045172
     atom   16 type  2   force =     0.00000000    0.00000000   -0.00045172
     The Hubbard contrib.    to forces
     atom    1 type  1   force =     0.00000000    0.00000000    0.00000000
     atom    2 type  1   force =     0.00000000    0.00000000    0.00000000
     atom    3 type  2   force =     0.00000000    0.00000000    0.00000000
     atom    4 type  2   force =     0.00000000    0.00000000    0.00000000
     atom    5 type  1   force =     0.00000000    0.00000000    0.00000000
     atom    6 type  1   force =     0.00000000    0.00000000    0.00000000
     atom    7 type  2   force =     0.00000000    0.00000000    0.00000000
     atom    8 type  2   force =     0.00000000    0.00000000    0.00000000
     atom    9 type  1   force =     0.00000000    0.00000000    0.00000000
     atom   10 type  1   force =     0.00000000    0.00000000    0.00000000
     atom   11 type  2   force =     0.00000000    0.00000000    0.00000000
     atom   12 type  2   force =     0.00000000    0.00000000    0.00000000
     atom   13 type  1   force =     0.00000000    0.00000000    0.00000000
     atom   14 type  1   force =     0.00000000    0.00000000    0.00000000
     atom   15 type  2   force =     0.00000000    0.00000000    0.00000000
     atom   16 type  2   force =     0.00000000    0.00000000    0.00000000
     The SCF correction term to forces
     atom    1 type  1   force =     0.00000231    0.00000133   -0.00000058
     atom    2 type  1   force =    -0.00000000    0.00000438   -0.00000804
     atom    3 type  2   force =     0.00000055    0.00000032   -0.00000101
     atom    4 type  2   force =    -0.00000000    0.00000134    0.00000004
     atom    5 type  1   force =    -0.00000000   -0.00000000    0.00000199
     atom    6 type  1   force =     0.00000379   -0.00000219   -0.00000804
     atom    7 type  2   force =    -0.00000000   -0.00000000   -0.00000228
     atom    8 type  2   force =     0.00000116   -0.00000067    0.00000004
     atom    9 type  1   force =    -0.00000231    0.00000133   -0.00000058
     atom   10 type  1   force =     0.00000000   -0.00000000   -0.00000773
     atom   11 type  2   force =    -0.00000055    0.00000032   -0.00000101
     atom   12 type  2   force =     0.00000000   -0.00000000   -0.00000025
     atom   13 type  1   force =     0.00000000   -0.00000267   -0.00000058
     atom   14 type  1   force =    -0.00000379   -0.00000219   -0.00000804
     atom   15 type  2   force =     0.00000000   -0.00000063   -0.00000101
     atom   16 type  2   force =    -0.00000116   -0.00000067    0.00000004

     Total force =     0.019336     Total SCF correction =     0.000019

     General routines

     Parallel routines

   This run was terminated on:  20:16: 6  23Aug2025

   JOB DONE.
Note: The following floating-point exceptions are signalling: IEEE_INVALID_FLAG
Note: The following floating-point exceptions are signalling: IEEE_INVALID_FLAG
Note: The following floating-point exceptions are signalling: IEEE_INVALID_FLAG
Note: The following floating-point exceptions are signalling: IEEE_INVALID_FLAG
Note: The following floating-point exceptions are signalling: IEEE_INVALID_FLAG
Note: The following floating-point exceptions are signalling: IEEE_INVALID_FLAG
Note: The following floating-point exceptions are signalling: IEEE_INVALID_FLAG
Note: The following floating-point exceptions are signalling: IEEE_INVALID_FLAG
Note: The following floating-point exceptions are signalling: IEEE_INVALID_FLAG
Note: The following floating-point exceptions are signalling: IEEE_INVALID_FLAG
Note: The following floating-point exceptions are signalling: IEEE_INVALID_FLAG
Note: The following floating-point exceptions are signalling: IEEE_INVALID_FLAG
Note: The following floating-point exceptions are signalling: IEEE_INVALID_FLAG
Note: The following floating-point exceptions are signalling: IEEE_INVALID_FLAG
Note: The following floating-point exceptions are signalling: IEEE_INVALID_FLAG
Note: The following floating-point exceptions are signalling: IEEE_INVALID_FLAG
Note: The following floating-point exceptions are signalling: IEEE_INVALID_FLAG
Note: The following floating-point exceptions are signalling: IEEE_INVALID_FLAG
Note: The following floating-point exceptions are signalling: IEEE_INVALID_FLAG
Note: The following floating-point exceptions are signalling: IEEE_INVALID_FLAG
Note: The following floating-point exceptions are signalling: IEEE_INVALID_FLAG
Note: The following floating-point exceptions are signalling: IEEE_INVALID_FLAG
Note: The following floating-point exceptions are signalling: IEEE_INVALID_FLAG
Note: The following floating-point exceptions are signalling: IEEE_INVALID_FLAG
Note: The following floating-point exceptions are signalling: IEEE_INVALID_FLAG
Note: The following floating-point exceptions are signalling: IEEE_INVALID_FLAG
Note: The following floating-point exceptions are signalling: IEEE_INVALID_FLAG
Note: The following floating-point exceptions are signalling: IEEE_INVALID_FLAG
Note: The following floating-point exceptions are signalling: IEEE_INVALID_FLAG
Note: The following floating-point exceptions are signalling: IEEE_INVALID_FLAG
Note: The following floating-point exceptions are signalling: IEEE_INVALID_FLAG
Note: The following floating-point exceptions are signalling: IEEE_INVALID_FLAG