     Program PWSCF v.7.2 starts on 24Aug2025 at  0:55:32

     Reading input from /home/jvc/QEspresso7.2/ZnO_database/scripts/cell221.in/ZnO-3.47-1.71-221.in
Warning: card &CELL ignored
Warning: card / ignored
Warning: card &FCP ignored
Warning: card / ignored
Warning: card &RISM ignored
Warning: card / ignored

     Current dimensions of program PWSCF are:
     Max number of different atomic species (ntypx) = 10
     Max number of k-points (npk) =  40000
     Max angular momentum in pseudopotentials (lmaxx) =  4
     file Zn.upf: wavefunction(s)  3D renormalized
     Found identity + ( -0.0000  0.5000  0.0000) symmetry
     This is a supercell, fractional translations are disabled
     Message from routine setup:
     using ibrav=0 with symmetry is DISCOURAGED, use correct ibrav instead

     K-points division:     npool     =       8
     band groups division:  nbgrp     =       4
     Subspace diagonalization in iterative solution of the eigenvalue problem:
     a serial algorithm will be used

     Using Slab Decomposition

     bravais-lattice index     =            0
     lattice parameter (alat)  =      13.0992  a.u.
     unit-cell volume          =    1665.4739 (a.u.)^3
     number of atoms/cell      =           16
     number of atomic types    =            2
     number of electrons       =       144.00
     number of Kohn-Sham states=           72
     kinetic-energy cutoff     =      50.0000  Ry
     charge density cutoff     =     400.0000  Ry
     scf convergence threshold =      1.0E-08
     mixing beta               =       0.3000
     number of iterations used =            8  plain     mixing
     Exchange-correlation= PBE
                           (   1   4   3   4   0   0   0)

     celldm(1)=  13.099170  celldm(2)=   0.000000  celldm(3)=   0.000000
     celldm(4)=   0.000000  celldm(5)=   0.000000  celldm(6)=   0.000000

     crystal axes: (cart. coord. in units of alat)
               a(1) = (   1.000000   0.000000   0.000000 )
               a(2) = (  -0.500000   0.866025   0.000000 )
               a(3) = (   0.000000   0.000000   0.855610 )

     reciprocal axes: (cart. coord. in units 2 pi/alat)
               b(1) = (  1.000000  0.577350 -0.000000 )
               b(2) = (  0.000000  1.154701  0.000000 )
               b(3) = (  0.000000 -0.000000  1.168757 )

     PseudoPot. # 1 for Zn read from file:
     /home/jvc/QEspresso7.2/ZnO_database/pseudos/Zn.upf
     MD5 check sum: 7f56cabf9682ed8c977c2f7d0c5985c5
     Pseudo is Ultrasoft + core correction, Zval = 12.0
     Generated using &quot;atomic&quot; code by A. Dal Corso  v.6.2.2
     Using radial grid of 1201 points,  6 beta functions with:
                l(1) =   0
                l(2) =   0
                l(3) =   1
                l(4) =   1
                l(5) =   2
                l(6) =   2
     Q(r) pseudized with 0 coefficients

     PseudoPot. # 2 for O  read from file:
     /home/jvc/QEspresso7.2/ZnO_database/pseudos/O.upf
     MD5 check sum: 91400c9766925bcf19f520983a725ff0
     Pseudo is Ultrasoft + core correction, Zval =  6.0
     Generated using &quot;atomic&quot; code by A. Dal Corso  v.6.3MaX
     Using radial grid of 1095 points,  4 beta functions with:
                l(1) =   0
                l(2) =   0
                l(3) =   1
                l(4) =   1
     Q(r) pseudized with 0 coefficients

     atomic species   valence    mass     pseudopotential
        Zn            12.00    65.38000     Zn( 1.00)
        O              6.00    15.99900     O ( 1.00)

      6 Sym. Ops. (no inversion) found

                                    s                        frac. trans.

      isym =  1     identity

 cryst.   s( 1) = (     1          0          0      )
                  (     0          1          0      )
                  (     0          0          1      )

 cart.    s( 1) = (  1.0000000  0.0000000  0.0000000 )
                  (  0.0000000  1.0000000  0.0000000 )
                  (  0.0000000  0.0000000  1.0000000 )

      isym =  2     120 deg rotation - cryst. axis [0,0,1]

[...]

      isym =  3     120 deg rotation - cryst. axis [0,0,-1]

[...]

      isym =  4     inv. 180 deg rotation - cart. axis [1,0,0]

[...]

      isym =  5     inv. 180 deg rotation - cryst. axis [0,1,0]

[...]

      isym =  6     inv. 180 deg rotation - cryst. axis [1,1,0]

 cryst.   s( 6) = (     0         -1          0      )
                  (    -1          0          0      )
                  (     0          0          1      )

 cart.    s( 6) = (  0.5000000 -0.8660254  0.0000000 )
                  ( -0.8660254 -0.5000000  0.0000000 )
                  (  0.0000000  0.0000000  1.0000000 )

   Cartesian axes

     site n.     atom                  positions (alat units)
         1           Zn  tau(   1) = (   0.2500000   0.1443376   0.4283471  )
         2           Zn  tau(   2) = (  -0.0000000   0.2886751   0.0005421  )
         3           O   tau(   3) = (   0.2500000   0.1443376   0.7526599  )
         4           O   tau(   4) = (  -0.0000000   0.2886751   0.3248549  )
         5           Zn  tau(   5) = (   0.0000000   0.5773503   0.4283471  )
         6           Zn  tau(   6) = (  -0.2500000   0.7216878   0.0005421  )
         7           O   tau(   7) = (   0.0000000   0.5773503   0.7526599  )
         8           O   tau(   8) = (  -0.2500000   0.7216878   0.3248549  )
         9           Zn  tau(   9) = (   0.7500000   0.1443376   0.4283471  )
        10           Zn  tau(  10) = (   0.5000000   0.2886751   0.0005421  )
        11           O   tau(  11) = (   0.7500000   0.1443376   0.7526599  )
        12           O   tau(  12) = (   0.5000000   0.2886751   0.3248549  )
        13           Zn  tau(  13) = (   0.5000000   0.5773503   0.4283471  )
        14           Zn  tau(  14) = (   0.2500000   0.7216878   0.0005421  )
        15           O   tau(  15) = (   0.5000000   0.5773503   0.7526599  )
        16           O   tau(  16) = (   0.2500000   0.7216878   0.3248549  )

   Crystallographic axes

     site n.     atom                  positions (cryst. coord.)
         1           Zn  tau(   1) = (  0.3333333  0.1666667  0.5006336  )
         2           Zn  tau(   2) = (  0.1666667  0.3333333  0.0006336  )
         3           O   tau(   3) = (  0.3333333  0.1666667  0.8796764  )
         4           O   tau(   4) = (  0.1666667  0.3333333  0.3796764  )
         5           Zn  tau(   5) = (  0.3333333  0.6666667  0.5006336  )
         6           Zn  tau(   6) = (  0.1666667  0.8333333  0.0006336  )
         7           O   tau(   7) = (  0.3333333  0.6666667  0.8796764  )
         8           O   tau(   8) = (  0.1666667  0.8333333  0.3796764  )
         9           Zn  tau(   9) = (  0.8333333  0.1666667  0.5006336  )
        10           Zn  tau(  10) = (  0.6666667  0.3333333  0.0006336  )
        11           O   tau(  11) = (  0.8333333  0.1666667  0.8796764  )
        12           O   tau(  12) = (  0.6666667  0.3333333  0.3796764  )
        13           Zn  tau(  13) = (  0.8333333  0.6666667  0.5006336  )
        14           Zn  tau(  14) = (  0.6666667  0.8333333  0.0006336  )
        15           O   tau(  15) = (  0.8333333  0.6666667  0.8796764  )
        16           O   tau(  16) = (  0.6666667  0.8333333  0.3796764  )

     number of k points=    34
                       cart. coord. in units 2pi/alat
        k(    1) = (   0.0000000   0.0000000   0.0000000), wk =   0.0092593
        k(    2) = (   0.0000000   0.0000000   0.1947928), wk =   0.0185185
        k(    3) = (   0.0000000   0.0000000   0.3895856), wk =   0.0185185
        k(    4) = (   0.0000000   0.0000000  -0.5843784), wk =   0.0092593
        k(    5) = (   0.0000000   0.1924501   0.0000000), wk =   0.0555556
        k(    6) = (   0.0000000   0.1924501   0.1947928), wk =   0.0555556
        k(    7) = (   0.0000000   0.1924501   0.3895856), wk =   0.0555556
        k(    8) = (   0.0000000   0.1924501  -0.5843784), wk =   0.0555556
        k(    9) = (   0.0000000   0.3849002   0.0000000), wk =   0.0555556
        k(   10) = (   0.0000000   0.3849002   0.1947928), wk =   0.0555556
        k(   11) = (   0.0000000   0.3849002   0.3895856), wk =   0.0555556
        k(   12) = (   0.0000000   0.3849002  -0.5843784), wk =   0.0555556
        k(   13) = (   0.0000000  -0.5773503   0.0000000), wk =   0.0277778
        k(   14) = (   0.0000000  -0.5773503   0.1947928), wk =   0.0555556
        k(   15) = (   0.0000000  -0.5773503   0.3895856), wk =   0.0555556
        k(   16) = (   0.0000000  -0.5773503  -0.5843784), wk =   0.0277778
        k(   17) = (   0.1666667   0.2886751   0.0000000), wk =   0.0555556
        k(   18) = (   0.1666667   0.2886751   0.1947928), wk =   0.1111111
        k(   19) = (   0.1666667   0.2886751   0.3895856), wk =   0.1111111
        k(   20) = (   0.1666667   0.2886751  -0.5843784), wk =   0.0555556
        k(   21) = (   0.1666667   0.4811252   0.0000000), wk =   0.1111111
        k(   22) = (   0.1666667   0.4811252   0.1947928), wk =   0.1111111
        k(   23) = (   0.1666667   0.4811252   0.3895856), wk =   0.1111111
        k(   24) = (   0.1666667   0.4811252  -0.5843784), wk =   0.1111111
        k(   25) = (   0.3333333   0.5773503   0.0000000), wk =   0.0185185
        k(   26) = (   0.3333333   0.5773503   0.1947928), wk =   0.0370370
        k(   27) = (   0.3333333   0.5773503   0.3895856), wk =   0.0370370
        k(   28) = (   0.3333333   0.5773503  -0.5843784), wk =   0.0185185
        k(   29) = (   0.0000000  -0.1924501   0.1947928), wk =   0.0555556
        k(   30) = (   0.0000000  -0.1924501   0.3895856), wk =   0.0555556
        k(   31) = (   0.0000000  -0.3849002   0.1947928), wk =   0.0555556
        k(   32) = (   0.0000000  -0.3849002   0.3895856), wk =   0.0555556
        k(   33) = (  -0.1666667  -0.4811252   0.1947928), wk =   0.1111111
        k(   34) = (  -0.1666667  -0.4811252   0.3895856), wk =   0.1111111

                       cryst. coord.
        k(    1) = (   0.0000000   0.0000000   0.0000000), wk =   0.0092593
        k(    2) = (   0.0000000   0.0000000   0.1666667), wk =   0.0185185
        k(    3) = (   0.0000000   0.0000000   0.3333333), wk =   0.0185185
        k(    4) = (   0.0000000   0.0000000  -0.5000000), wk =   0.0092593
        k(    5) = (   0.0000000   0.1666667   0.0000000), wk =   0.0555556
        k(    6) = (   0.0000000   0.1666667   0.1666667), wk =   0.0555556
        k(    7) = (   0.0000000   0.1666667   0.3333333), wk =   0.0555556
        k(    8) = (   0.0000000   0.1666667  -0.5000000), wk =   0.0555556
        k(    9) = (   0.0000000   0.3333333   0.0000000), wk =   0.0555556
        k(   10) = (   0.0000000   0.3333333   0.1666667), wk =   0.0555556
        k(   11) = (   0.0000000   0.3333333   0.3333333), wk =   0.0555556
        k(   12) = (   0.0000000   0.3333333  -0.5000000), wk =   0.0555556
        k(   13) = (   0.0000000  -0.5000000   0.0000000), wk =   0.0277778
        k(   14) = (   0.0000000  -0.5000000   0.1666667), wk =   0.0555556
        k(   15) = (   0.0000000  -0.5000000   0.3333333), wk =   0.0555556
[...]
        k(   26) = (   0.3333333   0.3333333   0.1666667), wk =   0.0370370
        k(   27) = (   0.3333333   0.3333333   0.3333333), wk =   0.0370370
        k(   28) = (   0.3333333   0.3333333  -0.5000000), wk =   0.0185185
        k(   29) = (   0.0000000  -0.1666667   0.1666667), wk =   0.0555556
        k(   30) = (   0.0000000  -0.1666667   0.3333333), wk =   0.0555556
        k(   31) = (   0.0000000  -0.3333333   0.1666667), wk =   0.0555556
        k(   32) = (   0.0000000  -0.3333333   0.3333333), wk =   0.0555556
        k(   33) = (  -0.1666667  -0.3333333   0.1666667), wk =   0.1111111
        k(   34) = (  -0.1666667  -0.3333333   0.3333333), wk =   0.1111111

     Check: negative core charge=   -0.000002

     Initial potential from superposition of free atoms

     starting charge     143.9702, renormalised to     144.0000
     Starting wfcs are  104 randomized atomic wfcs

     Self-consistent Calculation

     iteration #  1     ecut=    50.00 Ry     beta= 0.30
     Davidson diagonalization with overlap

     ethr =  1.00E-02,  avg # of iterations =  1.7

     total energy              =   -1445.51116273 Ry
     estimated scf accuracy    <       3.26122183 Ry

[...]

     c_bands:  1 eigenvalues not converged
     c_bands:  1 eigenvalues not converged
     c_bands:  1 eigenvalues not converged
     ethr =  1.22E-07,  avg # of iterations = 17.5

[...]

     total energy              =   -1446.29624175 Ry
     estimated scf accuracy    <       0.00000007 Ry

     iteration # 35     ecut=    50.00 Ry     beta= 0.30
     Davidson diagonalization with overlap

     ethr =  1.08E-11,  avg # of iterations =  8.3

     End of self-consistent calculation

          k = 0.0000 0.0000 0.0000 (  9955 PWs)   bands (ev):

   -12.4870 -12.1456 -12.0893 -12.0893 -12.0893 -11.9855 -11.9855 -11.9855
    -0.9847  -0.9847  -0.9827  -0.9827  -0.9827  -0.9472  -0.8901  -0.8901
    -0.8157  -0.8157  -0.8157  -0.7740  -0.7740  -0.7740  -0.5796  -0.5796
    -0.5796  -0.5546  -0.5546  -0.5546  -0.4693  -0.4283  -0.4283  -0.4283
    -0.3925  -0.3925  -0.3023  -0.3023  -0.2958  -0.2958  -0.2958  -0.2814
    -0.2814  -0.2814  -0.2690  -0.2690  -0.2690  -0.2177  -0.2177  -0.2177
     0.3094   0.5704   0.5704   0.5704   1.0433   1.0433   1.0433   1.9206
     1.9206   1.9206   2.5709   2.5709   2.5709   3.0286   3.0286   3.0286
     3.3499   3.3499   3.3499   3.5284   3.5284   3.7996   3.9599   3.9599

     occupation numbers
     1.0000   1.0000   1.0000   1.0000   1.0000   1.0000   1.0000   1.0000
     1.0000   1.0000   1.0000   1.0000   1.0000   1.0000   1.0000   1.0000
     1.0000   1.0000   1.0000   1.0000   1.0000   1.0000   1.0000   1.0000
     1.0000   1.0000   1.0000   1.0000   1.0000   1.0000   1.0000   1.0000
     1.0000   1.0000   1.0000   1.0000   1.0000   1.0000   1.0000   1.0000
     1.0000   1.0000   1.0000   1.0000   1.0000   1.0000   1.0000   1.0000
     1.0000   1.0000   1.0000   1.0000   1.0000   1.0000   1.0000   1.0000
     1.0000   1.0000   1.0000   1.0000   1.0000   1.0000   1.0000   1.0000
     1.0000   1.0000   1.0000   1.0000   1.0000   1.0000   1.0000   1.0000

[...]

          k = 0.0000-0.3849 0.3896 (  9935 PWs)   bands (ev):

[...]

          k =-0.1667-0.4811 0.1948 (  9950 PWs)   bands (ev):

[...]

          k =-0.1667-0.4811 0.3896 (  9941 PWs)   bands (ev):

   -12.2732 -12.1890 -12.1376 -12.1247 -12.0805 -12.0406 -12.0249 -11.9970
    -1.0177  -1.0079  -0.9391  -0.9388  -0.9310  -0.8960  -0.8892  -0.8739
    -0.8450  -0.8224  -0.7819  -0.7810  -0.7769  -0.7542  -0.7321  -0.7123
    -0.7063  -0.7019  -0.6567  -0.6553  -0.6494  -0.6430  -0.5162  -0.4957
    -0.3831  -0.3814  -0.3732  -0.3632  -0.3629  -0.3440  -0.3419  -0.3210
    -0.3177  -0.3077  -0.2879  -0.2830  -0.2615  -0.2230  -0.1747  -0.1287
     0.7839   0.9094   1.0434   1.1723   1.2501   1.3144   1.5733   1.8578
     1.9999   2.4232   2.4414   2.4491   2.5948   2.7247   2.7862   2.9782
     3.0015   3.0543   3.2247   3.2276   3.2427   3.3423   3.3636   3.5320

     occupation numbers
     1.0000   1.0000   1.0000   1.0000   1.0000   1.0000   1.0000   1.0000
     1.0000   1.0000   1.0000   1.0000   1.0000   1.0000   1.0000   1.0000
     1.0000   1.0000   1.0000   1.0000   1.0000   1.0000   1.0000   1.0000
     1.0000   1.0000   1.0000   1.0000   1.0000   1.0000   1.0000   1.0000
     1.0000   1.0000   1.0000   1.0000   1.0000   1.0000   1.0000   1.0000
     1.0000   1.0000   1.0000   1.0000   1.0000   1.0000   1.0000   1.0000
     1.0000   1.0000   1.0000   1.0000   1.0000   1.0000   1.0000   1.0000
     1.0000   1.0000   1.0000   1.0000   1.0000   1.0000   1.0000   1.0000
     1.0000   1.0000   1.0000   1.0000   1.0000   1.0000   1.0000   1.0000

     highest occupied level (ev):     3.9599

!    total energy              =   -1446.29624176 Ry
     estimated scf accuracy    <          7.1E-09 Ry

     The total energy is the sum of the following terms:
     one-electron contribution =    -722.50549474 Ry
     hartree contribution      =     511.20404222 Ry
     xc contribution           =    -436.51599769 Ry
     ewald contribution        =    -798.47879156 Ry

     convergence has been achieved in  35 iterations

     Forces acting on atoms (cartesian axes, Ry/au):

     atom    1 type  1   force =    -0.00000313   -0.00000181   -0.00456567
     atom    2 type  1   force =    -0.00000000    0.00000756   -0.00457104
     atom    3 type  2   force =     0.00000009    0.00000005    0.00456912
     atom    4 type  2   force =    -0.00000000   -0.00000085    0.00456951
     atom    5 type  1   force =     0.00000000    0.00000000   -0.00456576
     atom    6 type  1   force =     0.00000654   -0.00000378   -0.00457104
     atom    7 type  2   force =     0.00000000    0.00000000    0.00456914
     atom    8 type  2   force =    -0.00000074    0.00000043    0.00456951
     atom    9 type  1   force =     0.00000313   -0.00000181   -0.00456567
     atom   10 type  1   force =     0.00000000    0.00000000   -0.00457833
     atom   11 type  2   force =    -0.00000009    0.00000005    0.00456912
     atom   12 type  2   force =     0.00000000    0.00000000    0.00456918
     atom   13 type  1   force =    -0.00000000    0.00000361   -0.00456567
     atom   14 type  1   force =    -0.00000654   -0.00000378   -0.00457104
     atom   15 type  2   force =     0.00000000   -0.00000010    0.00456912
     atom   16 type  2   force =     0.00000074    0.00000043    0.00456951
     The non-local contrib.  to forces
     atom    1 type  1   force =    -0.00000093   -0.00000054    0.13821916
     atom    2 type  1   force =     0.00000000    0.00000235    0.13821759
     atom    3 type  2   force =     0.00000117    0.00000067    0.15794416
     atom    4 type  2   force =     0.00000000   -0.00000327    0.15794626
     atom    5 type  1   force =     0.00000000    0.00000000    0.13821989
     atom    6 type  1   force =     0.00000204   -0.00000118    0.13821759
     atom    7 type  2   force =     0.00000000    0.00000000    0.15794226
     atom    8 type  2   force =    -0.00000283    0.00000163    0.15794626
     atom    9 type  1   force =     0.00000093   -0.00000054    0.13821916
     atom   10 type  1   force =     0.00000000   -0.00000000    0.13821865
     atom   11 type  2   force =    -0.00000117    0.00000067    0.15794416
     atom   12 type  2   force =     0.00000000   -0.00000000    0.15794424
     atom   13 type  1   force =    -0.00000000    0.00000107    0.13821916
     atom   14 type  1   force =    -0.00000204   -0.00000118    0.13821759
     atom   15 type  2   force =     0.00000000   -0.00000135    0.15794416
     atom   16 type  2   force =     0.00000283    0.00000163    0.15794626
     The ionic contribution  to forces
     atom    1 type  1   force =    -0.00000000    0.00000001    1.08495936
     atom    2 type  1   force =     0.00000002   -0.00000000    1.08495936
     atom    3 type  2   force =    -0.00000000    0.00000001   -1.08495936
     atom    4 type  2   force =     0.00000001   -0.00000000   -1.08495936
     atom    5 type  1   force =    -0.00000001    0.00000000    1.08495936
     atom    6 type  1   force =     0.00000001    0.00000000    1.08495936
     atom    7 type  2   force =    -0.00000001    0.00000000   -1.08495936
     atom    8 type  2   force =     0.00000001   -0.00000000   -1.08495936
     atom    9 type  1   force =    -0.00000000   -0.00000000    1.08495936
     atom   10 type  1   force =    -0.00000001   -0.00000000    1.08495936
     atom   11 type  2   force =    -0.00000000   -0.00000000   -1.08495936
     atom   12 type  2   force =    -0.00000000   -0.00000000   -1.08495936
     atom   13 type  1   force =    -0.00000001    0.00000000    1.08495936
     atom   14 type  1   force =     0.00000001   -0.00000001    1.08495936
     atom   15 type  2   force =    -0.00000001    0.00000000   -1.08495936
     atom   16 type  2   force =     0.00000001   -0.00000000   -1.08495936
     The local contribution  to forces
     atom    1 type  1   force =     0.00000330    0.00000212   -1.21960582
     atom    2 type  1   force =     0.00000009   -0.00000939   -1.21960075
     atom    3 type  2   force =     0.00000002    0.00000007    0.93304306
     atom    4 type  2   force =     0.00000002    0.00000620    0.93304056
     atom    5 type  1   force =    -0.00000018    0.00000011   -1.21960876
     atom    6 type  1   force =    -0.00000809    0.00000477   -1.21960075
     atom    7 type  2   force =    -0.00000005    0.00000003    0.93304536
     atom    8 type  2   force =     0.00000538   -0.00000308    0.93304056
     atom    9 type  1   force =    -0.00000367    0.00000212   -1.21960582
     atom   10 type  1   force =    -0.00000009    0.00000005   -1.21959991
     atom   11 type  2   force =    -0.00000012    0.00000007    0.93304306
     atom   12 type  2   force =    -0.00000002    0.00000001    0.93304409
     atom   13 type  1   force =    -0.00000018   -0.00000392   -1.21960582
     atom   14 type  1   force =     0.00000827    0.00000477   -1.21960075
     atom   15 type  2   force =    -0.00000005   -0.00000005    0.93304306
     atom   16 type  2   force =    -0.00000534   -0.00000308    0.93304056
     The core correction contribution to forces
     atom    1 type  1   force =    -0.00000007   -0.00000001   -0.00815674
     atom    2 type  1   force =     0.00000001    0.00000018   -0.00815675
     atom    3 type  2   force =    -0.00000001   -0.00000001   -0.00144364
     atom    4 type  2   force =    -0.00000000    0.00000007   -0.00144368
     atom    5 type  1   force =    -0.00000002    0.00000001   -0.00815646
     atom    6 type  1   force =     0.00000016   -0.00000008   -0.00815675
     atom    7 type  2   force =     0.00000000   -0.00000000   -0.00144360
     atom    8 type  2   force =     0.00000006   -0.00000003   -0.00144368
     atom    9 type  1   force =     0.00000002   -0.00000001   -0.00815674
     atom   10 type  1   force =    -0.00000001    0.00000001   -0.00815662
     atom   11 type  2   force =     0.00000001   -0.00000001   -0.00144364
     atom   12 type  2   force =     0.00000000   -0.00000000   -0.00144364
     atom   13 type  1   force =    -0.00000002    0.00000007   -0.00815674
     atom   14 type  1   force =    -0.00000013   -0.00000008   -0.00815675
     atom   15 type  2   force =     0.00000000    0.00000002   -0.00144364
     atom   16 type  2   force =    -0.00000006   -0.00000003   -0.00144368
     The Hubbard contrib.    to forces
     atom    1 type  1   force =     0.00000000    0.00000000    0.00000000
     atom    2 type  1   force =     0.00000000    0.00000000    0.00000000
     atom    3 type  2   force =     0.00000000    0.00000000    0.00000000
     atom    4 type  2   force =     0.00000000    0.00000000    0.00000000
     atom    5 type  1   force =     0.00000000    0.00000000    0.00000000
     atom    6 type  1   force =     0.00000000    0.00000000    0.00000000
     atom    7 type  2   force =     0.00000000    0.00000000    0.00000000
     atom    8 type  2   force =     0.00000000    0.00000000    0.00000000
     atom    9 type  1   force =     0.00000000    0.00000000    0.00000000
     atom   10 type  1   force =     0.00000000    0.00000000    0.00000000
     atom   11 type  2   force =     0.00000000    0.00000000    0.00000000
     atom   12 type  2   force =     0.00000000    0.00000000    0.00000000
     atom   13 type  1   force =     0.00000000    0.00000000    0.00000000
     atom   14 type  1   force =     0.00000000    0.00000000    0.00000000
     atom   15 type  2   force =     0.00000000    0.00000000    0.00000000
     atom   16 type  2   force =     0.00000000    0.00000000    0.00000000
     The SCF correction term to forces
     atom    1 type  1   force =    -0.00000564   -0.00000326    0.00002288
     atom    2 type  1   force =    -0.00000000    0.00001448    0.00001403
     atom    3 type  2   force =    -0.00000114   -0.00000066   -0.00001058
     atom    4 type  2   force =    -0.00000000   -0.00000384   -0.00000975
     atom    5 type  1   force =     0.00000000   -0.00000000    0.00002473
     atom    6 type  1   force =     0.00001254   -0.00000724    0.00001403
     atom    7 type  2   force =     0.00000000   -0.00000000   -0.00001099
     atom    8 type  2   force =    -0.00000333    0.00000192   -0.00000975
     atom    9 type  1   force =     0.00000564   -0.00000326    0.00002288
     atom   10 type  1   force =     0.00000000   -0.00000000    0.00000470
     atom   11 type  2   force =     0.00000114   -0.00000066   -0.00001058
     atom   12 type  2   force =     0.00000000   -0.00000000   -0.00001163
     atom   13 type  1   force =     0.00000000    0.00000651    0.00002288
     atom   14 type  1   force =    -0.00001254   -0.00000724    0.00001403
     atom   15 type  2   force =     0.00000000    0.00000131   -0.00001058
     atom   16 type  2   force =     0.00000333    0.00000192   -0.00000975

     Total force =     0.018277     Total SCF correction =     0.000067

     General routines

     Parallel routines

   This run was terminated on:   1: 5: 1  24Aug2025

   JOB DONE.
Note: The following floating-point exceptions are signalling: IEEE_INVALID_FLAG
Note: The following floating-point exceptions are signalling: IEEE_INVALID_FLAG
Note: The following floating-point exceptions are signalling: IEEE_INVALID_FLAG
Note: The following floating-point exceptions are signalling: IEEE_INVALID_FLAG
Note: The following floating-point exceptions are signalling: IEEE_INVALID_FLAG
Note: The following floating-point exceptions are signalling: IEEE_INVALID_FLAG
Note: The following floating-point exceptions are signalling: IEEE_INVALID_FLAG
Note: The following floating-point exceptions are signalling: IEEE_INVALID_FLAG
Note: The following floating-point exceptions are signalling: IEEE_INVALID_FLAG
Note: The following floating-point exceptions are signalling: IEEE_INVALID_FLAG
Note: The following floating-point exceptions are signalling: IEEE_INVALID_FLAG
Note: The following floating-point exceptions are signalling: IEEE_INVALID_FLAG
Note: The following floating-point exceptions are signalling: IEEE_INVALID_FLAG
Note: The following floating-point exceptions are signalling: IEEE_INVALID_FLAG
Note: The following floating-point exceptions are signalling: IEEE_INVALID_FLAG
Note: The following floating-point exceptions are signalling: IEEE_INVALID_FLAG
Note: The following floating-point exceptions are signalling: IEEE_INVALID_FLAG
Note: The following floating-point exceptions are signalling: IEEE_INVALID_FLAG
Note: The following floating-point exceptions are signalling: IEEE_INVALID_FLAG
Note: The following floating-point exceptions are signalling: IEEE_INVALID_FLAG
Note: The following floating-point exceptions are signalling: IEEE_INVALID_FLAG
Note: The following floating-point exceptions are signalling: IEEE_INVALID_FLAG
Note: The following floating-point exceptions are signalling: IEEE_INVALID_FLAG
Note: The following floating-point exceptions are signalling: IEEE_INVALID_FLAG
Note: The following floating-point exceptions are signalling: IEEE_INVALID_FLAG
Note: The following floating-point exceptions are signalling: IEEE_INVALID_FLAG
Note: The following floating-point exceptions are signalling: IEEE_INVALID_FLAG
Note: The following floating-point exceptions are signalling: IEEE_INVALID_FLAG
Note: The following floating-point exceptions are signalling: IEEE_INVALID_FLAG
Note: The following floating-point exceptions are signalling: IEEE_INVALID_FLAG
Note: The following floating-point exceptions are signalling: IEEE_INVALID_FLAG
Note: The following floating-point exceptions are signalling: IEEE_INVALID_FLAG