     Program PWSCF v.7.2 starts on 24Aug2025 at  2:11:33

     Reading input from /home/jvc/QEspresso7.2/ZnO_database/scripts/cell221.in/ZnO-3.53-1.58-221.in
Warning: card &CELL ignored
Warning: card / ignored
Warning: card &FCP ignored
Warning: card / ignored
Warning: card &RISM ignored
Warning: card / ignored

     Current dimensions of program PWSCF are:
     Max number of different atomic species (ntypx) = 10
     Max number of k-points (npk) =  40000
     Max angular momentum in pseudopotentials (lmaxx) =  4
     file Zn.upf: wavefunction(s)  3D renormalized
     Found identity + ( -0.0000 -0.5000  0.0000) symmetry
     This is a supercell, fractional translations are disabled
     Message from routine setup:
     using ibrav=0 with symmetry is DISCOURAGED, use correct ibrav instead

     K-points division:     npool     =       8
     band groups division:  nbgrp     =       4
     Subspace diagonalization in iterative solution of the eigenvalue problem:
     a serial algorithm will be used

     Using Slab Decomposition

     bravais-lattice index     =            0
     lattice parameter (alat)  =      13.3463  a.u.
     unit-cell volume          =    1628.5898 (a.u.)^3
     number of atoms/cell      =           16
     number of atomic types    =            2
     number of electrons       =       144.00
     number of Kohn-Sham states=           72
     kinetic-energy cutoff     =      50.0000  Ry
     charge density cutoff     =     400.0000  Ry
     scf convergence threshold =      1.0E-08
     mixing beta               =       0.3000
     number of iterations used =            8  plain     mixing
     Exchange-correlation= PBE
                           (   1   4   3   4   0   0   0)

     celldm(1)=  13.346325  celldm(2)=   0.000000  celldm(3)=   0.000000
     celldm(4)=   0.000000  celldm(5)=   0.000000  celldm(6)=   0.000000

     crystal axes: (cart. coord. in units of alat)
               a(1) = (   1.000000   0.000000   0.000000 )
               a(2) = (  -0.500000   0.866025   0.000000 )
               a(3) = (   0.000000   0.000000   0.791036 )

     reciprocal axes: (cart. coord. in units 2 pi/alat)
               b(1) = (  1.000000  0.577350 -0.000000 )
               b(2) = (  0.000000  1.154701  0.000000 )
               b(3) = (  0.000000 -0.000000  1.264166 )

     PseudoPot. # 1 for Zn read from file:
     /home/jvc/QEspresso7.2/ZnO_database/pseudos/Zn.upf
     MD5 check sum: 7f56cabf9682ed8c977c2f7d0c5985c5
     Pseudo is Ultrasoft + core correction, Zval = 12.0
     Generated using &quot;atomic&quot; code by A. Dal Corso  v.6.2.2
     Using radial grid of 1201 points,  6 beta functions with:
                l(1) =   0
                l(2) =   0
                l(3) =   1
                l(4) =   1
                l(5) =   2
                l(6) =   2
     Q(r) pseudized with 0 coefficients

     PseudoPot. # 2 for O  read from file:
     /home/jvc/QEspresso7.2/ZnO_database/pseudos/O.upf
     MD5 check sum: 91400c9766925bcf19f520983a725ff0
     Pseudo is Ultrasoft + core correction, Zval =  6.0
     Generated using &quot;atomic&quot; code by A. Dal Corso  v.6.3MaX
     Using radial grid of 1095 points,  4 beta functions with:
                l(1) =   0
                l(2) =   0
                l(3) =   1
                l(4) =   1
     Q(r) pseudized with 0 coefficients

     atomic species   valence    mass     pseudopotential
        Zn            12.00    65.38000     Zn( 1.00)
        O              6.00    15.99900     O ( 1.00)

      6 Sym. Ops. (no inversion) found

                                    s                        frac. trans.

      isym =  1     identity

 cryst.   s( 1) = (     1          0          0      )
                  (     0          1          0      )
                  (     0          0          1      )

 cart.    s( 1) = (  1.0000000  0.0000000  0.0000000 )
                  (  0.0000000  1.0000000  0.0000000 )
                  (  0.0000000  0.0000000  1.0000000 )

      isym =  2     120 deg rotation - cryst. axis [0,0,1]

[...]

      isym =  3     120 deg rotation - cryst. axis [0,0,-1]

[...]

      isym =  4     inv. 180 deg rotation - cart. axis [1,0,0]

[...]

      isym =  5     inv. 180 deg rotation - cryst. axis [0,1,0]

[...]

      isym =  6     inv. 180 deg rotation - cryst. axis [1,1,0]

 cryst.   s( 6) = (     0         -1          0      )
                  (    -1          0          0      )
                  (     0          0          1      )

 cart.    s( 6) = (  0.5000000 -0.8660254  0.0000000 )
                  ( -0.8660254 -0.5000000  0.0000000 )
                  (  0.0000000  0.0000000  1.0000000 )

   Cartesian axes

     site n.     atom                  positions (alat units)
         1           Zn  tau(   1) = (   0.2500000   0.1443376   0.3960190  )
         2           Zn  tau(   2) = (  -0.0000000   0.2886751   0.0005012  )
         3           O   tau(   3) = (   0.2500000   0.1443376   0.6958554  )
         4           O   tau(   4) = (  -0.0000000   0.2886751   0.3003376  )
         5           Zn  tau(   5) = (  -0.0000000   0.5773503   0.3960190  )
         6           Zn  tau(   6) = (  -0.2500000   0.7216878   0.0005012  )
         7           O   tau(   7) = (  -0.0000000   0.5773503   0.6958554  )
         8           O   tau(   8) = (  -0.2500000   0.7216878   0.3003376  )
         9           Zn  tau(   9) = (   0.7500000   0.1443376   0.3960190  )
        10           Zn  tau(  10) = (   0.5000000   0.2886751   0.0005012  )
        11           O   tau(  11) = (   0.7500000   0.1443376   0.6958554  )
        12           O   tau(  12) = (   0.5000000   0.2886751   0.3003376  )
        13           Zn  tau(  13) = (   0.5000000   0.5773503   0.3960190  )
        14           Zn  tau(  14) = (   0.2500000   0.7216878   0.0005012  )
        15           O   tau(  15) = (   0.5000000   0.5773503   0.6958554  )
        16           O   tau(  16) = (   0.2500000   0.7216878   0.3003376  )

   Crystallographic axes

     site n.     atom                  positions (cryst. coord.)
         1           Zn  tau(   1) = (  0.3333333  0.1666667  0.5006336  )
         2           Zn  tau(   2) = (  0.1666667  0.3333333  0.0006336  )
         3           O   tau(   3) = (  0.3333333  0.1666667  0.8796764  )
         4           O   tau(   4) = (  0.1666667  0.3333333  0.3796764  )
         5           Zn  tau(   5) = (  0.3333333  0.6666667  0.5006336  )
         6           Zn  tau(   6) = (  0.1666667  0.8333333  0.0006336  )
         7           O   tau(   7) = (  0.3333333  0.6666667  0.8796764  )
         8           O   tau(   8) = (  0.1666667  0.8333333  0.3796764  )
         9           Zn  tau(   9) = (  0.8333333  0.1666667  0.5006336  )
        10           Zn  tau(  10) = (  0.6666667  0.3333333  0.0006336  )
        11           O   tau(  11) = (  0.8333333  0.1666667  0.8796764  )
        12           O   tau(  12) = (  0.6666667  0.3333333  0.3796764  )
        13           Zn  tau(  13) = (  0.8333333  0.6666667  0.5006336  )
        14           Zn  tau(  14) = (  0.6666667  0.8333333  0.0006336  )
        15           O   tau(  15) = (  0.8333333  0.6666667  0.8796764  )
        16           O   tau(  16) = (  0.6666667  0.8333333  0.3796764  )

     number of k points=    34
                       cart. coord. in units 2pi/alat
        k(    1) = (   0.0000000   0.0000000   0.0000000), wk =   0.0092593
        k(    2) = (   0.0000000   0.0000000   0.2106943), wk =   0.0185185
        k(    3) = (   0.0000000   0.0000000   0.4213885), wk =   0.0185185
        k(    4) = (   0.0000000   0.0000000  -0.6320828), wk =   0.0092593
        k(    5) = (   0.0000000   0.1924501   0.0000000), wk =   0.0555556
        k(    6) = (   0.0000000   0.1924501   0.2106943), wk =   0.0555556
        k(    7) = (   0.0000000   0.1924501   0.4213885), wk =   0.0555556
        k(    8) = (   0.0000000   0.1924501  -0.6320828), wk =   0.0555556
        k(    9) = (   0.0000000   0.3849002   0.0000000), wk =   0.0555556
        k(   10) = (   0.0000000   0.3849002   0.2106943), wk =   0.0555556
        k(   11) = (   0.0000000   0.3849002   0.4213885), wk =   0.0555556
        k(   12) = (   0.0000000   0.3849002  -0.6320828), wk =   0.0555556
        k(   13) = (   0.0000000  -0.5773503   0.0000000), wk =   0.0277778
        k(   14) = (   0.0000000  -0.5773503   0.2106943), wk =   0.0555556
        k(   15) = (   0.0000000  -0.5773503   0.4213885), wk =   0.0555556
        k(   16) = (   0.0000000  -0.5773503  -0.6320828), wk =   0.0277778
        k(   17) = (   0.1666667   0.2886751   0.0000000), wk =   0.0555556
        k(   18) = (   0.1666667   0.2886751   0.2106943), wk =   0.1111111
        k(   19) = (   0.1666667   0.2886751   0.4213885), wk =   0.1111111
        k(   20) = (   0.1666667   0.2886751  -0.6320828), wk =   0.0555556
        k(   21) = (   0.1666667   0.4811252   0.0000000), wk =   0.1111111
        k(   22) = (   0.1666667   0.4811252   0.2106943), wk =   0.1111111
        k(   23) = (   0.1666667   0.4811252   0.4213885), wk =   0.1111111
        k(   24) = (   0.1666667   0.4811252  -0.6320828), wk =   0.1111111
        k(   25) = (   0.3333333   0.5773503   0.0000000), wk =   0.0185185
        k(   26) = (   0.3333333   0.5773503   0.2106943), wk =   0.0370370
        k(   27) = (   0.3333333   0.5773503   0.4213885), wk =   0.0370370
        k(   28) = (   0.3333333   0.5773503  -0.6320828), wk =   0.0185185
        k(   29) = (   0.0000000  -0.1924501   0.2106943), wk =   0.0555556
        k(   30) = (   0.0000000  -0.1924501   0.4213885), wk =   0.0555556
        k(   31) = (   0.0000000  -0.3849002   0.2106943), wk =   0.0555556
        k(   32) = (   0.0000000  -0.3849002   0.4213885), wk =   0.0555556
        k(   33) = (  -0.1666667  -0.4811252   0.2106943), wk =   0.1111111
        k(   34) = (  -0.1666667  -0.4811252   0.4213885), wk =   0.1111111

                       cryst. coord.
        k(    1) = (   0.0000000   0.0000000   0.0000000), wk =   0.0092593
        k(    2) = (   0.0000000   0.0000000   0.1666667), wk =   0.0185185
        k(    3) = (   0.0000000   0.0000000   0.3333333), wk =   0.0185185
        k(    4) = (   0.0000000   0.0000000  -0.5000000), wk =   0.0092593
        k(    5) = (   0.0000000   0.1666667   0.0000000), wk =   0.0555556
        k(    6) = (   0.0000000   0.1666667   0.1666667), wk =   0.0555556
        k(    7) = (   0.0000000   0.1666667   0.3333333), wk =   0.0555556
        k(    8) = (   0.0000000   0.1666667  -0.5000000), wk =   0.0555556
        k(    9) = (   0.0000000   0.3333333   0.0000000), wk =   0.0555556
        k(   10) = (   0.0000000   0.3333333   0.1666667), wk =   0.0555556
        k(   11) = (   0.0000000   0.3333333   0.3333333), wk =   0.0555556
        k(   12) = (   0.0000000   0.3333333  -0.5000000), wk =   0.0555556
        k(   13) = (   0.0000000  -0.5000000   0.0000000), wk =   0.0277778
        k(   14) = (   0.0000000  -0.5000000   0.1666667), wk =   0.0555556
        k(   15) = (   0.0000000  -0.5000000   0.3333333), wk =   0.0555556
[...]
        k(   25) = (   0.3333333   0.3333333   0.0000000), wk =   0.0185185
        k(   26) = (   0.3333333   0.3333333   0.1666667), wk =   0.0370370
        k(   27) = (   0.3333333   0.3333333   0.3333333), wk =   0.0370370
        k(   28) = (   0.3333333   0.3333333  -0.5000000), wk =   0.0185185
        k(   29) = (   0.0000000  -0.1666667   0.1666667), wk =   0.0555556
        k(   30) = (   0.0000000  -0.1666667   0.3333333), wk =   0.0555556
        k(   31) = (   0.0000000  -0.3333333   0.1666667), wk =   0.0555556
        k(   32) = (   0.0000000  -0.3333333   0.3333333), wk =   0.0555556
        k(   33) = (  -0.1666667  -0.3333333   0.1666667), wk =   0.1111111
        k(   34) = (  -0.1666667  -0.3333333   0.3333333), wk =   0.1111111

     Check: negative core charge=   -0.000002

     Initial potential from superposition of free atoms

     starting charge     143.9702, renormalised to     144.0000
     Starting wfcs are  104 randomized atomic wfcs

     Self-consistent Calculation

     iteration #  1     ecut=    50.00 Ry     beta= 0.30
     Davidson diagonalization with overlap

     ethr =  1.00E-02,  avg # of iterations =  1.8

     total energy              =   -1445.58465940 Ry
     estimated scf accuracy    <       3.17884608 Ry

[...]

     total energy              =   -1446.34587284 Ry
     estimated scf accuracy    <       0.00000002 Ry

     iteration # 37     ecut=    50.00 Ry     beta= 0.30
     Davidson diagonalization with overlap

     ethr =  1.29E-11,  avg # of iterations =  2.7

     End of self-consistent calculation

          k = 0.0000 0.0000 0.0000 (  9695 PWs)   bands (ev):

   -12.3424 -11.9481 -11.9481 -11.9481 -11.9028 -11.8118 -11.8118 -11.8118
    -0.7644  -0.7644  -0.7644  -0.7373  -0.7373  -0.7274  -0.6097  -0.6097
    -0.5919  -0.5919  -0.5919  -0.4789  -0.4789  -0.4789  -0.3609  -0.3609
    -0.3609  -0.2603  -0.2603  -0.2603  -0.2217  -0.2217  -0.2217  -0.1507
    -0.1507  -0.0841  -0.0687  -0.0687  -0.0687  -0.0505  -0.0505  -0.0505
    -0.0230  -0.0230   0.0021   0.0021   0.0021   0.0440   0.0440   0.0440
     0.3878   0.8224   0.8224   0.8224   1.3629   1.3629   1.3629   2.0404
     2.0404   2.0404   2.5829   2.5829   2.5829   3.2489   3.2489   3.2489
     3.5696   3.5696   3.6162   3.6162   3.6162   4.1561   4.1561   4.1567

     occupation numbers
     1.0000   1.0000   1.0000   1.0000   1.0000   1.0000   1.0000   1.0000
     1.0000   1.0000   1.0000   1.0000   1.0000   1.0000   1.0000   1.0000
     1.0000   1.0000   1.0000   1.0000   1.0000   1.0000   1.0000   1.0000
     1.0000   1.0000   1.0000   1.0000   1.0000   1.0000   1.0000   1.0000
     1.0000   1.0000   1.0000   1.0000   1.0000   1.0000   1.0000   1.0000
     1.0000   1.0000   1.0000   1.0000   1.0000   1.0000   1.0000   1.0000
     1.0000   1.0000   1.0000   1.0000   1.0000   1.0000   1.0000   1.0000
     1.0000   1.0000   1.0000   1.0000   1.0000   1.0000   1.0000   1.0000
     1.0000   1.0000   1.0000   1.0000   1.0000   1.0000   1.0000   1.0000

[...]

          k = 0.0000-0.3849 0.4214 (  9735 PWs)   bands (ev):

[...]

          k =-0.1667-0.4811 0.2107 (  9734 PWs)   bands (ev):

[...]

          k =-0.1667-0.4811 0.4214 (  9730 PWs)   bands (ev):

   -12.1131 -12.0337 -11.9722 -11.9378 -11.8929 -11.8729 -11.8629 -11.8364
    -0.8095  -0.8066  -0.7500  -0.7114  -0.7100  -0.6905  -0.6722  -0.6383
    -0.6112  -0.6074  -0.5864  -0.5543  -0.5462  -0.5309  -0.5246  -0.5153
    -0.4854  -0.4643  -0.4502  -0.4365  -0.3933  -0.3744  -0.3007  -0.2767
    -0.1179  -0.1115  -0.1113  -0.1065  -0.1059  -0.0886  -0.0884  -0.0659
    -0.0416  -0.0354  -0.0158  -0.0066   0.0202   0.0556   0.0879   0.1327
     0.9897   1.1349   1.2124   1.3499   1.4760   1.5282   1.7885   1.9922
     2.2102   2.6498   2.7080   2.7287   2.8049   2.9446   3.0771   3.0773
     3.2240   3.3236   3.3639   3.5089   3.5610   3.6192   3.6859   3.7246

     occupation numbers
     1.0000   1.0000   1.0000   1.0000   1.0000   1.0000   1.0000   1.0000
     1.0000   1.0000   1.0000   1.0000   1.0000   1.0000   1.0000   1.0000
     1.0000   1.0000   1.0000   1.0000   1.0000   1.0000   1.0000   1.0000
     1.0000   1.0000   1.0000   1.0000   1.0000   1.0000   1.0000   1.0000
     1.0000   1.0000   1.0000   1.0000   1.0000   1.0000   1.0000   1.0000
     1.0000   1.0000   1.0000   1.0000   1.0000   1.0000   1.0000   1.0000
     1.0000   1.0000   1.0000   1.0000   1.0000   1.0000   1.0000   1.0000
     1.0000   1.0000   1.0000   1.0000   1.0000   1.0000   1.0000   1.0000
     1.0000   1.0000   1.0000   1.0000   1.0000   1.0000   1.0000   1.0000

     highest occupied level (ev):     4.1567

!    total energy              =   -1446.34587283 Ry
     estimated scf accuracy    <          6.4E-09 Ry

     The total energy is the sum of the following terms:
     one-electron contribution =    -712.52175673 Ry
     hartree contribution      =     507.48947087 Ry
     xc contribution           =    -436.65210443 Ry
     ewald contribution        =    -804.66148254 Ry

     convergence has been achieved in  37 iterations

     Forces acting on atoms (cartesian axes, Ry/au):

     atom    1 type  1   force =     0.00001967    0.00001136   -0.00012917
     atom    2 type  1   force =    -0.00000000   -0.00000321   -0.00014219
     atom    3 type  2   force =    -0.00000213   -0.00000123    0.00013479
     atom    4 type  2   force =     0.00000000    0.00000036    0.00013510
     atom    5 type  1   force =     0.00000000    0.00000000   -0.00012725
     atom    6 type  1   force =    -0.00000278    0.00000161   -0.00014219
     atom    7 type  2   force =     0.00000000    0.00000000    0.00013447
     atom    8 type  2   force =     0.00000031   -0.00000018    0.00013510
     atom    9 type  1   force =    -0.00001967    0.00001136   -0.00012917
     atom   10 type  1   force =     0.00000000    0.00000000   -0.00013453
     atom   11 type  2   force =     0.00000213   -0.00000123    0.00013479
     atom   12 type  2   force =     0.00000000    0.00000000    0.00013174
     atom   13 type  1   force =     0.00000000   -0.00002271   -0.00012917
     atom   14 type  1   force =     0.00000278    0.00000161   -0.00014219
     atom   15 type  2   force =     0.00000000    0.00000246    0.00013479
     atom   16 type  2   force =    -0.00000031   -0.00000018    0.00013510
     The non-local contrib.  to forces
     atom    1 type  1   force =     0.00001383    0.00000798   -0.05627109
     atom    2 type  1   force =     0.00000000   -0.00000069   -0.05627979
     atom    3 type  2   force =    -0.00000769   -0.00000444   -0.04520324
     atom    4 type  2   force =     0.00000000    0.00000594   -0.04520121
     atom    5 type  1   force =     0.00000000    0.00000000   -0.05626856
     atom    6 type  1   force =    -0.00000059    0.00000034   -0.05627979
     atom    7 type  2   force =     0.00000000    0.00000000   -0.04520506
     atom    8 type  2   force =     0.00000515   -0.00000297   -0.04520121
     atom    9 type  1   force =    -0.00001383    0.00000798   -0.05627109
     atom   10 type  1   force =     0.00000000    0.00000000   -0.05627811
     atom   11 type  2   force =     0.00000769   -0.00000444   -0.04520324
     atom   12 type  2   force =     0.00000000    0.00000000   -0.04520233
     atom   13 type  1   force =     0.00000000   -0.00001597   -0.05627109
     atom   14 type  1   force =     0.00000059    0.00000034   -0.05627979
     atom   15 type  2   force =     0.00000000    0.00000888   -0.04520324
     atom   16 type  2   force =    -0.00000515   -0.00000297   -0.04520121
     The ionic contribution  to forces
     atom    1 type  1   force =    -0.00000000    0.00000001   -0.30712516
     atom    2 type  1   force =     0.00000000    0.00000001   -0.30712516
     atom    3 type  2   force =    -0.00000000    0.00000000    0.30712516
     atom    4 type  2   force =     0.00000000    0.00000000    0.30712516
     atom    5 type  1   force =     0.00000000   -0.00000001   -0.30712516
     atom    6 type  1   force =    -0.00000000   -0.00000000   -0.30712516
     atom    7 type  2   force =     0.00000000   -0.00000001    0.30712516
     atom    8 type  2   force =    -0.00000000   -0.00000000    0.30712516
     atom    9 type  1   force =    -0.00000000    0.00000001   -0.30712516
     atom   10 type  1   force =     0.00000000    0.00000001   -0.30712516
     atom   11 type  2   force =    -0.00000000    0.00000000    0.30712516
     atom   12 type  2   force =     0.00000000    0.00000000    0.30712516
     atom   13 type  1   force =     0.00000000   -0.00000001   -0.30712516
     atom   14 type  1   force =    -0.00000000   -0.00000000   -0.30712516
     atom   15 type  2   force =     0.00000000   -0.00000001    0.30712516
     atom   16 type  2   force =    -0.00000000   -0.00000000    0.30712516
     The local contribution  to forces
     atom    1 type  1   force =    -0.00004327   -0.00002487    0.35979444
     atom    2 type  1   force =     0.00000009    0.00000697    0.35982945
     atom    3 type  2   force =    -0.00000352   -0.00000200   -0.26216939
     atom    4 type  2   force =     0.00000002   -0.00000411   -0.26217090
     atom    5 type  1   force =     0.00000009   -0.00000005    0.35978866
     atom    6 type  1   force =     0.00000608   -0.00000340    0.35982945
     atom    7 type  2   force =     0.00000002   -0.00000001   -0.26216925
     atom    8 type  2   force =    -0.00000355    0.00000208   -0.26217090
     atom    9 type  1   force =     0.00004327   -0.00002487    0.35979444
     atom   10 type  1   force =     0.00000009    0.00000005    0.35980564
     atom   11 type  2   force =     0.00000352   -0.00000200   -0.26216939
     atom   12 type  2   force =     0.00000002    0.00000001   -0.26217777
     atom   13 type  1   force =     0.00000009    0.00004991    0.35979444
     atom   14 type  1   force =    -0.00000590   -0.00000340    0.35982945
     atom   15 type  2   force =     0.00000002    0.00000405   -0.26216939
     atom   16 type  2   force =     0.00000360    0.00000208   -0.26217090
     The core correction contribution to forces
     atom    1 type  1   force =     0.00000122    0.00000072    0.00345754
     atom    2 type  1   force =     0.00000001   -0.00000040    0.00345615
     atom    3 type  2   force =     0.00000010    0.00000005    0.00038316
     atom    4 type  2   force =    -0.00000000   -0.00000008    0.00038315
     atom    5 type  1   force =     0.00000001   -0.00000001    0.00345757
     atom    6 type  1   force =    -0.00000034    0.00000021    0.00345615
     atom    7 type  2   force =    -0.00000000    0.00000000    0.00038319
     atom    8 type  2   force =    -0.00000007    0.00000004    0.00038315
     atom    9 type  1   force =    -0.00000122    0.00000072    0.00345754
     atom   10 type  1   force =     0.00000001    0.00000001    0.00345763
     atom   11 type  2   force =    -0.00000010    0.00000005    0.00038316
     atom   12 type  2   force =    -0.00000000   -0.00000000    0.00038315
     atom   13 type  1   force =     0.00000001   -0.00000141    0.00345754
     atom   14 type  1   force =     0.00000036    0.00000021    0.00345615
     atom   15 type  2   force =    -0.00000000   -0.00000011    0.00038316
     atom   16 type  2   force =     0.00000007    0.00000004    0.00038315
     The Hubbard contrib.    to forces
     atom    1 type  1   force =     0.00000000    0.00000000    0.00000000
     atom    2 type  1   force =     0.00000000    0.00000000    0.00000000
     atom    3 type  2   force =     0.00000000    0.00000000    0.00000000
     atom    4 type  2   force =     0.00000000    0.00000000    0.00000000
     atom    5 type  1   force =     0.00000000    0.00000000    0.00000000
     atom    6 type  1   force =     0.00000000    0.00000000    0.00000000
     atom    7 type  2   force =     0.00000000    0.00000000    0.00000000
     atom    8 type  2   force =     0.00000000    0.00000000    0.00000000
     atom    9 type  1   force =     0.00000000    0.00000000    0.00000000
     atom   10 type  1   force =     0.00000000    0.00000000    0.00000000
     atom   11 type  2   force =     0.00000000    0.00000000    0.00000000
     atom   12 type  2   force =     0.00000000    0.00000000    0.00000000
     atom   13 type  1   force =     0.00000000    0.00000000    0.00000000
     atom   14 type  1   force =     0.00000000    0.00000000    0.00000000
     atom   15 type  2   force =     0.00000000    0.00000000    0.00000000
     atom   16 type  2   force =     0.00000000    0.00000000    0.00000000
     The SCF correction term to forces
     atom    1 type  1   force =     0.00004783    0.00002761    0.00001556
     atom    2 type  1   force =    -0.00000000   -0.00000904   -0.00002238
     atom    3 type  2   force =     0.00000897    0.00000518   -0.00000044
     atom    4 type  2   force =    -0.00000000   -0.00000138   -0.00000064
     atom    5 type  1   force =    -0.00000000    0.00000000    0.00002070
     atom    6 type  1   force =    -0.00000783    0.00000452   -0.00002238
     atom    7 type  2   force =    -0.00000000    0.00000000    0.00000089
     atom    8 type  2   force =    -0.00000120    0.00000069   -0.00000064
     atom    9 type  1   force =    -0.00004783    0.00002761    0.00001556
     atom   10 type  1   force =    -0.00000000   -0.00000000    0.00000593
     atom   11 type  2   force =    -0.00000897    0.00000518   -0.00000044
     atom   12 type  2   force =     0.00000000   -0.00000000    0.00000398
     atom   13 type  1   force =    -0.00000000   -0.00005523    0.00001556
     atom   14 type  1   force =     0.00000783    0.00000452   -0.00002238
     atom   15 type  2   force =    -0.00000000   -0.00001036   -0.00000044
     atom   16 type  2   force =     0.00000120    0.00000069   -0.00000064

     Total force =     0.000540     Total SCF correction =     0.000112
     SCF correction compared to forces is large: reduce conv_thr to get better values

     General routines

     Parallel routines

   This run was terminated on:   2:20:32  24Aug2025

   JOB DONE.
Note: The following floating-point exceptions are signalling: IEEE_INVALID_FLAG
Note: The following floating-point exceptions are signalling: IEEE_INVALID_FLAG
Note: The following floating-point exceptions are signalling: IEEE_INVALID_FLAG
Note: The following floating-point exceptions are signalling: IEEE_INVALID_FLAG
Note: The following floating-point exceptions are signalling: IEEE_INVALID_FLAG
Note: The following floating-point exceptions are signalling: IEEE_INVALID_FLAG
Note: The following floating-point exceptions are signalling: IEEE_INVALID_FLAG
Note: The following floating-point exceptions are signalling: IEEE_INVALID_FLAG
Note: The following floating-point exceptions are signalling: IEEE_INVALID_FLAG
Note: The following floating-point exceptions are signalling: IEEE_INVALID_FLAG
Note: The following floating-point exceptions are signalling: IEEE_INVALID_FLAG
Note: The following floating-point exceptions are signalling: IEEE_INVALID_FLAG
Note: The following floating-point exceptions are signalling: IEEE_INVALID_FLAG
Note: The following floating-point exceptions are signalling: IEEE_INVALID_FLAG
Note: The following floating-point exceptions are signalling: IEEE_INVALID_FLAG
Note: The following floating-point exceptions are signalling: IEEE_INVALID_FLAG
Note: The following floating-point exceptions are signalling: IEEE_INVALID_FLAG
Note: The following floating-point exceptions are signalling: IEEE_INVALID_FLAG
Note: The following floating-point exceptions are signalling: IEEE_INVALID_FLAG
Note: The following floating-point exceptions are signalling: IEEE_INVALID_FLAG
Note: The following floating-point exceptions are signalling: IEEE_INVALID_FLAG
Note: The following floating-point exceptions are signalling: IEEE_INVALID_FLAG
Note: The following floating-point exceptions are signalling: IEEE_INVALID_FLAG
Note: The following floating-point exceptions are signalling: IEEE_INVALID_FLAG
Note: The following floating-point exceptions are signalling: IEEE_INVALID_FLAG
Note: The following floating-point exceptions are signalling: IEEE_INVALID_FLAG
Note: The following floating-point exceptions are signalling: IEEE_INVALID_FLAG
Note: The following floating-point exceptions are signalling: IEEE_INVALID_FLAG
Note: The following floating-point exceptions are signalling: IEEE_INVALID_FLAG
Note: The following floating-point exceptions are signalling: IEEE_INVALID_FLAG
Note: The following floating-point exceptions are signalling: IEEE_INVALID_FLAG
Note: The following floating-point exceptions are signalling: IEEE_INVALID_FLAG