     Program PWSCF v.7.2 starts on 23Aug2025 at 20: 1:11

     Reading input from /home/jvc/QEspresso7.2/ZnO_database/scripts/cell221.in/ZnO-3.27-1.61-221.in
Warning: card &CELL ignored
Warning: card / ignored
Warning: card &FCP ignored
Warning: card / ignored
Warning: card &RISM ignored
Warning: card / ignored

     Current dimensions of program PWSCF are:
     Max number of different atomic species (ntypx) = 10
     Max number of k-points (npk) =  40000
     Max angular momentum in pseudopotentials (lmaxx) =  4
     file Zn.upf: wavefunction(s)  3D renormalized
     Found identity + (  0.0000 -0.5000  0.0000) symmetry
     This is a supercell, fractional translations are disabled
     Message from routine setup:
     using ibrav=0 with symmetry is DISCOURAGED, use correct ibrav instead

     K-points division:     npool     =       8
     band groups division:  nbgrp     =       4
     Subspace diagonalization in iterative solution of the eigenvalue problem:
     a serial algorithm will be used

     Using Slab Decomposition

     bravais-lattice index     =            0
     lattice parameter (alat)  =      12.3577  a.u.
     unit-cell volume          =    1319.2113 (a.u.)^3
     number of atoms/cell      =           16
     number of atomic types    =            2
     number of electrons       =       144.00
     number of Kohn-Sham states=           72
     kinetic-energy cutoff     =      50.0000  Ry
     charge density cutoff     =     400.0000  Ry
     scf convergence threshold =      1.0E-08
     mixing beta               =       0.3000
     number of iterations used =            8  plain     mixing
     Exchange-correlation= PBE
                           (   1   4   3   4   0   0   0)

     celldm(1)=  12.357708  celldm(2)=   0.000000  celldm(3)=   0.000000
     celldm(4)=   0.000000  celldm(5)=   0.000000  celldm(6)=   0.000000

     crystal axes: (cart. coord. in units of alat)
               a(1) = (   1.000000   0.000000   0.000000 )
               a(2) = (  -0.500000   0.866025   0.000000 )
               a(3) = (   0.000000   0.000000   0.807179 )

     reciprocal axes: (cart. coord. in units 2 pi/alat)
               b(1) = (  1.000000  0.577350 -0.000000 )
               b(2) = (  0.000000  1.154701  0.000000 )
               b(3) = (  0.000000 -0.000000  1.238882 )

     PseudoPot. # 1 for Zn read from file:
     /home/jvc/QEspresso7.2/ZnO_database/pseudos/Zn.upf
     MD5 check sum: 7f56cabf9682ed8c977c2f7d0c5985c5
     Pseudo is Ultrasoft + core correction, Zval = 12.0
     Generated using &quot;atomic&quot; code by A. Dal Corso  v.6.2.2
     Using radial grid of 1201 points,  6 beta functions with:
                l(1) =   0
                l(2) =   0
                l(3) =   1
                l(4) =   1
                l(5) =   2
                l(6) =   2
     Q(r) pseudized with 0 coefficients

     PseudoPot. # 2 for O  read from file:
     /home/jvc/QEspresso7.2/ZnO_database/pseudos/O.upf
     MD5 check sum: 91400c9766925bcf19f520983a725ff0
     Pseudo is Ultrasoft + core correction, Zval =  6.0
     Generated using &quot;atomic&quot; code by A. Dal Corso  v.6.3MaX
     Using radial grid of 1095 points,  4 beta functions with:
                l(1) =   0
                l(2) =   0
                l(3) =   1
                l(4) =   1
     Q(r) pseudized with 0 coefficients

     atomic species   valence    mass     pseudopotential
        Zn            12.00    65.38000     Zn( 1.00)
        O              6.00    15.99900     O ( 1.00)

      6 Sym. Ops. (no inversion) found

                                    s                        frac. trans.

      isym =  1     identity

 cryst.   s( 1) = (     1          0          0      )
                  (     0          1          0      )
                  (     0          0          1      )

 cart.    s( 1) = (  1.0000000  0.0000000  0.0000000 )
                  (  0.0000000  1.0000000  0.0000000 )
                  (  0.0000000  0.0000000  1.0000000 )

      isym =  2     120 deg rotation - cryst. axis [0,0,1]

[...]

      isym =  3     120 deg rotation - cryst. axis [0,0,-1]

[...]

      isym =  4     inv. 180 deg rotation - cart. axis [1,0,0]

[...]

      isym =  5     inv. 180 deg rotation - cryst. axis [0,1,0]

[...]

      isym =  6     inv. 180 deg rotation - cryst. axis [1,1,0]

 cryst.   s( 6) = (     0         -1          0      )
                  (    -1          0          0      )
                  (     0          0          1      )

 cart.    s( 6) = (  0.5000000 -0.8660254  0.0000000 )
                  ( -0.8660254 -0.5000000  0.0000000 )
                  (  0.0000000  0.0000000  1.0000000 )

   Cartesian axes

     site n.     atom                  positions (alat units)
         1           Zn  tau(   1) = (   0.2500000   0.1443376   0.4041010  )
         2           Zn  tau(   2) = (  -0.0000000   0.2886751   0.0005114  )
         3           O   tau(   3) = (   0.2500000   0.1443376   0.7100565  )
         4           O   tau(   4) = (  -0.0000000   0.2886751   0.3064669  )
         5           Zn  tau(   5) = (   0.0000000   0.5773503   0.4041010  )
         6           Zn  tau(   6) = (  -0.2500000   0.7216878   0.0005114  )
         7           O   tau(   7) = (   0.0000000   0.5773503   0.7100565  )
         8           O   tau(   8) = (  -0.2500000   0.7216878   0.3064669  )
         9           Zn  tau(   9) = (   0.7500000   0.1443376   0.4041010  )
        10           Zn  tau(  10) = (   0.5000000   0.2886751   0.0005114  )
        11           O   tau(  11) = (   0.7500000   0.1443376   0.7100565  )
        12           O   tau(  12) = (   0.5000000   0.2886751   0.3064669  )
        13           Zn  tau(  13) = (   0.5000000   0.5773503   0.4041010  )
        14           Zn  tau(  14) = (   0.2500000   0.7216878   0.0005114  )
        15           O   tau(  15) = (   0.5000000   0.5773503   0.7100565  )
        16           O   tau(  16) = (   0.2500000   0.7216878   0.3064669  )

   Crystallographic axes

     site n.     atom                  positions (cryst. coord.)
         1           Zn  tau(   1) = (  0.3333333  0.1666667  0.5006336  )
         2           Zn  tau(   2) = (  0.1666667  0.3333333  0.0006336  )
         3           O   tau(   3) = (  0.3333333  0.1666667  0.8796764  )
         4           O   tau(   4) = (  0.1666667  0.3333333  0.3796764  )
         5           Zn  tau(   5) = (  0.3333333  0.6666667  0.5006336  )
         6           Zn  tau(   6) = (  0.1666667  0.8333333  0.0006336  )
         7           O   tau(   7) = (  0.3333333  0.6666667  0.8796764  )
         8           O   tau(   8) = (  0.1666667  0.8333333  0.3796764  )
         9           Zn  tau(   9) = (  0.8333333  0.1666667  0.5006336  )
        10           Zn  tau(  10) = (  0.6666667  0.3333333  0.0006336  )
        11           O   tau(  11) = (  0.8333333  0.1666667  0.8796764  )
        12           O   tau(  12) = (  0.6666667  0.3333333  0.3796764  )
        13           Zn  tau(  13) = (  0.8333333  0.6666667  0.5006336  )
        14           Zn  tau(  14) = (  0.6666667  0.8333333  0.0006336  )
        15           O   tau(  15) = (  0.8333333  0.6666667  0.8796764  )
        16           O   tau(  16) = (  0.6666667  0.8333333  0.3796764  )

     number of k points=    34
                       cart. coord. in units 2pi/alat
        k(    1) = (   0.0000000   0.0000000   0.0000000), wk =   0.0092593
        k(    2) = (   0.0000000   0.0000000   0.2064804), wk =   0.0185185
        k(    3) = (   0.0000000   0.0000000   0.4129608), wk =   0.0185185
        k(    4) = (   0.0000000   0.0000000  -0.6194412), wk =   0.0092593
        k(    5) = (   0.0000000   0.1924501   0.0000000), wk =   0.0555556
        k(    6) = (   0.0000000   0.1924501   0.2064804), wk =   0.0555556
        k(    7) = (   0.0000000   0.1924501   0.4129608), wk =   0.0555556
        k(    8) = (   0.0000000   0.1924501  -0.6194412), wk =   0.0555556
        k(    9) = (   0.0000000   0.3849002   0.0000000), wk =   0.0555556
        k(   10) = (   0.0000000   0.3849002   0.2064804), wk =   0.0555556
        k(   11) = (   0.0000000   0.3849002   0.4129608), wk =   0.0555556
        k(   12) = (   0.0000000   0.3849002  -0.6194412), wk =   0.0555556
        k(   13) = (   0.0000000  -0.5773503   0.0000000), wk =   0.0277778
        k(   14) = (   0.0000000  -0.5773503   0.2064804), wk =   0.0555556
        k(   15) = (   0.0000000  -0.5773503   0.4129608), wk =   0.0555556
        k(   16) = (   0.0000000  -0.5773503  -0.6194412), wk =   0.0277778
        k(   17) = (   0.1666667   0.2886751   0.0000000), wk =   0.0555556
        k(   18) = (   0.1666667   0.2886751   0.2064804), wk =   0.1111111
        k(   19) = (   0.1666667   0.2886751   0.4129608), wk =   0.1111111
        k(   20) = (   0.1666667   0.2886751  -0.6194412), wk =   0.0555556
        k(   21) = (   0.1666667   0.4811252   0.0000000), wk =   0.1111111
        k(   22) = (   0.1666667   0.4811252   0.2064804), wk =   0.1111111
        k(   23) = (   0.1666667   0.4811252   0.4129608), wk =   0.1111111
        k(   24) = (   0.1666667   0.4811252  -0.6194412), wk =   0.1111111
        k(   25) = (   0.3333333   0.5773503   0.0000000), wk =   0.0185185
        k(   26) = (   0.3333333   0.5773503   0.2064804), wk =   0.0370370
        k(   27) = (   0.3333333   0.5773503   0.4129608), wk =   0.0370370
        k(   28) = (   0.3333333   0.5773503  -0.6194412), wk =   0.0185185
        k(   29) = (   0.0000000  -0.1924501   0.2064804), wk =   0.0555556
        k(   30) = (   0.0000000  -0.1924501   0.4129608), wk =   0.0555556
        k(   31) = (   0.0000000  -0.3849002   0.2064804), wk =   0.0555556
        k(   32) = (   0.0000000  -0.3849002   0.4129608), wk =   0.0555556
        k(   33) = (  -0.1666667  -0.4811252   0.2064804), wk =   0.1111111
        k(   34) = (  -0.1666667  -0.4811252   0.4129608), wk =   0.1111111

                       cryst. coord.
        k(    1) = (   0.0000000   0.0000000   0.0000000), wk =   0.0092593
        k(    2) = (   0.0000000   0.0000000   0.1666667), wk =   0.0185185
        k(    3) = (   0.0000000   0.0000000   0.3333333), wk =   0.0185185
        k(    4) = (   0.0000000   0.0000000  -0.5000000), wk =   0.0092593
        k(    5) = (   0.0000000   0.1666667   0.0000000), wk =   0.0555556
        k(    6) = (   0.0000000   0.1666667   0.1666667), wk =   0.0555556
        k(    7) = (   0.0000000   0.1666667   0.3333333), wk =   0.0555556
        k(    8) = (   0.0000000   0.1666667  -0.5000000), wk =   0.0555556
        k(    9) = (   0.0000000   0.3333333   0.0000000), wk =   0.0555556
        k(   10) = (   0.0000000   0.3333333   0.1666667), wk =   0.0555556
        k(   11) = (   0.0000000   0.3333333   0.3333333), wk =   0.0555556
        k(   12) = (   0.0000000   0.3333333  -0.5000000), wk =   0.0555556
        k(   13) = (   0.0000000  -0.5000000   0.0000000), wk =   0.0277778
        k(   14) = (   0.0000000  -0.5000000   0.1666667), wk =   0.0555556
        k(   15) = (   0.0000000  -0.5000000   0.3333333), wk =   0.0555556
[...]
        k(   26) = (   0.3333333   0.3333333   0.1666667), wk =   0.0370370
        k(   27) = (   0.3333333   0.3333333   0.3333333), wk =   0.0370370
        k(   28) = (   0.3333333   0.3333333  -0.5000000), wk =   0.0185185
        k(   29) = (   0.0000000  -0.1666667   0.1666667), wk =   0.0555556
        k(   30) = (   0.0000000  -0.1666667   0.3333333), wk =   0.0555556
        k(   31) = (   0.0000000  -0.3333333   0.1666667), wk =   0.0555556
        k(   32) = (   0.0000000  -0.3333333   0.3333333), wk =   0.0555556
        k(   33) = (  -0.1666667  -0.3333333   0.1666667), wk =   0.1111111
        k(   34) = (  -0.1666667  -0.3333333   0.3333333), wk =   0.1111111

     Check: negative core charge=   -0.000002

     Initial potential from superposition of free atoms

     starting charge     143.9702, renormalised to     144.0000
     Starting wfcs are  104 randomized atomic wfcs

     Self-consistent Calculation

     iteration #  1     ecut=    50.00 Ry     beta= 0.30
     Davidson diagonalization with overlap

     ethr =  1.00E-02,  avg # of iterations =  2.0

     total energy              =   -1445.91766845 Ry
     estimated scf accuracy    <       2.76784259 Ry

[...]

     c_bands:  1 eigenvalues not converged
     ethr =  2.89E-07,  avg # of iterations = 14.1

[...]

     total energy              =   -1446.54813481 Ry
     estimated scf accuracy    <       0.00000004 Ry

     iteration # 35     ecut=    50.00 Ry     beta= 0.30
     Davidson diagonalization with overlap

     ethr =  2.71E-11,  avg # of iterations =  5.2

     End of self-consistent calculation

          k = 0.0000 0.0000 0.0000 (  7823 PWs)   bands (ev):

   -11.0003 -10.3513 -10.3513 -10.3512 -10.3202 -10.1427 -10.1427 -10.1426
     1.1129   1.1129   1.1129   1.3145   1.3145   1.3217   1.3217   1.3217
     1.3555   1.4383   1.5000   1.5000   1.5596   1.5596   1.5596   1.9402
     1.9402   1.9402   1.9526   1.9526   1.9526   2.0739   2.0739   2.0739
     2.4271   2.4271   2.4631   2.4631   2.4631   2.5896   2.5896   2.5896
     2.6237   2.6237   2.6694   2.6694   2.6694   2.7405   2.7405   2.7405
     2.8908   3.2034   3.2034   3.2034   3.4254   3.4254   3.4254   4.1393
     4.1393   4.1394   4.7122   4.7122   4.7122   5.6388   5.6388   5.6389
     6.0810   6.0810   6.0810   6.1231   6.1231   6.8034   6.8852   6.8852

     occupation numbers
     1.0000   1.0000   1.0000   1.0000   1.0000   1.0000   1.0000   1.0000
     1.0000   1.0000   1.0000   1.0000   1.0000   1.0000   1.0000   1.0000
     1.0000   1.0000   1.0000   1.0000   1.0000   1.0000   1.0000   1.0000
     1.0000   1.0000   1.0000   1.0000   1.0000   1.0000   1.0000   1.0000
     1.0000   1.0000   1.0000   1.0000   1.0000   1.0000   1.0000   1.0000
     1.0000   1.0000   1.0000   1.0000   1.0000   1.0000   1.0000   1.0000
     1.0000   1.0000   1.0000   1.0000   1.0000   1.0000   1.0000   1.0000
     1.0000   1.0000   1.0000   1.0000   1.0000   1.0000   1.0000   1.0000
     1.0000   1.0000   1.0000   1.0000   1.0000   1.0000   1.0000   1.0000

[...]

          k = 0.0000-0.3849 0.4130 (  7885 PWs)   bands (ev):

[...]

          k =-0.1667-0.4811 0.2065 (  7890 PWs)   bands (ev):

[...]

          k =-0.1667-0.4811 0.4130 (  7878 PWs)   bands (ev):

   -10.6342 -10.5010 -10.3976 -10.3619 -10.2819 -10.2319 -10.2275 -10.1753
     0.9936   1.0442   1.0614   1.1149   1.1269   1.1517   1.2532   1.3308
     1.4646   1.4883   1.5127   1.5376   1.5676   1.5914   1.5986   1.6268
     1.6270   1.6989   1.7242   1.7489   1.7714   1.8418   1.9889   2.0075
     2.4590   2.4616   2.4620   2.4686   2.4921   2.5104   2.5204   2.5582
     2.5942   2.6052   2.6347   2.6366   2.6715   2.7274   2.7746   2.8837
     3.1922   3.4203   3.5970   3.8047   3.9416   4.0149   4.0321   4.3117
     4.8456   4.8645   4.8963   4.9531   4.9732   5.2692   5.3393   5.4271
     5.6249   5.7013   5.7793   5.9757   5.9895   6.0732   6.1783   6.2838

     occupation numbers
     1.0000   1.0000   1.0000   1.0000   1.0000   1.0000   1.0000   1.0000
     1.0000   1.0000   1.0000   1.0000   1.0000   1.0000   1.0000   1.0000
     1.0000   1.0000   1.0000   1.0000   1.0000   1.0000   1.0000   1.0000
     1.0000   1.0000   1.0000   1.0000   1.0000   1.0000   1.0000   1.0000
     1.0000   1.0000   1.0000   1.0000   1.0000   1.0000   1.0000   1.0000
     1.0000   1.0000   1.0000   1.0000   1.0000   1.0000   1.0000   1.0000
     1.0000   1.0000   1.0000   1.0000   1.0000   1.0000   1.0000   1.0000
     1.0000   1.0000   1.0000   1.0000   1.0000   1.0000   1.0000   1.0000
     1.0000   1.0000   1.0000   1.0000   1.0000   1.0000   1.0000   1.0000

     highest occupied level (ev):     6.8852

!    total energy              =   -1446.54813483 Ry
     estimated scf accuracy    <          4.8E-09 Ry

     The total energy is the sum of the following terms:
     one-electron contribution =    -618.09750220 Ry
     hartree contribution      =     473.14501829 Ry
     xc contribution           =    -438.18121148 Ry
     ewald contribution        =    -863.41443944 Ry

     convergence has been achieved in  35 iterations

     Forces acting on atoms (cartesian axes, Ry/au):

     atom    1 type  1   force =    -0.00000871   -0.00000503    0.00004903
     atom    2 type  1   force =    -0.00000000    0.00003692    0.00003848
     atom    3 type  2   force =     0.00000078    0.00000045   -0.00004632
     atom    4 type  2   force =     0.00000000   -0.00000049   -0.00004564
     atom    5 type  1   force =    -0.00000000   -0.00000000    0.00006555
     atom    6 type  1   force =     0.00003197   -0.00001846    0.00003848
     atom    7 type  2   force =     0.00000000    0.00000000   -0.00004571
     atom    8 type  2   force =    -0.00000043    0.00000025   -0.00004564
     atom    9 type  1   force =     0.00000871   -0.00000503    0.00004903
     atom   10 type  1   force =     0.00000000    0.00000000    0.00003938
     atom   11 type  2   force =    -0.00000078    0.00000045   -0.00004632
     atom   12 type  2   force =    -0.00000000   -0.00000000   -0.00004586
     atom   13 type  1   force =     0.00000000    0.00001006    0.00004903
     atom   14 type  1   force =    -0.00003197   -0.00001846    0.00003848
     atom   15 type  2   force =     0.00000000   -0.00000090   -0.00004632
     atom   16 type  2   force =     0.00000043    0.00000025   -0.00004564
     The non-local contrib.  to forces
     atom    1 type  1   force =     0.00000115    0.00000067   -0.00475118
     atom    2 type  1   force =     0.00000000    0.00001420   -0.00475683
     atom    3 type  2   force =     0.00000224    0.00000129    0.00546854
     atom    4 type  2   force =     0.00000000   -0.00000680    0.00547063
     atom    5 type  1   force =     0.00000000    0.00000000   -0.00474869
     atom    6 type  1   force =     0.00001230   -0.00000710   -0.00475683
     atom    7 type  2   force =     0.00000000   -0.00000000    0.00547050
     atom    8 type  2   force =    -0.00000589    0.00000340    0.00547063
     atom    9 type  1   force =    -0.00000115    0.00000067   -0.00475118
     atom   10 type  1   force =     0.00000000   -0.00000000   -0.00475341
     atom   11 type  2   force =    -0.00000224    0.00000129    0.00546854
     atom   12 type  2   force =     0.00000000    0.00000000    0.00547079
     atom   13 type  1   force =     0.00000000   -0.00000133   -0.00475118
     atom   14 type  1   force =    -0.00001230   -0.00000710   -0.00475683
     atom   15 type  2   force =     0.00000000   -0.00000259    0.00546854
     atom   16 type  2   force =     0.00000589    0.00000340    0.00547063
     The ionic contribution  to forces
     atom    1 type  1   force =     0.00000000    0.00000001    0.06271682
     atom    2 type  1   force =     0.00000001    0.00000000    0.06271682
     atom    3 type  2   force =     0.00000000    0.00000001   -0.06271682
     atom    4 type  2   force =     0.00000001   -0.00000000   -0.06271682
     atom    5 type  1   force =     0.00000000    0.00000001    0.06271682
     atom    6 type  1   force =     0.00000001    0.00000000    0.06271682
     atom    7 type  2   force =     0.00000000    0.00000001   -0.06271682
     atom    8 type  2   force =     0.00000001   -0.00000000   -0.06271682
     atom    9 type  1   force =    -0.00000000   -0.00000000    0.06271682
     atom   10 type  1   force =    -0.00000001   -0.00000001    0.06271682
     atom   11 type  2   force =    -0.00000000   -0.00000000   -0.06271682
     atom   12 type  2   force =    -0.00000001   -0.00000000   -0.06271682
     atom   13 type  1   force =    -0.00000000   -0.00000000    0.06271682
     atom   14 type  1   force =    -0.00000001   -0.00000001    0.06271682
     atom   15 type  2   force =    -0.00000000   -0.00000000   -0.06271682
     atom   16 type  2   force =    -0.00000001   -0.00000000   -0.06271682
     The local contribution  to forces
     atom    1 type  1   force =     0.00000722    0.00000427   -0.05839735
     atom    2 type  1   force =     0.00000009   -0.00005235   -0.05838266
     atom    3 type  2   force =    -0.00000727   -0.00000417    0.05726662
     atom    4 type  2   force =     0.00000002   -0.00000419    0.05726128
     atom    5 type  1   force =     0.00000000    0.00000010   -0.05842158
     atom    6 type  1   force =    -0.00004530    0.00002625   -0.05838266
     atom    7 type  2   force =     0.00000000    0.00000003    0.05726217
     atom    8 type  2   force =    -0.00000362    0.00000211    0.05726128
     atom    9 type  1   force =    -0.00000722    0.00000427   -0.05839735
     atom   10 type  1   force =    -0.00000009    0.00000005   -0.05838578
     atom   11 type  2   force =     0.00000727   -0.00000417    0.05726662
     atom   12 type  2   force =    -0.00000002    0.00000001    0.05726479
     atom   13 type  1   force =    -0.00000000   -0.00000824   -0.05839735
     atom   14 type  1   force =     0.00004530    0.00002625   -0.05838266
     atom   15 type  2   force =    -0.00000000    0.00000842    0.05726662
     atom   16 type  2   force =     0.00000362    0.00000211    0.05726128
     The core correction contribution to forces
     atom    1 type  1   force =    -0.00000037   -0.00000020    0.00047400
     atom    2 type  1   force =     0.00000001    0.00000078    0.00047391
     atom    3 type  2   force =    -0.00000004   -0.00000002   -0.00006171
     atom    4 type  2   force =    -0.00000000    0.00000008   -0.00006175
     atom    5 type  1   force =    -0.00000000    0.00000001    0.00047475
     atom    6 type  1   force =     0.00000068   -0.00000038    0.00047391
     atom    7 type  2   force =     0.00000000   -0.00000000   -0.00006174
     atom    8 type  2   force =     0.00000007   -0.00000004   -0.00006175
     atom    9 type  1   force =     0.00000037   -0.00000020    0.00047400
     atom   10 type  1   force =    -0.00000001    0.00000001    0.00047368
     atom   11 type  2   force =     0.00000004   -0.00000002   -0.00006171
     atom   12 type  2   force =     0.00000000   -0.00000000   -0.00006175
     atom   13 type  1   force =    -0.00000000    0.00000044    0.00047400
     atom   14 type  1   force =    -0.00000068   -0.00000038    0.00047391
     atom   15 type  2   force =    -0.00000000    0.00000004   -0.00006171
     atom   16 type  2   force =    -0.00000007   -0.00000004   -0.00006175
     The Hubbard contrib.    to forces
     atom    1 type  1   force =     0.00000000    0.00000000    0.00000000
     atom    2 type  1   force =     0.00000000    0.00000000    0.00000000
     atom    3 type  2   force =     0.00000000    0.00000000    0.00000000
     atom    4 type  2   force =     0.00000000    0.00000000    0.00000000
     atom    5 type  1   force =     0.00000000    0.00000000    0.00000000
     atom    6 type  1   force =     0.00000000    0.00000000    0.00000000
     atom    7 type  2   force =     0.00000000    0.00000000    0.00000000
     atom    8 type  2   force =     0.00000000    0.00000000    0.00000000
     atom    9 type  1   force =     0.00000000    0.00000000    0.00000000
     atom   10 type  1   force =     0.00000000    0.00000000    0.00000000
     atom   11 type  2   force =     0.00000000    0.00000000    0.00000000
     atom   12 type  2   force =     0.00000000    0.00000000    0.00000000
     atom   13 type  1   force =     0.00000000    0.00000000    0.00000000
     atom   14 type  1   force =     0.00000000    0.00000000    0.00000000
     atom   15 type  2   force =     0.00000000    0.00000000    0.00000000
     atom   16 type  2   force =     0.00000000    0.00000000    0.00000000
     The SCF correction term to forces
     atom    1 type  1   force =    -0.00001672   -0.00000965    0.00000513
     atom    2 type  1   force =     0.00000000    0.00007428   -0.00001437
     atom    3 type  2   force =     0.00000584    0.00000337   -0.00000455
     atom    4 type  2   force =     0.00000000    0.00001041   -0.00000059
     atom    5 type  1   force =     0.00000000    0.00000000    0.00004264
     atom    6 type  1   force =     0.00006433   -0.00003714   -0.00001437
     atom    7 type  2   force =     0.00000000    0.00000000   -0.00000142
     atom    8 type  2   force =     0.00000901   -0.00000520   -0.00000059
     atom    9 type  1   force =     0.00001672   -0.00000965    0.00000513
     atom   10 type  1   force =    -0.00000000    0.00000000   -0.00001353
     atom   11 type  2   force =    -0.00000584    0.00000337   -0.00000455
     atom   12 type  2   force =    -0.00000000   -0.00000000   -0.00000448
     atom   13 type  1   force =    -0.00000000    0.00001931    0.00000513
     atom   14 type  1   force =    -0.00006433   -0.00003714   -0.00001437
     atom   15 type  2   force =    -0.00000000   -0.00000675   -0.00000455
     atom   16 type  2   force =    -0.00000901   -0.00000520   -0.00000059

     Total force =     0.000197     Total SCF correction =     0.000145
     SCF correction compared to forces is large: reduce conv_thr to get better values

     General routines

     Parallel routines

   This run was terminated on:  20: 8:57  23Aug2025

   JOB DONE.
Note: The following floating-point exceptions are signalling: IEEE_INVALID_FLAG
Note: The following floating-point exceptions are signalling: IEEE_INVALID_FLAG
Note: The following floating-point exceptions are signalling: IEEE_INVALID_FLAG
Note: The following floating-point exceptions are signalling: IEEE_INVALID_FLAG
Note: The following floating-point exceptions are signalling: IEEE_INVALID_FLAG
Note: The following floating-point exceptions are signalling: IEEE_INVALID_FLAG
Note: The following floating-point exceptions are signalling: IEEE_INVALID_FLAG
Note: The following floating-point exceptions are signalling: IEEE_INVALID_FLAG
Note: The following floating-point exceptions are signalling: IEEE_INVALID_FLAG
Note: The following floating-point exceptions are signalling: IEEE_INVALID_FLAG
Note: The following floating-point exceptions are signalling: IEEE_INVALID_FLAG
Note: The following floating-point exceptions are signalling: IEEE_INVALID_FLAG
Note: The following floating-point exceptions are signalling: IEEE_INVALID_FLAG
Note: The following floating-point exceptions are signalling: IEEE_INVALID_FLAG
Note: The following floating-point exceptions are signalling: IEEE_INVALID_FLAG
Note: The following floating-point exceptions are signalling: IEEE_INVALID_FLAG
Note: The following floating-point exceptions are signalling: IEEE_INVALID_FLAG
Note: The following floating-point exceptions are signalling: IEEE_INVALID_FLAG
Note: The following floating-point exceptions are signalling: IEEE_INVALID_FLAG
Note: The following floating-point exceptions are signalling: IEEE_INVALID_FLAG
Note: The following floating-point exceptions are signalling: IEEE_INVALID_FLAG
Note: The following floating-point exceptions are signalling: IEEE_INVALID_FLAG
Note: The following floating-point exceptions are signalling: IEEE_INVALID_FLAG
Note: The following floating-point exceptions are signalling: IEEE_INVALID_FLAG
Note: The following floating-point exceptions are signalling: IEEE_INVALID_FLAG
Note: The following floating-point exceptions are signalling: IEEE_INVALID_FLAG
Note: The following floating-point exceptions are signalling: IEEE_INVALID_FLAG
Note: The following floating-point exceptions are signalling: IEEE_INVALID_FLAG
Note: The following floating-point exceptions are signalling: IEEE_INVALID_FLAG
Note: The following floating-point exceptions are signalling: IEEE_INVALID_FLAG
Note: The following floating-point exceptions are signalling: IEEE_INVALID_FLAG
Note: The following floating-point exceptions are signalling: IEEE_INVALID_FLAG