     Program PWSCF v.7.2 starts on 23Aug2025 at 17:41: 8

     Reading input from /home/jvc/QEspresso7.2/ZnO_database/scripts/cell221.in/ZnO-3.14-1.58-221.in
Warning: card &CELL ignored
Warning: card / ignored
Warning: card &FCP ignored
Warning: card / ignored
Warning: card &RISM ignored
Warning: card / ignored

     Current dimensions of program PWSCF are:
     Max number of different atomic species (ntypx) = 10
     Max number of k-points (npk) =  40000
     Max angular momentum in pseudopotentials (lmaxx) =  4
     file Zn.upf: wavefunction(s)  3D renormalized
     Found identity + (  0.0000 -0.5000  0.0000) symmetry
     This is a supercell, fractional translations are disabled
     Message from routine setup:
     using ibrav=0 with symmetry is DISCOURAGED, use correct ibrav instead

     K-points division:     npool     =       8
     band groups division:  nbgrp     =       4
     Subspace diagonalization in iterative solution of the eigenvalue problem:
     a serial algorithm will be used

     Using Slab Decomposition

     bravais-lattice index     =            0
     lattice parameter (alat)  =      11.8634  a.u.
     unit-cell volume          =    1143.8107 (a.u.)^3
     number of atoms/cell      =           16
     number of atomic types    =            2
     number of electrons       =       144.00
     number of Kohn-Sham states=           72
     kinetic-energy cutoff     =      50.0000  Ry
     charge density cutoff     =     400.0000  Ry
     scf convergence threshold =      1.0E-08
     mixing beta               =       0.3000
     number of iterations used =            8  plain     mixing
     Exchange-correlation= PBE
                           (   1   4   3   4   0   0   0)

     celldm(1)=  11.863400  celldm(2)=   0.000000  celldm(3)=   0.000000
     celldm(4)=   0.000000  celldm(5)=   0.000000  celldm(6)=   0.000000

     crystal axes: (cart. coord. in units of alat)
               a(1) = (   1.000000   0.000000   0.000000 )
               a(2) = (  -0.500000   0.866025   0.000000 )
               a(3) = (   0.000000   0.000000   0.791036 )

     reciprocal axes: (cart. coord. in units 2 pi/alat)
               b(1) = (  1.000000  0.577350 -0.000000 )
               b(2) = (  0.000000  1.154701  0.000000 )
               b(3) = (  0.000000 -0.000000  1.264166 )

     PseudoPot. # 1 for Zn read from file:
     /home/jvc/QEspresso7.2/ZnO_database/pseudos/Zn.upf
     MD5 check sum: 7f56cabf9682ed8c977c2f7d0c5985c5
     Pseudo is Ultrasoft + core correction, Zval = 12.0
     Generated using &quot;atomic&quot; code by A. Dal Corso  v.6.2.2
     Using radial grid of 1201 points,  6 beta functions with:
                l(1) =   0
                l(2) =   0
                l(3) =   1
                l(4) =   1
                l(5) =   2
                l(6) =   2
     Q(r) pseudized with 0 coefficients

     PseudoPot. # 2 for O  read from file:
     /home/jvc/QEspresso7.2/ZnO_database/pseudos/O.upf
     MD5 check sum: 91400c9766925bcf19f520983a725ff0
     Pseudo is Ultrasoft + core correction, Zval =  6.0
     Generated using &quot;atomic&quot; code by A. Dal Corso  v.6.3MaX
     Using radial grid of 1095 points,  4 beta functions with:
                l(1) =   0
                l(2) =   0
                l(3) =   1
                l(4) =   1
     Q(r) pseudized with 0 coefficients

     atomic species   valence    mass     pseudopotential
        Zn            12.00    65.38000     Zn( 1.00)
        O              6.00    15.99900     O ( 1.00)

      6 Sym. Ops. (no inversion) found

                                    s                        frac. trans.

      isym =  1     identity

 cryst.   s( 1) = (     1          0          0      )
                  (     0          1          0      )
                  (     0          0          1      )

 cart.    s( 1) = (  1.0000000  0.0000000  0.0000000 )
                  (  0.0000000  1.0000000  0.0000000 )
                  (  0.0000000  0.0000000  1.0000000 )

      isym =  2     120 deg rotation - cryst. axis [0,0,1]

[...]

      isym =  3     120 deg rotation - cryst. axis [0,0,-1]

[...]

      isym =  4     inv. 180 deg rotation - cart. axis [1,0,0]

[...]

      isym =  5     inv. 180 deg rotation - cryst. axis [0,1,0]

[...]

      isym =  6     inv. 180 deg rotation - cryst. axis [1,1,0]

 cryst.   s( 6) = (     0         -1          0      )
                  (    -1          0          0      )
                  (     0          0          1      )

 cart.    s( 6) = (  0.5000000 -0.8660254  0.0000000 )
                  ( -0.8660254 -0.5000000  0.0000000 )
                  (  0.0000000  0.0000000  1.0000000 )

   Cartesian axes

     site n.     atom                  positions (alat units)
         1           Zn  tau(   1) = (   0.2500000   0.1443376   0.3960190  )
         2           Zn  tau(   2) = (  -0.0000000   0.2886751   0.0005012  )
         3           O   tau(   3) = (   0.2500000   0.1443376   0.6958554  )
         4           O   tau(   4) = (  -0.0000000   0.2886751   0.3003376  )
         5           Zn  tau(   5) = (  -0.0000000   0.5773503   0.3960190  )
         6           Zn  tau(   6) = (  -0.2500000   0.7216878   0.0005012  )
         7           O   tau(   7) = (  -0.0000000   0.5773503   0.6958554  )
         8           O   tau(   8) = (  -0.2500000   0.7216878   0.3003376  )
         9           Zn  tau(   9) = (   0.7500000   0.1443376   0.3960190  )
        10           Zn  tau(  10) = (   0.5000000   0.2886751   0.0005012  )
        11           O   tau(  11) = (   0.7500000   0.1443376   0.6958554  )
        12           O   tau(  12) = (   0.5000000   0.2886751   0.3003376  )
        13           Zn  tau(  13) = (   0.5000000   0.5773503   0.3960190  )
        14           Zn  tau(  14) = (   0.2500000   0.7216878   0.0005012  )
        15           O   tau(  15) = (   0.5000000   0.5773503   0.6958554  )
        16           O   tau(  16) = (   0.2500000   0.7216878   0.3003376  )

   Crystallographic axes

     site n.     atom                  positions (cryst. coord.)
         1           Zn  tau(   1) = (  0.3333333  0.1666667  0.5006336  )
         2           Zn  tau(   2) = (  0.1666667  0.3333333  0.0006336  )
         3           O   tau(   3) = (  0.3333333  0.1666667  0.8796764  )
         4           O   tau(   4) = (  0.1666667  0.3333333  0.3796764  )
         5           Zn  tau(   5) = (  0.3333333  0.6666667  0.5006336  )
         6           Zn  tau(   6) = (  0.1666667  0.8333333  0.0006336  )
         7           O   tau(   7) = (  0.3333333  0.6666667  0.8796764  )
         8           O   tau(   8) = (  0.1666667  0.8333333  0.3796764  )
         9           Zn  tau(   9) = (  0.8333333  0.1666667  0.5006336  )
        10           Zn  tau(  10) = (  0.6666667  0.3333333  0.0006336  )
        11           O   tau(  11) = (  0.8333333  0.1666667  0.8796764  )
        12           O   tau(  12) = (  0.6666667  0.3333333  0.3796764  )
        13           Zn  tau(  13) = (  0.8333333  0.6666667  0.5006336  )
        14           Zn  tau(  14) = (  0.6666667  0.8333333  0.0006336  )
        15           O   tau(  15) = (  0.8333333  0.6666667  0.8796764  )
        16           O   tau(  16) = (  0.6666667  0.8333333  0.3796764  )

     number of k points=    34
                       cart. coord. in units 2pi/alat
        k(    1) = (   0.0000000   0.0000000   0.0000000), wk =   0.0092593
        k(    2) = (   0.0000000   0.0000000   0.2106943), wk =   0.0185185
        k(    3) = (   0.0000000   0.0000000   0.4213885), wk =   0.0185185
        k(    4) = (   0.0000000   0.0000000  -0.6320828), wk =   0.0092593
        k(    5) = (   0.0000000   0.1924501   0.0000000), wk =   0.0555556
        k(    6) = (   0.0000000   0.1924501   0.2106943), wk =   0.0555556
        k(    7) = (   0.0000000   0.1924501   0.4213885), wk =   0.0555556
        k(    8) = (   0.0000000   0.1924501  -0.6320828), wk =   0.0555556
        k(    9) = (   0.0000000   0.3849002   0.0000000), wk =   0.0555556
        k(   10) = (   0.0000000   0.3849002   0.2106943), wk =   0.0555556
        k(   11) = (   0.0000000   0.3849002   0.4213885), wk =   0.0555556
        k(   12) = (   0.0000000   0.3849002  -0.6320828), wk =   0.0555556
        k(   13) = (   0.0000000  -0.5773503   0.0000000), wk =   0.0277778
        k(   14) = (   0.0000000  -0.5773503   0.2106943), wk =   0.0555556
        k(   15) = (   0.0000000  -0.5773503   0.4213885), wk =   0.0555556
        k(   16) = (   0.0000000  -0.5773503  -0.6320828), wk =   0.0277778
        k(   17) = (   0.1666667   0.2886751   0.0000000), wk =   0.0555556
        k(   18) = (   0.1666667   0.2886751   0.2106943), wk =   0.1111111
        k(   19) = (   0.1666667   0.2886751   0.4213885), wk =   0.1111111
        k(   20) = (   0.1666667   0.2886751  -0.6320828), wk =   0.0555556
        k(   21) = (   0.1666667   0.4811252   0.0000000), wk =   0.1111111
        k(   22) = (   0.1666667   0.4811252   0.2106943), wk =   0.1111111
        k(   23) = (   0.1666667   0.4811252   0.4213885), wk =   0.1111111
        k(   24) = (   0.1666667   0.4811252  -0.6320828), wk =   0.1111111
        k(   25) = (   0.3333333   0.5773503   0.0000000), wk =   0.0185185
        k(   26) = (   0.3333333   0.5773503   0.2106943), wk =   0.0370370
        k(   27) = (   0.3333333   0.5773503   0.4213885), wk =   0.0370370
        k(   28) = (   0.3333333   0.5773503  -0.6320828), wk =   0.0185185
        k(   29) = (   0.0000000  -0.1924501   0.2106943), wk =   0.0555556
        k(   30) = (   0.0000000  -0.1924501   0.4213885), wk =   0.0555556
        k(   31) = (   0.0000000  -0.3849002   0.2106943), wk =   0.0555556
        k(   32) = (   0.0000000  -0.3849002   0.4213885), wk =   0.0555556
        k(   33) = (  -0.1666667  -0.4811252   0.2106943), wk =   0.1111111
        k(   34) = (  -0.1666667  -0.4811252   0.4213885), wk =   0.1111111

                       cryst. coord.
        k(    1) = (   0.0000000   0.0000000   0.0000000), wk =   0.0092593
        k(    2) = (   0.0000000   0.0000000   0.1666667), wk =   0.0185185
        k(    3) = (   0.0000000   0.0000000   0.3333333), wk =   0.0185185
        k(    4) = (   0.0000000   0.0000000  -0.5000000), wk =   0.0092593
        k(    5) = (   0.0000000   0.1666667   0.0000000), wk =   0.0555556
        k(    6) = (   0.0000000   0.1666667   0.1666667), wk =   0.0555556
        k(    7) = (   0.0000000   0.1666667   0.3333333), wk =   0.0555556
        k(    8) = (   0.0000000   0.1666667  -0.5000000), wk =   0.0555556
        k(    9) = (   0.0000000   0.3333333   0.0000000), wk =   0.0555556
        k(   10) = (   0.0000000   0.3333333   0.1666667), wk =   0.0555556
        k(   11) = (   0.0000000   0.3333333   0.3333333), wk =   0.0555556
        k(   12) = (   0.0000000   0.3333333  -0.5000000), wk =   0.0555556
        k(   13) = (   0.0000000  -0.5000000   0.0000000), wk =   0.0277778
        k(   14) = (   0.0000000  -0.5000000   0.1666667), wk =   0.0555556
        k(   15) = (   0.0000000  -0.5000000   0.3333333), wk =   0.0555556
[...]
        k(   24) = (   0.1666667   0.3333333  -0.5000000), wk =   0.1111111
        k(   25) = (   0.3333333   0.3333333   0.0000000), wk =   0.0185185
        k(   26) = (   0.3333333   0.3333333   0.1666667), wk =   0.0370370
        k(   27) = (   0.3333333   0.3333333   0.3333333), wk =   0.0370370
        k(   28) = (   0.3333333   0.3333333  -0.5000000), wk =   0.0185185
        k(   29) = (   0.0000000  -0.1666667   0.1666667), wk =   0.0555556
        k(   30) = (   0.0000000  -0.1666667   0.3333333), wk =   0.0555556
        k(   31) = (   0.0000000  -0.3333333   0.1666667), wk =   0.0555556
        k(   32) = (   0.0000000  -0.3333333   0.3333333), wk =   0.0555556
        k(   33) = (  -0.1666667  -0.3333333   0.1666667), wk =   0.1111111
        k(   34) = (  -0.1666667  -0.3333333   0.3333333), wk =   0.1111111

     Check: negative core charge=   -0.000002

     Initial potential from superposition of free atoms

     starting charge     143.9702, renormalised to     144.0000
     Starting wfcs are  104 randomized atomic wfcs

     Self-consistent Calculation

     iteration #  1     ecut=    50.00 Ry     beta= 0.30
     Davidson diagonalization with overlap

     ethr =  1.00E-02,  avg # of iterations =  2.0

     total energy              =   -1445.82007697 Ry
     estimated scf accuracy    <       2.69069344 Ry

[...]

     total energy              =   -1446.39079300 Ry
     estimated scf accuracy    <       0.00000001 Ry

     iteration # 28     ecut=    50.00 Ry     beta= 0.30
     Davidson diagonalization with overlap

     ethr =  8.63E-12,  avg # of iterations =  5.3

     End of self-consistent calculation

          k = 0.0000 0.0000 0.0000 (  6771 PWs)   bands (ev):

    -9.9653  -9.1067  -9.1067  -9.1067  -9.0134  -8.8144  -8.8144  -8.8144
     2.4327   2.4327   2.4327   2.5548   2.5548   2.5548   2.5728   2.8149
     2.8149   2.8658   3.0604   3.0604   3.1110   3.1110   3.1110   3.3929
     3.3929   3.3929   3.5889   3.5889   3.5889   3.7904   3.7904   3.7904
     4.3631   4.3631   4.3979   4.3979   4.3979   4.5934   4.5934   4.5934
     4.6550   4.6550   4.7186   4.7186   4.7186   4.7991   4.7991   4.7991
     4.9630   5.2323   5.2323   5.2323   5.3166   5.3166   5.3166   5.9888
     5.9888   5.9888   6.4165   6.4165   6.4165   7.6999   7.6999   7.7000
     8.1488   8.1488   8.1729   8.1729   8.1729   9.0587   9.1383   9.1383

     occupation numbers
     1.0000   1.0000   1.0000   1.0000   1.0000   1.0000   1.0000   1.0000
     1.0000   1.0000   1.0000   1.0000   1.0000   1.0000   1.0000   1.0000
     1.0000   1.0000   1.0000   1.0000   1.0000   1.0000   1.0000   1.0000
     1.0000   1.0000   1.0000   1.0000   1.0000   1.0000   1.0000   1.0000
     1.0000   1.0000   1.0000   1.0000   1.0000   1.0000   1.0000   1.0000
     1.0000   1.0000   1.0000   1.0000   1.0000   1.0000   1.0000   1.0000
     1.0000   1.0000   1.0000   1.0000   1.0000   1.0000   1.0000   1.0000
     1.0000   1.0000   1.0000   1.0000   1.0000   1.0000   1.0000   1.0000
     1.0000   1.0000   1.0000   1.0000   1.0000   1.0000   1.0000   1.0000

[...]

          k = 0.0000-0.3849 0.4214 (  6826 PWs)   bands (ev):

[...]

          k =-0.1667-0.4811 0.2107 (  6830 PWs)   bands (ev):

[...]

          k =-0.1667-0.4811 0.4214 (  6822 PWs)   bands (ev):

    -9.4750  -9.2998  -9.1629  -9.0919  -8.9908  -8.9406  -8.9225  -8.8607
     2.2569   2.3100   2.3489   2.3675   2.3954   2.3982   2.5414   2.5947
     2.9543   2.9813   3.0097   3.0631   3.0755   3.1154   3.1194   3.1266
     3.1739   3.1995   3.2484   3.3489   3.3633   3.4656   3.6208   3.6442
     4.3935   4.4154   4.4183   4.4206   4.4622   4.4805   4.5005   4.5531
     4.6152   4.6284   4.6631   4.6638   4.7027   4.7692   4.8210   4.9670
     5.1706   5.4373   5.6217   5.8395   5.8925   6.0734   6.1084   6.4107
     6.7553   6.8120   6.8796   6.9330   7.0209   7.2652   7.3417   7.3503
     7.6632   7.7582   7.7734   8.0836   8.0958   8.2082   8.3411   8.4129

     occupation numbers
     1.0000   1.0000   1.0000   1.0000   1.0000   1.0000   1.0000   1.0000
     1.0000   1.0000   1.0000   1.0000   1.0000   1.0000   1.0000   1.0000
     1.0000   1.0000   1.0000   1.0000   1.0000   1.0000   1.0000   1.0000
     1.0000   1.0000   1.0000   1.0000   1.0000   1.0000   1.0000   1.0000
     1.0000   1.0000   1.0000   1.0000   1.0000   1.0000   1.0000   1.0000
     1.0000   1.0000   1.0000   1.0000   1.0000   1.0000   1.0000   1.0000
     1.0000   1.0000   1.0000   1.0000   1.0000   1.0000   1.0000   1.0000
     1.0000   1.0000   1.0000   1.0000   1.0000   1.0000   1.0000   1.0000
     1.0000   1.0000   1.0000   1.0000   1.0000   1.0000   1.0000   1.0000

     highest occupied level (ev):     9.1383

!    total energy              =   -1446.39079300 Ry
     estimated scf accuracy    <          3.7E-11 Ry

     The total energy is the sum of the following terms:
     one-electron contribution =    -551.75971553 Ry
     hartree contribution      =     450.06885607 Ry
     xc contribution           =    -439.45576568 Ry
     ewald contribution        =    -905.24416786 Ry

     convergence has been achieved in  28 iterations

     Forces acting on atoms (cartesian axes, Ry/au):

     atom    1 type  1   force =     0.00000013    0.00000007   -0.01315991
     atom    2 type  1   force =     0.00000000    0.00000023   -0.01316097
     atom    3 type  2   force =     0.00000003    0.00000002    0.01316046
     atom    4 type  2   force =     0.00000000    0.00000008    0.01316039
     atom    5 type  1   force =    -0.00000000   -0.00000000   -0.01315926
     atom    6 type  1   force =     0.00000020   -0.00000011   -0.01316097
     atom    7 type  2   force =     0.00000000    0.00000000    0.01316040
     atom    8 type  2   force =     0.00000007   -0.00000004    0.01316039
     atom    9 type  1   force =    -0.00000013    0.00000007   -0.01315991
     atom   10 type  1   force =     0.00000000    0.00000000   -0.01316123
     atom   11 type  2   force =    -0.00000003    0.00000002    0.01316046
     atom   12 type  2   force =    -0.00000000   -0.00000000    0.01316018
     atom   13 type  1   force =     0.00000000   -0.00000015   -0.01315991
     atom   14 type  1   force =    -0.00000020   -0.00000011   -0.01316097
     atom   15 type  2   force =     0.00000000   -0.00000004    0.01316046
     atom   16 type  2   force =    -0.00000007   -0.00000004    0.01316039
     The non-local contrib.  to forces
     atom    1 type  1   force =     0.00000033    0.00000019   -0.06764583
     atom    2 type  1   force =     0.00000000    0.00000016   -0.06764656
     atom    3 type  2   force =    -0.00000014   -0.00000008   -0.04163807
     atom    4 type  2   force =    -0.00000000    0.00000006   -0.04163821
     atom    5 type  1   force =     0.00000000    0.00000000   -0.06764566
     atom    6 type  1   force =     0.00000014   -0.00000008   -0.06764656
     atom    7 type  2   force =     0.00000000   -0.00000000   -0.04163825
     atom    8 type  2   force =     0.00000005   -0.00000003   -0.04163821
     atom    9 type  1   force =    -0.00000033    0.00000019   -0.06764583
     atom   10 type  1   force =     0.00000000    0.00000000   -0.06764660
     atom   11 type  2   force =     0.00000014   -0.00000008   -0.04163807
     atom   12 type  2   force =     0.00000000   -0.00000000   -0.04163791
     atom   13 type  1   force =     0.00000000   -0.00000038   -0.06764583
     atom   14 type  1   force =    -0.00000014   -0.00000008   -0.06764656
     atom   15 type  2   force =     0.00000000    0.00000016   -0.04163807
     atom   16 type  2   force =    -0.00000005   -0.00000003   -0.04163821
     The ionic contribution  to forces
     atom    1 type  1   force =     0.00000001    0.00000001   -0.38870529
     atom    2 type  1   force =     0.00000002    0.00000001   -0.38870528
     atom    3 type  2   force =     0.00000001    0.00000001    0.38870529
     atom    4 type  2   force =     0.00000001    0.00000000    0.38870528
     atom    5 type  1   force =     0.00000001    0.00000001   -0.38870529
     atom    6 type  1   force =     0.00000002    0.00000001   -0.38870528
     atom    7 type  2   force =     0.00000001    0.00000001    0.38870529
     atom    8 type  2   force =     0.00000001    0.00000000    0.38870528
     atom    9 type  1   force =    -0.00000002   -0.00000001   -0.38870528
     atom   10 type  1   force =    -0.00000001   -0.00000001   -0.38870529
     atom   11 type  2   force =    -0.00000001   -0.00000000    0.38870528
     atom   12 type  2   force =    -0.00000001   -0.00000001    0.38870529
     atom   13 type  1   force =    -0.00000002   -0.00000001   -0.38870528
     atom   14 type  1   force =    -0.00000001   -0.00000001   -0.38870529
     atom   15 type  2   force =    -0.00000001   -0.00000000    0.38870528
     atom   16 type  2   force =    -0.00000001   -0.00000001    0.38870529
     The local contribution  to forces
     atom    1 type  1   force =    -0.00000048   -0.00000019    0.43729874
     atom    2 type  1   force =     0.00000008   -0.00000025    0.43730127
     atom    3 type  2   force =    -0.00000014   -0.00000006   -0.33416780
     atom    4 type  2   force =     0.00000002    0.00000049   -0.33416858
     atom    5 type  1   force =    -0.00000000    0.00000009    0.43729808
     atom    6 type  1   force =    -0.00000017    0.00000019    0.43730127
     atom    7 type  2   force =    -0.00000000    0.00000002   -0.33416774
     atom    8 type  2   force =     0.00000043   -0.00000023   -0.33416858
     atom    9 type  1   force =     0.00000032   -0.00000019    0.43729874
     atom   10 type  1   force =    -0.00000008    0.00000005    0.43730106
     atom   11 type  2   force =     0.00000010   -0.00000006   -0.33416780
     atom   12 type  2   force =    -0.00000002    0.00000001   -0.33416873
     atom   13 type  1   force =    -0.00000016    0.00000065    0.43729874
     atom   14 type  1   force =     0.00000017    0.00000019    0.43730127
     atom   15 type  2   force =    -0.00000004    0.00000019   -0.33416780
     atom   16 type  2   force =    -0.00000043   -0.00000023   -0.33416858
     The core correction contribution to forces
     atom    1 type  1   force =    -0.00000025   -0.00000013    0.00589315
     atom    2 type  1   force =     0.00000001   -0.00000030    0.00589310
     atom    3 type  2   force =    -0.00000003   -0.00000001    0.00026308
     atom    4 type  2   force =    -0.00000000   -0.00000003    0.00026308
     atom    5 type  1   force =    -0.00000000    0.00000001    0.00589316
     atom    6 type  1   force =    -0.00000025    0.00000016    0.00589310
     atom    7 type  2   force =     0.00000000   -0.00000000    0.00026308
     atom    8 type  2   force =    -0.00000003    0.00000001    0.00026308
     atom    9 type  1   force =     0.00000023   -0.00000013    0.00589315
     atom   10 type  1   force =    -0.00000001    0.00000001    0.00589313
     atom   11 type  2   force =     0.00000003   -0.00000001    0.00026308
     atom   12 type  2   force =     0.00000000   -0.00000000    0.00026308
     atom   13 type  1   force =    -0.00000002    0.00000030    0.00589315
     atom   14 type  1   force =     0.00000025    0.00000016    0.00589310
     atom   15 type  2   force =     0.00000000    0.00000003    0.00026308
     atom   16 type  2   force =     0.00000003    0.00000001    0.00026308
     The Hubbard contrib.    to forces
     atom    1 type  1   force =     0.00000000    0.00000000    0.00000000
     atom    2 type  1   force =     0.00000000    0.00000000    0.00000000
     atom    3 type  2   force =     0.00000000    0.00000000    0.00000000
     atom    4 type  2   force =     0.00000000    0.00000000    0.00000000
     atom    5 type  1   force =     0.00000000    0.00000000    0.00000000
     atom    6 type  1   force =     0.00000000    0.00000000    0.00000000
     atom    7 type  2   force =     0.00000000    0.00000000    0.00000000
     atom    8 type  2   force =     0.00000000    0.00000000    0.00000000
     atom    9 type  1   force =     0.00000000    0.00000000    0.00000000
     atom   10 type  1   force =     0.00000000    0.00000000    0.00000000
     atom   11 type  2   force =     0.00000000    0.00000000    0.00000000
     atom   12 type  2   force =     0.00000000    0.00000000    0.00000000
     atom   13 type  1   force =     0.00000000    0.00000000    0.00000000
     atom   14 type  1   force =     0.00000000    0.00000000    0.00000000
     atom   15 type  2   force =     0.00000000    0.00000000    0.00000000
     atom   16 type  2   force =     0.00000000    0.00000000    0.00000000
     The SCF correction term to forces
     atom    1 type  1   force =     0.00000048    0.00000028    0.00000081
     atom    2 type  1   force =     0.00000000    0.00000060   -0.00000200
     atom    3 type  2   force =     0.00000032    0.00000019   -0.00000054
     atom    4 type  2   force =     0.00000000   -0.00000045    0.00000032
     atom    5 type  1   force =     0.00000000    0.00000000    0.00000195
     atom    6 type  1   force =     0.00000052   -0.00000030   -0.00000200
     atom    7 type  2   force =     0.00000000    0.00000000   -0.00000048
     atom    8 type  2   force =    -0.00000039    0.00000022    0.00000032
     atom    9 type  1   force =    -0.00000048    0.00000028    0.00000081
     atom   10 type  1   force =    -0.00000000    0.00000000   -0.00000204
     atom   11 type  2   force =    -0.00000032    0.00000019   -0.00000054
     atom   12 type  2   force =    -0.00000000   -0.00000000   -0.00000005
     atom   13 type  1   force =    -0.00000000   -0.00000055    0.00000081
     atom   14 type  1   force =    -0.00000052   -0.00000030   -0.00000200
     atom   15 type  2   force =    -0.00000000   -0.00000037   -0.00000054
     atom   16 type  2   force =     0.00000039    0.00000022    0.00000032

     Total force =     0.052642     Total SCF correction =     0.000005

     General routines

     Parallel routines

   This run was terminated on:  17:45:46  23Aug2025

   JOB DONE.
Note: The following floating-point exceptions are signalling: IEEE_INVALID_FLAG
Note: The following floating-point exceptions are signalling: IEEE_INVALID_FLAG
Note: The following floating-point exceptions are signalling: IEEE_INVALID_FLAG
Note: The following floating-point exceptions are signalling: IEEE_INVALID_FLAG
Note: The following floating-point exceptions are signalling: IEEE_INVALID_FLAG
Note: The following floating-point exceptions are signalling: IEEE_INVALID_FLAG
Note: The following floating-point exceptions are signalling: IEEE_INVALID_FLAG
Note: The following floating-point exceptions are signalling: IEEE_INVALID_FLAG IEEE_DENORMAL
Note: The following floating-point exceptions are signalling: IEEE_INVALID_FLAG
Note: The following floating-point exceptions are signalling: IEEE_INVALID_FLAG
Note: The following floating-point exceptions are signalling: IEEE_INVALID_FLAG
Note: The following floating-point exceptions are signalling: IEEE_INVALID_FLAG
Note: The following floating-point exceptions are signalling: IEEE_INVALID_FLAG
Note: The following floating-point exceptions are signalling: IEEE_INVALID_FLAG
Note: The following floating-point exceptions are signalling: IEEE_INVALID_FLAG
Note: The following floating-point exceptions are signalling: IEEE_INVALID_FLAG
Note: The following floating-point exceptions are signalling: IEEE_INVALID_FLAG
Note: The following floating-point exceptions are signalling: IEEE_INVALID_FLAG
Note: The following floating-point exceptions are signalling: IEEE_INVALID_FLAG
Note: The following floating-point exceptions are signalling: IEEE_INVALID_FLAG
Note: The following floating-point exceptions are signalling: IEEE_INVALID_FLAG
Note: The following floating-point exceptions are signalling: IEEE_INVALID_FLAG
Note: The following floating-point exceptions are signalling: IEEE_INVALID_FLAG
Note: The following floating-point exceptions are signalling: IEEE_INVALID_FLAG
Note: The following floating-point exceptions are signalling: IEEE_INVALID_FLAG
Note: The following floating-point exceptions are signalling: IEEE_INVALID_FLAG IEEE_DENORMAL
Note: The following floating-point exceptions are signalling: IEEE_INVALID_FLAG
Note: The following floating-point exceptions are signalling: IEEE_INVALID_FLAG
Note: The following floating-point exceptions are signalling: IEEE_INVALID_FLAG
Note: The following floating-point exceptions are signalling: IEEE_INVALID_FLAG
Note: The following floating-point exceptions are signalling: IEEE_INVALID_FLAG
Note: The following floating-point exceptions are signalling: IEEE_INVALID_FLAG