     Program PWSCF v.7.2 starts on 23Aug2025 at 21:11:53

     Reading input from /home/jvc/QEspresso7.2/ZnO_database/scripts/cell221.in/ZnO-3.34-1.58-221.in
Warning: card &CELL ignored
Warning: card / ignored
Warning: card &FCP ignored
Warning: card / ignored
Warning: card &RISM ignored
Warning: card / ignored

     Current dimensions of program PWSCF are:
     Max number of different atomic species (ntypx) = 10
     Max number of k-points (npk) =  40000
     Max angular momentum in pseudopotentials (lmaxx) =  4
     file Zn.upf: wavefunction(s)  3D renormalized
     Found identity + (  0.0000 -0.5000  0.0000) symmetry
     This is a supercell, fractional translations are disabled
     Message from routine setup:
     using ibrav=0 with symmetry is DISCOURAGED, use correct ibrav instead

     K-points division:     npool     =       8
     band groups division:  nbgrp     =       4
     Subspace diagonalization in iterative solution of the eigenvalue problem:
     a serial algorithm will be used

     Using Slab Decomposition

     bravais-lattice index     =            0
     lattice parameter (alat)  =      12.6049  a.u.
     unit-cell volume          =    1371.9584 (a.u.)^3
     number of atoms/cell      =           16
     number of atomic types    =            2
     number of electrons       =       144.00
     number of Kohn-Sham states=           72
     kinetic-energy cutoff     =      50.0000  Ry
     charge density cutoff     =     400.0000  Ry
     scf convergence threshold =      1.0E-08
     mixing beta               =       0.3000
     number of iterations used =            8  plain     mixing
     Exchange-correlation= PBE
                           (   1   4   3   4   0   0   0)

     celldm(1)=  12.604862  celldm(2)=   0.000000  celldm(3)=   0.000000
     celldm(4)=   0.000000  celldm(5)=   0.000000  celldm(6)=   0.000000

     crystal axes: (cart. coord. in units of alat)
               a(1) = (   1.000000   0.000000   0.000000 )
               a(2) = (  -0.500000   0.866025   0.000000 )
               a(3) = (   0.000000   0.000000   0.791036 )

     reciprocal axes: (cart. coord. in units 2 pi/alat)
               b(1) = (  1.000000  0.577350 -0.000000 )
               b(2) = (  0.000000  1.154701  0.000000 )
               b(3) = (  0.000000 -0.000000  1.264166 )

     PseudoPot. # 1 for Zn read from file:
     /home/jvc/QEspresso7.2/ZnO_database/pseudos/Zn.upf
     MD5 check sum: 7f56cabf9682ed8c977c2f7d0c5985c5
     Pseudo is Ultrasoft + core correction, Zval = 12.0
     Generated using &quot;atomic&quot; code by A. Dal Corso  v.6.2.2
     Using radial grid of 1201 points,  6 beta functions with:
                l(1) =   0
                l(2) =   0
                l(3) =   1
                l(4) =   1
                l(5) =   2
                l(6) =   2
     Q(r) pseudized with 0 coefficients

     PseudoPot. # 2 for O  read from file:
     /home/jvc/QEspresso7.2/ZnO_database/pseudos/O.upf
     MD5 check sum: 91400c9766925bcf19f520983a725ff0
     Pseudo is Ultrasoft + core correction, Zval =  6.0
     Generated using &quot;atomic&quot; code by A. Dal Corso  v.6.3MaX
     Using radial grid of 1095 points,  4 beta functions with:
                l(1) =   0
                l(2) =   0
                l(3) =   1
                l(4) =   1
     Q(r) pseudized with 0 coefficients

     atomic species   valence    mass     pseudopotential
        Zn            12.00    65.38000     Zn( 1.00)
        O              6.00    15.99900     O ( 1.00)

      6 Sym. Ops. (no inversion) found

                                    s                        frac. trans.

      isym =  1     identity

 cryst.   s( 1) = (     1          0          0      )
                  (     0          1          0      )
                  (     0          0          1      )

 cart.    s( 1) = (  1.0000000  0.0000000  0.0000000 )
                  (  0.0000000  1.0000000  0.0000000 )
                  (  0.0000000  0.0000000  1.0000000 )

      isym =  2     120 deg rotation - cryst. axis [0,0,1]

[...]

      isym =  3     120 deg rotation - cryst. axis [0,0,-1]

[...]

      isym =  4     inv. 180 deg rotation - cart. axis [1,0,0]

[...]

      isym =  5     inv. 180 deg rotation - cryst. axis [0,1,0]

[...]

      isym =  6     inv. 180 deg rotation - cryst. axis [1,1,0]

 cryst.   s( 6) = (     0         -1          0      )
                  (    -1          0          0      )
                  (     0          0          1      )

 cart.    s( 6) = (  0.5000000 -0.8660254  0.0000000 )
                  ( -0.8660254 -0.5000000  0.0000000 )
                  (  0.0000000  0.0000000  1.0000000 )

   Cartesian axes

     site n.     atom                  positions (alat units)
         1           Zn  tau(   1) = (   0.2500000   0.1443376   0.3960190  )
         2           Zn  tau(   2) = (  -0.0000000   0.2886751   0.0005012  )
         3           O   tau(   3) = (   0.2500000   0.1443376   0.6958554  )
         4           O   tau(   4) = (  -0.0000000   0.2886751   0.3003376  )
         5           Zn  tau(   5) = (   0.0000000   0.5773503   0.3960190  )
         6           Zn  tau(   6) = (  -0.2500000   0.7216878   0.0005012  )
         7           O   tau(   7) = (   0.0000000   0.5773503   0.6958554  )
         8           O   tau(   8) = (  -0.2500000   0.7216878   0.3003376  )
         9           Zn  tau(   9) = (   0.7500000   0.1443376   0.3960190  )
        10           Zn  tau(  10) = (   0.5000000   0.2886751   0.0005012  )
        11           O   tau(  11) = (   0.7500000   0.1443376   0.6958554  )
        12           O   tau(  12) = (   0.5000000   0.2886751   0.3003376  )
        13           Zn  tau(  13) = (   0.5000000   0.5773503   0.3960190  )
        14           Zn  tau(  14) = (   0.2500000   0.7216878   0.0005012  )
        15           O   tau(  15) = (   0.5000000   0.5773503   0.6958554  )
        16           O   tau(  16) = (   0.2500000   0.7216878   0.3003376  )

   Crystallographic axes

     site n.     atom                  positions (cryst. coord.)
         1           Zn  tau(   1) = (  0.3333333  0.1666667  0.5006336  )
         2           Zn  tau(   2) = (  0.1666667  0.3333333  0.0006336  )
         3           O   tau(   3) = (  0.3333333  0.1666667  0.8796764  )
         4           O   tau(   4) = (  0.1666667  0.3333333  0.3796764  )
         5           Zn  tau(   5) = (  0.3333333  0.6666667  0.5006336  )
         6           Zn  tau(   6) = (  0.1666667  0.8333333  0.0006336  )
         7           O   tau(   7) = (  0.3333333  0.6666667  0.8796764  )
         8           O   tau(   8) = (  0.1666667  0.8333333  0.3796764  )
         9           Zn  tau(   9) = (  0.8333333  0.1666667  0.5006336  )
        10           Zn  tau(  10) = (  0.6666667  0.3333333  0.0006336  )
        11           O   tau(  11) = (  0.8333333  0.1666667  0.8796764  )
        12           O   tau(  12) = (  0.6666667  0.3333333  0.3796764  )
        13           Zn  tau(  13) = (  0.8333333  0.6666667  0.5006336  )
        14           Zn  tau(  14) = (  0.6666667  0.8333333  0.0006336  )
        15           O   tau(  15) = (  0.8333333  0.6666667  0.8796764  )
        16           O   tau(  16) = (  0.6666667  0.8333333  0.3796764  )

     number of k points=    34
                       cart. coord. in units 2pi/alat
        k(    1) = (   0.0000000   0.0000000   0.0000000), wk =   0.0092593
        k(    2) = (   0.0000000   0.0000000   0.2106943), wk =   0.0185185
        k(    3) = (   0.0000000   0.0000000   0.4213885), wk =   0.0185185
        k(    4) = (   0.0000000   0.0000000  -0.6320828), wk =   0.0092593
        k(    5) = (   0.0000000   0.1924501   0.0000000), wk =   0.0555556
        k(    6) = (   0.0000000   0.1924501   0.2106943), wk =   0.0555556
        k(    7) = (   0.0000000   0.1924501   0.4213885), wk =   0.0555556
        k(    8) = (   0.0000000   0.1924501  -0.6320828), wk =   0.0555556
        k(    9) = (   0.0000000   0.3849002   0.0000000), wk =   0.0555556
        k(   10) = (   0.0000000   0.3849002   0.2106943), wk =   0.0555556
        k(   11) = (   0.0000000   0.3849002   0.4213885), wk =   0.0555556
        k(   12) = (   0.0000000   0.3849002  -0.6320828), wk =   0.0555556
        k(   13) = (   0.0000000  -0.5773503   0.0000000), wk =   0.0277778
        k(   14) = (   0.0000000  -0.5773503   0.2106943), wk =   0.0555556
        k(   15) = (   0.0000000  -0.5773503   0.4213885), wk =   0.0555556
        k(   16) = (   0.0000000  -0.5773503  -0.6320828), wk =   0.0277778
        k(   17) = (   0.1666667   0.2886751   0.0000000), wk =   0.0555556
        k(   18) = (   0.1666667   0.2886751   0.2106943), wk =   0.1111111
        k(   19) = (   0.1666667   0.2886751   0.4213885), wk =   0.1111111
        k(   20) = (   0.1666667   0.2886751  -0.6320828), wk =   0.0555556
        k(   21) = (   0.1666667   0.4811252   0.0000000), wk =   0.1111111
        k(   22) = (   0.1666667   0.4811252   0.2106943), wk =   0.1111111
        k(   23) = (   0.1666667   0.4811252   0.4213885), wk =   0.1111111
        k(   24) = (   0.1666667   0.4811252  -0.6320828), wk =   0.1111111
        k(   25) = (   0.3333333   0.5773503   0.0000000), wk =   0.0185185
        k(   26) = (   0.3333333   0.5773503   0.2106943), wk =   0.0370370
        k(   27) = (   0.3333333   0.5773503   0.4213885), wk =   0.0370370
        k(   28) = (   0.3333333   0.5773503  -0.6320828), wk =   0.0185185
        k(   29) = (   0.0000000  -0.1924501   0.2106943), wk =   0.0555556
        k(   30) = (   0.0000000  -0.1924501   0.4213885), wk =   0.0555556
        k(   31) = (   0.0000000  -0.3849002   0.2106943), wk =   0.0555556
        k(   32) = (   0.0000000  -0.3849002   0.4213885), wk =   0.0555556
        k(   33) = (  -0.1666667  -0.4811252   0.2106943), wk =   0.1111111
        k(   34) = (  -0.1666667  -0.4811252   0.4213885), wk =   0.1111111

                       cryst. coord.
        k(    1) = (   0.0000000   0.0000000   0.0000000), wk =   0.0092593
        k(    2) = (   0.0000000   0.0000000   0.1666667), wk =   0.0185185
        k(    3) = (   0.0000000   0.0000000   0.3333333), wk =   0.0185185
        k(    4) = (   0.0000000   0.0000000  -0.5000000), wk =   0.0092593
        k(    5) = (   0.0000000   0.1666667   0.0000000), wk =   0.0555556
        k(    6) = (   0.0000000   0.1666667   0.1666667), wk =   0.0555556
        k(    7) = (   0.0000000   0.1666667   0.3333333), wk =   0.0555556
        k(    8) = (   0.0000000   0.1666667  -0.5000000), wk =   0.0555556
        k(    9) = (   0.0000000   0.3333333   0.0000000), wk =   0.0555556
        k(   10) = (   0.0000000   0.3333333   0.1666667), wk =   0.0555556
        k(   11) = (   0.0000000   0.3333333   0.3333333), wk =   0.0555556
        k(   12) = (   0.0000000   0.3333333  -0.5000000), wk =   0.0555556
        k(   13) = (   0.0000000  -0.5000000   0.0000000), wk =   0.0277778
        k(   14) = (   0.0000000  -0.5000000   0.1666667), wk =   0.0555556
        k(   15) = (   0.0000000  -0.5000000   0.3333333), wk =   0.0555556
[...]
        k(   28) = (   0.3333333   0.3333333  -0.5000000), wk =   0.0185185
        k(   29) = (   0.0000000  -0.1666667   0.1666667), wk =   0.0555556
        k(   30) = (   0.0000000  -0.1666667   0.3333333), wk =   0.0555556
        k(   31) = (   0.0000000  -0.3333333   0.1666667), wk =   0.0555556
        k(   32) = (   0.0000000  -0.3333333   0.3333333), wk =   0.0555556
        k(   33) = (  -0.1666667  -0.3333333   0.1666667), wk =   0.1111111
        k(   34) = (  -0.1666667  -0.3333333   0.3333333), wk =   0.1111111

     Check: negative core charge=   -0.000002

     Initial potential from superposition of free atoms

     starting charge     143.9702, renormalised to     144.0000
     Starting wfcs are  104 randomized atomic wfcs

     Self-consistent Calculation

     iteration #  1     ecut=    50.00 Ry     beta= 0.30
     Davidson diagonalization with overlap

     ethr =  1.00E-02,  avg # of iterations =  2.0

     total energy              =   -1445.88824029 Ry
     estimated scf accuracy    <       2.82459369 Ry

[...]

     c_bands:  4 eigenvalues not converged
     c_bands:  1 eigenvalues not converged
     c_bands:  1 eigenvalues not converged
     c_bands:  1 eigenvalues not converged
     ethr =  1.46E-08,  avg # of iterations = 16.9

[...]

     c_bands:  1 eigenvalues not converged
     ethr =  1.46E-08,  avg # of iterations = 14.6

[...]

     total energy              =   -1446.54127348 Ry
     estimated scf accuracy    <       0.00000027 Ry

     iteration # 33     ecut=    50.00 Ry     beta= 0.30
     Davidson diagonalization with overlap

     ethr =  4.93E-11,  avg # of iterations =  7.1

     End of self-consistent calculation

          k = 0.0000 0.0000 0.0000 (  8153 PWs)   bands (ev):

   -11.2658 -10.6786 -10.6785 -10.6785 -10.6129 -10.4773 -10.4771 -10.4771
     0.7679   0.7679   0.7679   0.9315   0.9315   0.9565   1.0303   1.0303
     1.0303   1.1145   1.1145   1.1463   1.1463   1.1463   1.2039   1.4946
     1.4946   1.4946   1.5211   1.5211   1.5211   1.6445   1.6445   1.6445
     1.9149   1.9149   1.9587   1.9587   1.9587   2.0651   2.0651   2.0651
     2.1066   2.1066   2.1466   2.1466   2.1466   2.2071   2.2071   2.2071
     2.3434   2.7067   2.7067   2.7067   3.0247   3.0247   3.0247   3.6864
     3.6865   3.6865   4.2122   4.2122   4.2123   5.1509   5.1510   5.1510
     5.5408   5.5408   5.5799   5.5799   5.5800   6.2782   6.3062   6.3062

     occupation numbers
     1.0000   1.0000   1.0000   1.0000   1.0000   1.0000   1.0000   1.0000
     1.0000   1.0000   1.0000   1.0000   1.0000   1.0000   1.0000   1.0000
     1.0000   1.0000   1.0000   1.0000   1.0000   1.0000   1.0000   1.0000
     1.0000   1.0000   1.0000   1.0000   1.0000   1.0000   1.0000   1.0000
     1.0000   1.0000   1.0000   1.0000   1.0000   1.0000   1.0000   1.0000
     1.0000   1.0000   1.0000   1.0000   1.0000   1.0000   1.0000   1.0000
     1.0000   1.0000   1.0000   1.0000   1.0000   1.0000   1.0000   1.0000
     1.0000   1.0000   1.0000   1.0000   1.0000   1.0000   1.0000   1.0000
     1.0000   1.0000   1.0000   1.0000   1.0000   1.0000   1.0000   1.0000

[...]

          k = 0.0000-0.3849 0.4214 (  8200 PWs)   bands (ev):

[...]

          k =-0.1667-0.4811 0.2107 (  8191 PWs)   bands (ev):

[...]

          k =-0.1667-0.4811 0.4214 (  8194 PWs)   bands (ev):

   -10.9271 -10.8082 -10.7156 -10.6657 -10.5979 -10.5660 -10.5523 -10.5115
     0.6554   0.6930   0.7188   0.7744   0.7848   0.8067   0.8841   0.9559
     1.0652   1.0913   1.1150   1.1338   1.1661   1.1886   1.1895   1.2209
     1.2225   1.2818   1.3344   1.3441   1.3447   1.4190   1.5431   1.5623
     1.9536   1.9570   1.9605   1.9659   1.9810   1.9993   2.0063   2.0403
     2.0796   2.0886   2.1147   2.1208   2.1538   2.2047   2.2486   2.3380
     2.7345   2.9418   3.0884   3.2859   3.4389   3.4933   3.5830   3.7888
     4.2922   4.3910   4.4612   4.5071   4.5448   4.7809   4.8996   4.9051
     5.1235   5.2322   5.2512   5.4740   5.5121   5.5946   5.6923   5.7422

     occupation numbers
     1.0000   1.0000   1.0000   1.0000   1.0000   1.0000   1.0000   1.0000
     1.0000   1.0000   1.0000   1.0000   1.0000   1.0000   1.0000   1.0000
     1.0000   1.0000   1.0000   1.0000   1.0000   1.0000   1.0000   1.0000
     1.0000   1.0000   1.0000   1.0000   1.0000   1.0000   1.0000   1.0000
     1.0000   1.0000   1.0000   1.0000   1.0000   1.0000   1.0000   1.0000
     1.0000   1.0000   1.0000   1.0000   1.0000   1.0000   1.0000   1.0000
     1.0000   1.0000   1.0000   1.0000   1.0000   1.0000   1.0000   1.0000
     1.0000   1.0000   1.0000   1.0000   1.0000   1.0000   1.0000   1.0000
     1.0000   1.0000   1.0000   1.0000   1.0000   1.0000   1.0000   1.0000

     highest occupied level (ev):     6.3062

!    total energy              =   -1446.54127355 Ry
     estimated scf accuracy    <          8.6E-09 Ry

     The total energy is the sum of the following terms:
     one-electron contribution =    -636.42794821 Ry
     hartree contribution      =     479.75322771 Ry
     xc contribution           =    -437.87204213 Ry
     ewald contribution        =    -851.99451092 Ry

     convergence has been achieved in  33 iterations

     Forces acting on atoms (cartesian axes, Ry/au):

     atom    1 type  1   force =    -0.00002808   -0.00001621   -0.00513435
     atom    2 type  1   force =     0.00000000   -0.00000613   -0.00515424
     atom    3 type  2   force =     0.00000080    0.00000046    0.00514792
     atom    4 type  2   force =     0.00000000   -0.00000044    0.00514858
     atom    5 type  1   force =     0.00000000    0.00000000   -0.00514445
     atom    6 type  1   force =    -0.00000531    0.00000307   -0.00515424
     atom    7 type  2   force =     0.00000000    0.00000000    0.00514788
     atom    8 type  2   force =    -0.00000038    0.00000022    0.00514858
     atom    9 type  1   force =     0.00002808   -0.00001621   -0.00513435
     atom   10 type  1   force =     0.00000000    0.00000000   -0.00517660
     atom   11 type  2   force =    -0.00000080    0.00000046    0.00514792
     atom   12 type  2   force =     0.00000000   -0.00000000    0.00514947
     atom   13 type  1   force =    -0.00000000    0.00003242   -0.00513435
     atom   14 type  1   force =     0.00000531    0.00000307   -0.00515424
     atom   15 type  2   force =     0.00000000   -0.00000092    0.00514792
     atom   16 type  2   force =     0.00000038    0.00000022    0.00514858
     The non-local contrib.  to forces
     atom    1 type  1   force =    -0.00001396   -0.00000806   -0.06133573
     atom    2 type  1   force =     0.00000000   -0.00000566   -0.06134625
     atom    3 type  2   force =     0.00000411    0.00000237   -0.04324981
     atom    4 type  2   force =     0.00000000   -0.00000110   -0.04325280
     atom    5 type  1   force =     0.00000000    0.00000000   -0.06134012
     atom    6 type  1   force =    -0.00000491    0.00000283   -0.06134625
     atom    7 type  2   force =     0.00000000    0.00000000   -0.04324889
     atom    8 type  2   force =    -0.00000096    0.00000055   -0.04325280
     atom    9 type  1   force =     0.00001396   -0.00000806   -0.06133573
     atom   10 type  1   force =     0.00000000    0.00000000   -0.06135504
     atom   11 type  2   force =    -0.00000411    0.00000237   -0.04324981
     atom   12 type  2   force =     0.00000000   -0.00000000   -0.04325135
     atom   13 type  1   force =     0.00000000    0.00001612   -0.06133573
     atom   14 type  1   force =     0.00000491    0.00000283   -0.06134625
     atom   15 type  2   force =     0.00000000   -0.00000474   -0.04324981
     atom   16 type  2   force =     0.00000096    0.00000055   -0.04325280
     The ionic contribution  to forces
     atom    1 type  1   force =     0.00000000    0.00000001   -0.34432025
     atom    2 type  1   force =     0.00000001    0.00000000   -0.34432025
     atom    3 type  2   force =     0.00000000    0.00000000    0.34432025
     atom    4 type  2   force =     0.00000001    0.00000000    0.34432025
     atom    5 type  1   force =     0.00000000    0.00000001   -0.34432025
     atom    6 type  1   force =     0.00000001    0.00000000   -0.34432025
     atom    7 type  2   force =     0.00000000    0.00000000    0.34432025
     atom    8 type  2   force =     0.00000001    0.00000000    0.34432025
     atom    9 type  1   force =    -0.00000002   -0.00000000   -0.34432025
     atom   10 type  1   force =     0.00000000   -0.00000001   -0.34432025
     atom   11 type  2   force =    -0.00000001    0.00000000    0.34432025
     atom   12 type  2   force =     0.00000000   -0.00000001    0.34432025
     atom   13 type  1   force =    -0.00000002   -0.00000000   -0.34432025
     atom   14 type  1   force =     0.00000000   -0.00000001   -0.34432025
     atom   15 type  2   force =    -0.00000001    0.00000000    0.34432025
     atom   16 type  2   force =     0.00000000   -0.00000001    0.34432025
     The local contribution  to forces
     atom    1 type  1   force =     0.00004858    0.00002815    0.39603333
     atom    2 type  1   force =     0.00000009    0.00001409    0.39605924
     atom    3 type  2   force =     0.00000017    0.00000012   -0.29623491
     atom    4 type  2   force =     0.00000002    0.00000886   -0.29625398
     atom    5 type  1   force =     0.00000000    0.00000010    0.39605332
     atom    6 type  1   force =     0.00001224   -0.00000697    0.39605924
     atom    7 type  2   force =    -0.00000000    0.00000003   -0.29623505
     atom    8 type  2   force =     0.00000768   -0.00000441   -0.29625398
     atom    9 type  1   force =    -0.00004875    0.00002815    0.39603333
     atom   10 type  1   force =     0.00000009    0.00000005    0.39610198
     atom   11 type  2   force =    -0.00000022    0.00000012   -0.29623491
     atom   12 type  2   force =     0.00000002    0.00000001   -0.29625200
     atom   13 type  1   force =    -0.00000018   -0.00005599    0.39603333
     atom   14 type  1   force =    -0.00001207   -0.00000697    0.39605924
     atom   15 type  2   force =    -0.00000005   -0.00000017   -0.29623491
     atom   16 type  2   force =    -0.00000764   -0.00000441   -0.29625398
     The core correction contribution to forces
     atom    1 type  1   force =    -0.00000075   -0.00000042    0.00445753
     atom    2 type  1   force =     0.00000001    0.00000012    0.00445752
     atom    3 type  2   force =    -0.00000004   -0.00000002    0.00032519
     atom    4 type  2   force =    -0.00000000    0.00000006    0.00032519
     atom    5 type  1   force =     0.00000000    0.00000001    0.00445700
     atom    6 type  1   force =     0.00000011   -0.00000005    0.00445752
     atom    7 type  2   force =     0.00000000   -0.00000000    0.00032518
     atom    8 type  2   force =     0.00000005   -0.00000003    0.00032519
     atom    9 type  1   force =     0.00000073   -0.00000042    0.00445753
     atom   10 type  1   force =     0.00000001    0.00000001    0.00445625
     atom   11 type  2   force =     0.00000004   -0.00000002    0.00032519
     atom   12 type  2   force =    -0.00000000   -0.00000000    0.00032517
     atom   13 type  1   force =    -0.00000002    0.00000088    0.00445753
     atom   14 type  1   force =    -0.00000009   -0.00000005    0.00445752
     atom   15 type  2   force =     0.00000000    0.00000004    0.00032519
     atom   16 type  2   force =    -0.00000005   -0.00000003    0.00032519
     The Hubbard contrib.    to forces
     atom    1 type  1   force =     0.00000000    0.00000000    0.00000000
     atom    2 type  1   force =     0.00000000    0.00000000    0.00000000
     atom    3 type  2   force =     0.00000000    0.00000000    0.00000000
     atom    4 type  2   force =     0.00000000    0.00000000    0.00000000
     atom    5 type  1   force =     0.00000000    0.00000000    0.00000000
     atom    6 type  1   force =     0.00000000    0.00000000    0.00000000
     atom    7 type  2   force =     0.00000000    0.00000000    0.00000000
     atom    8 type  2   force =     0.00000000    0.00000000    0.00000000
     atom    9 type  1   force =     0.00000000    0.00000000    0.00000000
     atom   10 type  1   force =     0.00000000    0.00000000    0.00000000
     atom   11 type  2   force =     0.00000000    0.00000000    0.00000000
     atom   12 type  2   force =     0.00000000    0.00000000    0.00000000
     atom   13 type  1   force =     0.00000000    0.00000000    0.00000000
     atom   14 type  1   force =     0.00000000    0.00000000    0.00000000
     atom   15 type  2   force =     0.00000000    0.00000000    0.00000000
     atom   16 type  2   force =     0.00000000    0.00000000    0.00000000
     The SCF correction term to forces
     atom    1 type  1   force =    -0.00006199   -0.00003579    0.00002951
     atom    2 type  1   force =    -0.00000000   -0.00001462   -0.00000576
     atom    3 type  2   force =    -0.00000346   -0.00000200   -0.00001407
     atom    4 type  2   force =    -0.00000000   -0.00000824    0.00000865
     atom    5 type  1   force =    -0.00000000   -0.00000000    0.00000434
     atom    6 type  1   force =    -0.00001266    0.00000731   -0.00000576
     atom    7 type  2   force =    -0.00000000   -0.00000000   -0.00001488
     atom    8 type  2   force =    -0.00000714    0.00000412    0.00000865
     atom    9 type  1   force =     0.00006199   -0.00003579    0.00002951
     atom   10 type  1   force =    -0.00000000   -0.00000000   -0.00006080
     atom   11 type  2   force =     0.00000346   -0.00000200   -0.00001407
     atom   12 type  2   force =    -0.00000000   -0.00000000    0.00000613
     atom   13 type  1   force =     0.00000000    0.00007159    0.00002951
     atom   14 type  1   force =     0.00001266    0.00000731   -0.00000576
     atom   15 type  2   force =     0.00000000    0.00000399   -0.00001407
     atom   16 type  2   force =     0.00000714    0.00000412    0.00000865

     Total force =     0.020594     Total SCF correction =     0.000154

     General routines

     Parallel routines

   This run was terminated on:  21:19:19  23Aug2025

   JOB DONE.
Note: The following floating-point exceptions are signalling: IEEE_INVALID_FLAG
Note: The following floating-point exceptions are signalling: IEEE_INVALID_FLAG
Note: The following floating-point exceptions are signalling: IEEE_INVALID_FLAG
Note: The following floating-point exceptions are signalling: IEEE_INVALID_FLAG
Note: The following floating-point exceptions are signalling: IEEE_INVALID_FLAG
Note: The following floating-point exceptions are signalling: IEEE_INVALID_FLAG
Note: The following floating-point exceptions are signalling: IEEE_INVALID_FLAG
Note: The following floating-point exceptions are signalling: IEEE_INVALID_FLAG
Note: The following floating-point exceptions are signalling: IEEE_INVALID_FLAG
Note: The following floating-point exceptions are signalling: IEEE_INVALID_FLAG
Note: The following floating-point exceptions are signalling: IEEE_INVALID_FLAG
Note: The following floating-point exceptions are signalling: IEEE_INVALID_FLAG
Note: The following floating-point exceptions are signalling: IEEE_INVALID_FLAG
Note: The following floating-point exceptions are signalling: IEEE_INVALID_FLAG
Note: The following floating-point exceptions are signalling: IEEE_INVALID_FLAG
Note: The following floating-point exceptions are signalling: IEEE_INVALID_FLAG
Note: The following floating-point exceptions are signalling: IEEE_INVALID_FLAG
Note: The following floating-point exceptions are signalling: IEEE_INVALID_FLAG
Note: The following floating-point exceptions are signalling: IEEE_INVALID_FLAG
Note: The following floating-point exceptions are signalling: IEEE_INVALID_FLAG
Note: The following floating-point exceptions are signalling: IEEE_INVALID_FLAG
Note: The following floating-point exceptions are signalling: IEEE_INVALID_FLAG
Note: The following floating-point exceptions are signalling: IEEE_INVALID_FLAG
Note: The following floating-point exceptions are signalling: IEEE_INVALID_FLAG
Note: The following floating-point exceptions are signalling: IEEE_INVALID_FLAG
Note: The following floating-point exceptions are signalling: IEEE_INVALID_FLAG
Note: The following floating-point exceptions are signalling: IEEE_INVALID_FLAG
Note: The following floating-point exceptions are signalling: IEEE_INVALID_FLAG
Note: The following floating-point exceptions are signalling: IEEE_INVALID_FLAG
Note: The following floating-point exceptions are signalling: IEEE_INVALID_FLAG
Note: The following floating-point exceptions are signalling: IEEE_INVALID_FLAG
Note: The following floating-point exceptions are signalling: IEEE_INVALID_FLAG