     Program PWSCF v.7.2 starts on 23Aug2025 at 15: 0:58

     Reading input from /home/jvc/QEspresso7.2/ZnO_database/scripts/cell221.in/ZnO-2.94-1.55-221.in
Warning: card &CELL ignored
Warning: card / ignored
Warning: card &FCP ignored
Warning: card / ignored
Warning: card &RISM ignored
Warning: card / ignored

     Current dimensions of program PWSCF are:
     Max number of different atomic species (ntypx) = 10
     Max number of k-points (npk) =  40000
     Max angular momentum in pseudopotentials (lmaxx) =  4
     file Zn.upf: wavefunction(s)  3D renormalized
     Found identity + ( -0.0000 -0.5000  0.0000) symmetry
     This is a supercell, fractional translations are disabled
     Message from routine setup:
     using ibrav=0 with symmetry is DISCOURAGED, use correct ibrav instead

     K-points division:     npool     =       8
     band groups division:  nbgrp     =       4
     Subspace diagonalization in iterative solution of the eigenvalue problem:
     a serial algorithm will be used

     Using Slab Decomposition

     bravais-lattice index     =            0
     lattice parameter (alat)  =      11.1219  a.u.
     unit-cell volume          =     923.2368 (a.u.)^3
     number of atoms/cell      =           16
     number of atomic types    =            2
     number of electrons       =       144.00
     number of Kohn-Sham states=           72
     kinetic-energy cutoff     =      50.0000  Ry
     charge density cutoff     =     400.0000  Ry
     scf convergence threshold =      1.0E-08
     mixing beta               =       0.3000
     number of iterations used =            8  plain     mixing
     Exchange-correlation= PBE
                           (   1   4   3   4   0   0   0)

     celldm(1)=  11.121937  celldm(2)=   0.000000  celldm(3)=   0.000000
     celldm(4)=   0.000000  celldm(5)=   0.000000  celldm(6)=   0.000000

     crystal axes: (cart. coord. in units of alat)
               a(1) = (   1.000000   0.000000   0.000000 )
               a(2) = (  -0.500000   0.866025   0.000000 )
               a(3) = (   0.000000   0.000000   0.774892 )

     reciprocal axes: (cart. coord. in units 2 pi/alat)
               b(1) = (  1.000000  0.577350 -0.000000 )
               b(2) = (  0.000000  1.154701  0.000000 )
               b(3) = (  0.000000 -0.000000  1.290502 )

     PseudoPot. # 1 for Zn read from file:
     /home/jvc/QEspresso7.2/ZnO_database/pseudos/Zn.upf
     MD5 check sum: 7f56cabf9682ed8c977c2f7d0c5985c5
     Pseudo is Ultrasoft + core correction, Zval = 12.0
     Generated using &quot;atomic&quot; code by A. Dal Corso  v.6.2.2
     Using radial grid of 1201 points,  6 beta functions with:
                l(1) =   0
                l(2) =   0
                l(3) =   1
                l(4) =   1
                l(5) =   2
                l(6) =   2
     Q(r) pseudized with 0 coefficients

     PseudoPot. # 2 for O  read from file:
     /home/jvc/QEspresso7.2/ZnO_database/pseudos/O.upf
     MD5 check sum: 91400c9766925bcf19f520983a725ff0
     Pseudo is Ultrasoft + core correction, Zval =  6.0
     Generated using &quot;atomic&quot; code by A. Dal Corso  v.6.3MaX
     Using radial grid of 1095 points,  4 beta functions with:
                l(1) =   0
                l(2) =   0
                l(3) =   1
                l(4) =   1
     Q(r) pseudized with 0 coefficients

     atomic species   valence    mass     pseudopotential
        Zn            12.00    65.38000     Zn( 1.00)
        O              6.00    15.99900     O ( 1.00)

      6 Sym. Ops. (no inversion) found

                                    s                        frac. trans.

      isym =  1     identity

 cryst.   s( 1) = (     1          0          0      )
                  (     0          1          0      )
                  (     0          0          1      )

 cart.    s( 1) = (  1.0000000  0.0000000  0.0000000 )
                  (  0.0000000  1.0000000  0.0000000 )
                  (  0.0000000  0.0000000  1.0000000 )

      isym =  2     120 deg rotation - cryst. axis [0,0,1]

[...]

      isym =  3     120 deg rotation - cryst. axis [0,0,-1]

[...]

      isym =  4     inv. 180 deg rotation - cart. axis [1,0,0]

[...]

      isym =  5     inv. 180 deg rotation - cryst. axis [0,1,0]

[...]

      isym =  6     inv. 180 deg rotation - cryst. axis [1,1,0]

 cryst.   s( 6) = (     0         -1          0      )
                  (    -1          0          0      )
                  (     0          0          1      )

 cart.    s( 6) = (  0.5000000 -0.8660254  0.0000000 )
                  ( -0.8660254 -0.5000000  0.0000000 )
                  (  0.0000000  0.0000000  1.0000000 )

   Cartesian axes

     site n.     atom                  positions (alat units)
         1           Zn  tau(   1) = (   0.2500000   0.1443376   0.3879370  )
         2           Zn  tau(   2) = (  -0.0000000   0.2886751   0.0004910  )
         3           O   tau(   3) = (   0.2500000   0.1443376   0.6816542  )
         4           O   tau(   4) = (  -0.0000000   0.2886751   0.2942082  )
         5           Zn  tau(   5) = (   0.0000000   0.5773503   0.3879370  )
         6           Zn  tau(   6) = (  -0.2500000   0.7216878   0.0004910  )
         7           O   tau(   7) = (   0.0000000   0.5773503   0.6816542  )
         8           O   tau(   8) = (  -0.2500000   0.7216878   0.2942082  )
         9           Zn  tau(   9) = (   0.7500000   0.1443376   0.3879370  )
        10           Zn  tau(  10) = (   0.5000000   0.2886751   0.0004910  )
        11           O   tau(  11) = (   0.7500000   0.1443376   0.6816542  )
        12           O   tau(  12) = (   0.5000000   0.2886751   0.2942082  )
        13           Zn  tau(  13) = (   0.5000000   0.5773503   0.3879370  )
        14           Zn  tau(  14) = (   0.2500000   0.7216878   0.0004910  )
        15           O   tau(  15) = (   0.5000000   0.5773503   0.6816542  )
        16           O   tau(  16) = (   0.2500000   0.7216878   0.2942082  )

   Crystallographic axes

     site n.     atom                  positions (cryst. coord.)
         1           Zn  tau(   1) = (  0.3333333  0.1666667  0.5006336  )
         2           Zn  tau(   2) = (  0.1666667  0.3333333  0.0006336  )
         3           O   tau(   3) = (  0.3333333  0.1666667  0.8796764  )
         4           O   tau(   4) = (  0.1666667  0.3333333  0.3796764  )
         5           Zn  tau(   5) = (  0.3333333  0.6666667  0.5006336  )
         6           Zn  tau(   6) = (  0.1666667  0.8333333  0.0006336  )
         7           O   tau(   7) = (  0.3333333  0.6666667  0.8796764  )
         8           O   tau(   8) = (  0.1666667  0.8333333  0.3796764  )
         9           Zn  tau(   9) = (  0.8333333  0.1666667  0.5006336  )
        10           Zn  tau(  10) = (  0.6666667  0.3333333  0.0006336  )
        11           O   tau(  11) = (  0.8333333  0.1666667  0.8796764  )
        12           O   tau(  12) = (  0.6666667  0.3333333  0.3796764  )
        13           Zn  tau(  13) = (  0.8333333  0.6666667  0.5006336  )
        14           Zn  tau(  14) = (  0.6666667  0.8333333  0.0006336  )
        15           O   tau(  15) = (  0.8333333  0.6666667  0.8796764  )
        16           O   tau(  16) = (  0.6666667  0.8333333  0.3796764  )

     number of k points=    34
                       cart. coord. in units 2pi/alat
        k(    1) = (   0.0000000   0.0000000   0.0000000), wk =   0.0092593
        k(    2) = (   0.0000000   0.0000000   0.2150837), wk =   0.0185185
        k(    3) = (   0.0000000   0.0000000   0.4301675), wk =   0.0185185
        k(    4) = (   0.0000000   0.0000000  -0.6452512), wk =   0.0092593
        k(    5) = (   0.0000000   0.1924501   0.0000000), wk =   0.0555556
        k(    6) = (   0.0000000   0.1924501   0.2150837), wk =   0.0555556
        k(    7) = (   0.0000000   0.1924501   0.4301675), wk =   0.0555556
        k(    8) = (   0.0000000   0.1924501  -0.6452512), wk =   0.0555556
        k(    9) = (   0.0000000   0.3849002   0.0000000), wk =   0.0555556
        k(   10) = (   0.0000000   0.3849002   0.2150837), wk =   0.0555556
        k(   11) = (   0.0000000   0.3849002   0.4301675), wk =   0.0555556
        k(   12) = (   0.0000000   0.3849002  -0.6452512), wk =   0.0555556
        k(   13) = (   0.0000000  -0.5773503   0.0000000), wk =   0.0277778
        k(   14) = (   0.0000000  -0.5773503   0.2150837), wk =   0.0555556
        k(   15) = (   0.0000000  -0.5773503   0.4301675), wk =   0.0555556
        k(   16) = (   0.0000000  -0.5773503  -0.6452512), wk =   0.0277778
        k(   17) = (   0.1666667   0.2886751   0.0000000), wk =   0.0555556
        k(   18) = (   0.1666667   0.2886751   0.2150837), wk =   0.1111111
        k(   19) = (   0.1666667   0.2886751   0.4301675), wk =   0.1111111
        k(   20) = (   0.1666667   0.2886751  -0.6452512), wk =   0.0555556
        k(   21) = (   0.1666667   0.4811252   0.0000000), wk =   0.1111111
        k(   22) = (   0.1666667   0.4811252   0.2150837), wk =   0.1111111
        k(   23) = (   0.1666667   0.4811252   0.4301675), wk =   0.1111111
        k(   24) = (   0.1666667   0.4811252  -0.6452512), wk =   0.1111111
        k(   25) = (   0.3333333   0.5773503   0.0000000), wk =   0.0185185
        k(   26) = (   0.3333333   0.5773503   0.2150837), wk =   0.0370370
        k(   27) = (   0.3333333   0.5773503   0.4301675), wk =   0.0370370
        k(   28) = (   0.3333333   0.5773503  -0.6452512), wk =   0.0185185
        k(   29) = (   0.0000000  -0.1924501   0.2150837), wk =   0.0555556
        k(   30) = (   0.0000000  -0.1924501   0.4301675), wk =   0.0555556
        k(   31) = (   0.0000000  -0.3849002   0.2150837), wk =   0.0555556
        k(   32) = (   0.0000000  -0.3849002   0.4301675), wk =   0.0555556
        k(   33) = (  -0.1666667  -0.4811252   0.2150837), wk =   0.1111111
        k(   34) = (  -0.1666667  -0.4811252   0.4301675), wk =   0.1111111

                       cryst. coord.
        k(    1) = (   0.0000000   0.0000000   0.0000000), wk =   0.0092593
        k(    2) = (   0.0000000   0.0000000   0.1666667), wk =   0.0185185
        k(    3) = (   0.0000000   0.0000000   0.3333333), wk =   0.0185185
        k(    4) = (   0.0000000   0.0000000  -0.5000000), wk =   0.0092593
        k(    5) = (   0.0000000   0.1666667   0.0000000), wk =   0.0555556
        k(    6) = (   0.0000000   0.1666667   0.1666667), wk =   0.0555556
        k(    7) = (   0.0000000   0.1666667   0.3333333), wk =   0.0555556
        k(    8) = (   0.0000000   0.1666667  -0.5000000), wk =   0.0555556
        k(    9) = (   0.0000000   0.3333333   0.0000000), wk =   0.0555556
        k(   10) = (   0.0000000   0.3333333   0.1666667), wk =   0.0555556
        k(   11) = (   0.0000000   0.3333333   0.3333333), wk =   0.0555556
        k(   12) = (   0.0000000   0.3333333  -0.5000000), wk =   0.0555556
        k(   13) = (   0.0000000  -0.5000000   0.0000000), wk =   0.0277778
        k(   14) = (   0.0000000  -0.5000000   0.1666667), wk =   0.0555556
        k(   15) = (   0.0000000  -0.5000000   0.3333333), wk =   0.0555556
[...]
        k(   25) = (   0.3333333   0.3333333   0.0000000), wk =   0.0185185
        k(   26) = (   0.3333333   0.3333333   0.1666667), wk =   0.0370370
        k(   27) = (   0.3333333   0.3333333   0.3333333), wk =   0.0370370
        k(   28) = (   0.3333333   0.3333333  -0.5000000), wk =   0.0185185
        k(   29) = (   0.0000000  -0.1666667   0.1666667), wk =   0.0555556
        k(   30) = (   0.0000000  -0.1666667   0.3333333), wk =   0.0555556
        k(   31) = (   0.0000000  -0.3333333   0.1666667), wk =   0.0555556
        k(   32) = (   0.0000000  -0.3333333   0.3333333), wk =   0.0555556
        k(   33) = (  -0.1666667  -0.3333333   0.1666667), wk =   0.1111111
        k(   34) = (  -0.1666667  -0.3333333   0.3333333), wk =   0.1111111

     Check: negative core charge=   -0.000001

     Initial potential from superposition of free atoms

     starting charge     143.9702, renormalised to     144.0000
     Starting wfcs are  104 randomized atomic wfcs

     Self-consistent Calculation

     iteration #  1     ecut=    50.00 Ry     beta= 0.30
     Davidson diagonalization with overlap

     ethr =  1.00E-02,  avg # of iterations =  2.4

     total energy              =   -1444.95506609 Ry
     estimated scf accuracy    <       2.78255546 Ry

[...]

     c_bands:  1 eigenvalues not converged
     c_bands:  1 eigenvalues not converged
     ethr =  9.55E-09,  avg # of iterations = 14.9

[...]

     total energy              =   -1445.45407257 Ry
     estimated scf accuracy    <       0.00000067 Ry

     iteration # 22     ecut=    50.00 Ry     beta= 0.30
     Davidson diagonalization with overlap

     ethr =  2.20E-10,  avg # of iterations =  5.8

     End of self-consistent calculation

          k = 0.0000 0.0000 0.0000 (  5527 PWs)   bands (ev):

    -8.1571  -6.8990  -6.8990  -6.8989  -6.6943  -6.4497  -6.4497  -6.4496
     4.6083   4.6083   4.6083   4.6130   4.6229   4.6229   4.6229   5.2805
     5.2805   5.3701   5.6272   5.6272   5.6604   5.6605   5.6605   5.7966
     5.7966   5.7966   6.3342   6.3342   6.3342   6.5856   6.5856   6.5856
     7.6173   7.6173   7.6690   7.6690   7.6690   7.9923   7.9923   7.9923
     8.1025   8.1025   8.2098   8.2098   8.2098   8.2756   8.2756   8.2756
     8.4594   8.4594   8.4594   8.5591   9.0015   9.0015   9.0015   9.4715
     9.4715   9.4716   9.6174   9.6174   9.6174  11.5236  11.5236  11.5236
    11.8873  11.8873  11.9925  11.9925  11.9925  13.1542  13.2702  13.2702

     occupation numbers
     1.0000   1.0000   1.0000   1.0000   1.0000   1.0000   1.0000   1.0000
     1.0000   1.0000   1.0000   1.0000   1.0000   1.0000   1.0000   1.0000
     1.0000   1.0000   1.0000   1.0000   1.0000   1.0000   1.0000   1.0000
     1.0000   1.0000   1.0000   1.0000   1.0000   1.0000   1.0000   1.0000
     1.0000   1.0000   1.0000   1.0000   1.0000   1.0000   1.0000   1.0000
     1.0000   1.0000   1.0000   1.0000   1.0000   1.0000   1.0000   1.0000
     1.0000   1.0000   1.0000   1.0000   1.0000   1.0000   1.0000   1.0000
     1.0000   1.0000   1.0000   1.0000   1.0000   1.0000   1.0000   1.0000
     1.0000   1.0000   1.0000   1.0000   1.0000   1.0000   1.0000   1.0000

[...]

          k = 0.0000-0.3849 0.4302 (  5507 PWs)   bands (ev):

[...]

          k =-0.1667-0.4811 0.2151 (  5497 PWs)   bands (ev):

[...]

          k =-0.1667-0.4811 0.4302 (  5492 PWs)   bands (ev):

    -7.4323  -7.1755  -6.9729  -6.8387  -6.6945  -6.6394  -6.5978  -6.5150
     4.3659   4.4072   4.4718   4.4721   4.4826   4.5809   4.6744   4.7066
     5.3213   5.4723   5.5079   5.5149   5.5436   5.5560   5.5943   5.6306
     5.6399   5.7856   5.8144   5.9788   5.9863   6.1365   6.3252   6.3606
     7.6402   7.6983   7.7001   7.7112   7.7884   7.8046   7.8477   7.9328
     8.0471   8.0654   8.1056   8.1141   8.1525   8.2325   8.3068   8.4793
     8.7313   8.9826   9.2140   9.3065   9.6170   9.8262   9.9081  10.1380
    10.2586  10.3232  10.4713  10.6347  10.7619  10.9199  11.0427  11.1052
    11.4109  11.4694  11.5430  11.9137  11.9842  12.1361  12.2922  12.3296

     occupation numbers
     1.0000   1.0000   1.0000   1.0000   1.0000   1.0000   1.0000   1.0000
     1.0000   1.0000   1.0000   1.0000   1.0000   1.0000   1.0000   1.0000
     1.0000   1.0000   1.0000   1.0000   1.0000   1.0000   1.0000   1.0000
     1.0000   1.0000   1.0000   1.0000   1.0000   1.0000   1.0000   1.0000
     1.0000   1.0000   1.0000   1.0000   1.0000   1.0000   1.0000   1.0000
     1.0000   1.0000   1.0000   1.0000   1.0000   1.0000   1.0000   1.0000
     1.0000   1.0000   1.0000   1.0000   1.0000   1.0000   1.0000   1.0000
     1.0000   1.0000   1.0000   1.0000   1.0000   1.0000   1.0000   1.0000
     1.0000   1.0000   1.0000   1.0000   1.0000   1.0000   1.0000   1.0000

     highest occupied level (ev):    13.2702

!    total energy              =   -1445.45407274 Ry
     estimated scf accuracy    <          1.6E-09 Ry

     The total energy is the sum of the following terms:
     one-electron contribution =    -447.33153247 Ry
     hartree contribution      =     415.50854667 Ry
     xc contribution           =    -441.83649790 Ry
     ewald contribution        =    -971.79458904 Ry

     convergence has been achieved in  22 iterations

     Forces acting on atoms (cartesian axes, Ry/au):

     atom    1 type  1   force =     0.00000165    0.00000096   -0.06010100
     atom    2 type  1   force =     0.00000000    0.00000123   -0.06010216
     atom    3 type  2   force =     0.00000087    0.00000050    0.06009926
     atom    4 type  2   force =     0.00000000    0.00000178    0.06010207
     atom    5 type  1   force =     0.00000000    0.00000000   -0.06009790
     atom    6 type  1   force =     0.00000107   -0.00000062   -0.06010216
     atom    7 type  2   force =     0.00000000   -0.00000000    0.06010048
     atom    8 type  2   force =     0.00000154   -0.00000089    0.06010207
     atom    9 type  1   force =    -0.00000165    0.00000096   -0.06010100
     atom   10 type  1   force =     0.00000000    0.00000000   -0.06010053
     atom   11 type  2   force =    -0.00000087    0.00000050    0.06009926
     atom   12 type  2   force =     0.00000000    0.00000000    0.06010342
     atom   13 type  1   force =     0.00000000   -0.00000191   -0.06010100
     atom   14 type  1   force =    -0.00000107   -0.00000062   -0.06010216
     atom   15 type  2   force =     0.00000000   -0.00000101    0.06009926
     atom   16 type  2   force =    -0.00000154   -0.00000089    0.06010207
     The non-local contrib.  to forces
     atom    1 type  1   force =     0.00000043    0.00000025   -0.14765070
     atom    2 type  1   force =     0.00000000    0.00000143   -0.14764859
     atom    3 type  2   force =     0.00000062    0.00000036   -0.08019499
     atom    4 type  2   force =     0.00000000    0.00000084   -0.08019270
     atom    5 type  1   force =     0.00000000    0.00000000   -0.14764854
     atom    6 type  1   force =     0.00000124   -0.00000071   -0.14764859
     atom    7 type  2   force =     0.00000000   -0.00000000   -0.08019346
     atom    8 type  2   force =     0.00000073   -0.00000042   -0.08019270
     atom    9 type  1   force =    -0.00000043    0.00000025   -0.14765070
     atom   10 type  1   force =     0.00000000    0.00000000   -0.14764922
     atom   11 type  2   force =    -0.00000062    0.00000036   -0.08019499
     atom   12 type  2   force =     0.00000000    0.00000000   -0.08019180
     atom   13 type  1   force =     0.00000000   -0.00000050   -0.14765070
     atom   14 type  1   force =    -0.00000124   -0.00000071   -0.14764859
     atom   15 type  2   force =     0.00000000   -0.00000071   -0.08019499
     atom   16 type  2   force =    -0.00000073   -0.00000042   -0.08019270
     The ionic contribution  to forces
     atom    1 type  1   force =    -0.00000001    0.00000001   -0.98676529
     atom    2 type  1   force =     0.00000001    0.00000001   -0.98676529
     atom    3 type  2   force =    -0.00000001    0.00000001    0.98676529
     atom    4 type  2   force =     0.00000000    0.00000000    0.98676529
     atom    5 type  1   force =     0.00000000   -0.00000000   -0.98676529
     atom    6 type  1   force =    -0.00000000   -0.00000002   -0.98676529
     atom    7 type  2   force =     0.00000000    0.00000000    0.98676529
     atom    8 type  2   force =    -0.00000000   -0.00000001    0.98676529
     atom    9 type  1   force =    -0.00000001    0.00000001   -0.98676529
     atom   10 type  1   force =     0.00000001    0.00000001   -0.98676529
     atom   11 type  2   force =    -0.00000001    0.00000001    0.98676529
     atom   12 type  2   force =     0.00000000    0.00000000    0.98676529
     atom   13 type  1   force =     0.00000000   -0.00000000   -0.98676529
     atom   14 type  1   force =    -0.00000000   -0.00000002   -0.98676529
     atom   15 type  2   force =     0.00000000    0.00000000    0.98676529
     atom   16 type  2   force =    -0.00000000   -0.00000001    0.98676529
     The local contribution  to forces
     atom    1 type  1   force =    -0.00000330   -0.00000182    1.05872180
     atom    2 type  1   force =     0.00000007   -0.00000383    1.05871982
     atom    3 type  2   force =    -0.00000347   -0.00000198   -0.84683637
     atom    4 type  2   force =     0.00000002   -0.00000190   -0.84683322
     atom    5 type  1   force =     0.00000000    0.00000009    1.05871665
     atom    6 type  1   force =    -0.00000335    0.00000185    1.05871982
     atom    7 type  2   force =     0.00000000    0.00000002   -0.84683441
     atom    8 type  2   force =    -0.00000166    0.00000093   -0.84683322
     atom    9 type  1   force =     0.00000330   -0.00000182    1.05872180
     atom   10 type  1   force =     0.00000007    0.00000004    1.05871806
     atom   11 type  2   force =     0.00000347   -0.00000198   -0.84683637
     atom   12 type  2   force =     0.00000002    0.00000001   -0.84683078
     atom   13 type  1   force =    -0.00000000    0.00000390    1.05872180
     atom   14 type  1   force =     0.00000335    0.00000185    1.05871982
     atom   15 type  2   force =     0.00000000    0.00000403   -0.84683637
     atom   16 type  2   force =     0.00000166    0.00000093   -0.84683322
     The core correction contribution to forces
     atom    1 type  1   force =     0.00000008    0.00000006    0.01559242
     atom    2 type  1   force =     0.00000001    0.00000006    0.01559246
     atom    3 type  2   force =    -0.00000002   -0.00000001    0.00036757
     atom    4 type  2   force =    -0.00000000   -0.00000001    0.00036756
     atom    5 type  1   force =    -0.00000000    0.00000001    0.01559244
     atom    6 type  1   force =     0.00000005   -0.00000004    0.01559246
     atom    7 type  2   force =    -0.00000000   -0.00000000    0.00036756
     atom    8 type  2   force =    -0.00000001    0.00000000    0.00036756
     atom    9 type  1   force =    -0.00000008    0.00000006    0.01559242
     atom   10 type  1   force =     0.00000001    0.00000001    0.01559254
     atom   11 type  2   force =     0.00000002   -0.00000001    0.00036757
     atom   12 type  2   force =    -0.00000000   -0.00000000    0.00036756
     atom   13 type  1   force =    -0.00000000   -0.00000008    0.01559242
     atom   14 type  1   force =    -0.00000005   -0.00000004    0.01559246
     atom   15 type  2   force =    -0.00000000    0.00000002    0.00036757
     atom   16 type  2   force =     0.00000001    0.00000000    0.00036756
     The Hubbard contrib.    to forces
     atom    1 type  1   force =     0.00000000    0.00000000    0.00000000
     atom    2 type  1   force =     0.00000000    0.00000000    0.00000000
     atom    3 type  2   force =     0.00000000    0.00000000    0.00000000
     atom    4 type  2   force =     0.00000000    0.00000000    0.00000000
     atom    5 type  1   force =     0.00000000    0.00000000    0.00000000
     atom    6 type  1   force =     0.00000000    0.00000000    0.00000000
     atom    7 type  2   force =     0.00000000    0.00000000    0.00000000
     atom    8 type  2   force =     0.00000000    0.00000000    0.00000000
     atom    9 type  1   force =     0.00000000    0.00000000    0.00000000
     atom   10 type  1   force =     0.00000000    0.00000000    0.00000000
     atom   11 type  2   force =     0.00000000    0.00000000    0.00000000
     atom   12 type  2   force =     0.00000000    0.00000000    0.00000000
     atom   13 type  1   force =     0.00000000    0.00000000    0.00000000
     atom   14 type  1   force =     0.00000000    0.00000000    0.00000000
     atom   15 type  2   force =     0.00000000    0.00000000    0.00000000
     atom   16 type  2   force =     0.00000000    0.00000000    0.00000000
     The SCF correction term to forces
     atom    1 type  1   force =     0.00000444    0.00000256    0.00000154
     atom    2 type  1   force =    -0.00000000    0.00000356    0.00000021
     atom    3 type  2   force =     0.00000373    0.00000216   -0.00000146
     atom    4 type  2   force =    -0.00000000    0.00000285   -0.00000409
     atom    5 type  1   force =    -0.00000000   -0.00000000    0.00000761
     atom    6 type  1   force =     0.00000308   -0.00000178    0.00000021
     atom    7 type  2   force =    -0.00000000   -0.00000000   -0.00000373
     atom    8 type  2   force =     0.00000247   -0.00000142   -0.00000409
     atom    9 type  1   force =    -0.00000444    0.00000256    0.00000154
     atom   10 type  1   force =    -0.00000000   -0.00000000    0.00000415
     atom   11 type  2   force =    -0.00000373    0.00000216   -0.00000146
     atom   12 type  2   force =    -0.00000000   -0.00000000   -0.00000607
     atom   13 type  1   force =    -0.00000000   -0.00000513    0.00000154
     atom   14 type  1   force =    -0.00000308   -0.00000178    0.00000021
     atom   15 type  2   force =    -0.00000000   -0.00000431   -0.00000146
     atom   16 type  2   force =    -0.00000247   -0.00000142   -0.00000409

     Total force =     0.240404     Total SCF correction =     0.000020

     General routines

     Parallel routines

   This run was terminated on:  15: 5: 7  23Aug2025

   JOB DONE.
Note: The following floating-point exceptions are signalling: IEEE_INVALID_FLAG
Note: The following floating-point exceptions are signalling: IEEE_INVALID_FLAG
Note: The following floating-point exceptions are signalling: IEEE_INVALID_FLAG
Note: The following floating-point exceptions are signalling: IEEE_INVALID_FLAG
Note: The following floating-point exceptions are signalling: IEEE_INVALID_FLAG
Note: The following floating-point exceptions are signalling: IEEE_INVALID_FLAG
Note: The following floating-point exceptions are signalling: IEEE_INVALID_FLAG
Note: The following floating-point exceptions are signalling: IEEE_INVALID_FLAG
Note: The following floating-point exceptions are signalling: IEEE_INVALID_FLAG
Note: The following floating-point exceptions are signalling: IEEE_INVALID_FLAG
Note: The following floating-point exceptions are signalling: IEEE_INVALID_FLAG
Note: The following floating-point exceptions are signalling: IEEE_INVALID_FLAG
Note: The following floating-point exceptions are signalling: IEEE_INVALID_FLAG
Note: The following floating-point exceptions are signalling: IEEE_INVALID_FLAG
Note: The following floating-point exceptions are signalling: IEEE_INVALID_FLAG
Note: The following floating-point exceptions are signalling: IEEE_INVALID_FLAG
Note: The following floating-point exceptions are signalling: IEEE_INVALID_FLAG
Note: The following floating-point exceptions are signalling: IEEE_INVALID_FLAG
Note: The following floating-point exceptions are signalling: IEEE_INVALID_FLAG
Note: The following floating-point exceptions are signalling: IEEE_INVALID_FLAG
Note: The following floating-point exceptions are signalling: IEEE_INVALID_FLAG
Note: The following floating-point exceptions are signalling: IEEE_INVALID_FLAG
Note: The following floating-point exceptions are signalling: IEEE_INVALID_FLAG
Note: The following floating-point exceptions are signalling: IEEE_INVALID_FLAG
Note: The following floating-point exceptions are signalling: IEEE_INVALID_FLAG
Note: The following floating-point exceptions are signalling: IEEE_INVALID_FLAG
Note: The following floating-point exceptions are signalling: IEEE_INVALID_FLAG
Note: The following floating-point exceptions are signalling: IEEE_INVALID_FLAG
Note: The following floating-point exceptions are signalling: IEEE_INVALID_FLAG
Note: The following floating-point exceptions are signalling: IEEE_INVALID_FLAG
Note: The following floating-point exceptions are signalling: IEEE_INVALID_FLAG
Note: The following floating-point exceptions are signalling: IEEE_INVALID_FLAG