     Program PWSCF v.7.2 starts on 23Aug2025 at 17:35:49

     Reading input from /home/jvc/QEspresso7.2/ZnO_database/scripts/cell221.in/ZnO-3.14-1.55-221.in
Warning: card &CELL ignored
Warning: card / ignored
Warning: card &FCP ignored
Warning: card / ignored
Warning: card &RISM ignored
Warning: card / ignored

     Current dimensions of program PWSCF are:
     Max number of different atomic species (ntypx) = 10
     Max number of k-points (npk) =  40000
     Max angular momentum in pseudopotentials (lmaxx) =  4
     file Zn.upf: wavefunction(s)  3D renormalized
     Found identity + (  0.0000 -0.5000  0.0000) symmetry
     This is a supercell, fractional translations are disabled
     Message from routine setup:
     using ibrav=0 with symmetry is DISCOURAGED, use correct ibrav instead

     K-points division:     npool     =       8
     band groups division:  nbgrp     =       4
     Subspace diagonalization in iterative solution of the eigenvalue problem:
     a serial algorithm will be used

     Using Slab Decomposition

     bravais-lattice index     =            0
     lattice parameter (alat)  =      11.8634  a.u.
     unit-cell volume          =    1120.4676 (a.u.)^3
     number of atoms/cell      =           16
     number of atomic types    =            2
     number of electrons       =       144.00
     number of Kohn-Sham states=           72
     kinetic-energy cutoff     =      50.0000  Ry
     charge density cutoff     =     400.0000  Ry
     scf convergence threshold =      1.0E-08
     mixing beta               =       0.3000
     number of iterations used =            8  plain     mixing
     Exchange-correlation= PBE
                           (   1   4   3   4   0   0   0)

     celldm(1)=  11.863400  celldm(2)=   0.000000  celldm(3)=   0.000000
     celldm(4)=   0.000000  celldm(5)=   0.000000  celldm(6)=   0.000000

     crystal axes: (cart. coord. in units of alat)
               a(1) = (   1.000000   0.000000   0.000000 )
               a(2) = (  -0.500000   0.866025   0.000000 )
               a(3) = (   0.000000   0.000000   0.774892 )

     reciprocal axes: (cart. coord. in units 2 pi/alat)
               b(1) = (  1.000000  0.577350 -0.000000 )
               b(2) = (  0.000000  1.154701  0.000000 )
               b(3) = (  0.000000 -0.000000  1.290502 )

     PseudoPot. # 1 for Zn read from file:
     /home/jvc/QEspresso7.2/ZnO_database/pseudos/Zn.upf
     MD5 check sum: 7f56cabf9682ed8c977c2f7d0c5985c5
     Pseudo is Ultrasoft + core correction, Zval = 12.0
     Generated using &quot;atomic&quot; code by A. Dal Corso  v.6.2.2
     Using radial grid of 1201 points,  6 beta functions with:
                l(1) =   0
                l(2) =   0
                l(3) =   1
                l(4) =   1
                l(5) =   2
                l(6) =   2
     Q(r) pseudized with 0 coefficients

     PseudoPot. # 2 for O  read from file:
     /home/jvc/QEspresso7.2/ZnO_database/pseudos/O.upf
     MD5 check sum: 91400c9766925bcf19f520983a725ff0
     Pseudo is Ultrasoft + core correction, Zval =  6.0
     Generated using &quot;atomic&quot; code by A. Dal Corso  v.6.3MaX
     Using radial grid of 1095 points,  4 beta functions with:
                l(1) =   0
                l(2) =   0
                l(3) =   1
                l(4) =   1
     Q(r) pseudized with 0 coefficients

     atomic species   valence    mass     pseudopotential
        Zn            12.00    65.38000     Zn( 1.00)
        O              6.00    15.99900     O ( 1.00)

      6 Sym. Ops. (no inversion) found

                                    s                        frac. trans.

      isym =  1     identity

 cryst.   s( 1) = (     1          0          0      )
                  (     0          1          0      )
                  (     0          0          1      )

 cart.    s( 1) = (  1.0000000  0.0000000  0.0000000 )
                  (  0.0000000  1.0000000  0.0000000 )
                  (  0.0000000  0.0000000  1.0000000 )

      isym =  2     120 deg rotation - cryst. axis [0,0,1]

[...]

      isym =  3     120 deg rotation - cryst. axis [0,0,-1]

[...]

      isym =  4     inv. 180 deg rotation - cart. axis [1,0,0]

[...]

      isym =  5     inv. 180 deg rotation - cryst. axis [0,1,0]

[...]

      isym =  6     inv. 180 deg rotation - cryst. axis [1,1,0]

 cryst.   s( 6) = (     0         -1          0      )
                  (    -1          0          0      )
                  (     0          0          1      )

 cart.    s( 6) = (  0.5000000 -0.8660254  0.0000000 )
                  ( -0.8660254 -0.5000000  0.0000000 )
                  (  0.0000000  0.0000000  1.0000000 )

   Cartesian axes

     site n.     atom                  positions (alat units)
         1           Zn  tau(   1) = (   0.2500000   0.1443376   0.3879370  )
         2           Zn  tau(   2) = (  -0.0000000   0.2886751   0.0004910  )
         3           O   tau(   3) = (   0.2500000   0.1443376   0.6816542  )
         4           O   tau(   4) = (  -0.0000000   0.2886751   0.2942082  )
         5           Zn  tau(   5) = (  -0.0000000   0.5773503   0.3879370  )
         6           Zn  tau(   6) = (  -0.2500000   0.7216878   0.0004910  )
         7           O   tau(   7) = (  -0.0000000   0.5773503   0.6816542  )
         8           O   tau(   8) = (  -0.2500000   0.7216878   0.2942082  )
         9           Zn  tau(   9) = (   0.7500000   0.1443376   0.3879370  )
        10           Zn  tau(  10) = (   0.5000000   0.2886751   0.0004910  )
        11           O   tau(  11) = (   0.7500000   0.1443376   0.6816542  )
        12           O   tau(  12) = (   0.5000000   0.2886751   0.2942082  )
        13           Zn  tau(  13) = (   0.5000000   0.5773503   0.3879370  )
        14           Zn  tau(  14) = (   0.2500000   0.7216878   0.0004910  )
        15           O   tau(  15) = (   0.5000000   0.5773503   0.6816542  )
        16           O   tau(  16) = (   0.2500000   0.7216878   0.2942082  )

   Crystallographic axes

     site n.     atom                  positions (cryst. coord.)
         1           Zn  tau(   1) = (  0.3333333  0.1666667  0.5006336  )
         2           Zn  tau(   2) = (  0.1666667  0.3333333  0.0006336  )
         3           O   tau(   3) = (  0.3333333  0.1666667  0.8796764  )
         4           O   tau(   4) = (  0.1666667  0.3333333  0.3796764  )
         5           Zn  tau(   5) = (  0.3333333  0.6666667  0.5006336  )
         6           Zn  tau(   6) = (  0.1666667  0.8333333  0.0006336  )
         7           O   tau(   7) = (  0.3333333  0.6666667  0.8796764  )
         8           O   tau(   8) = (  0.1666667  0.8333333  0.3796764  )
         9           Zn  tau(   9) = (  0.8333333  0.1666667  0.5006336  )
        10           Zn  tau(  10) = (  0.6666667  0.3333333  0.0006336  )
        11           O   tau(  11) = (  0.8333333  0.1666667  0.8796764  )
        12           O   tau(  12) = (  0.6666667  0.3333333  0.3796764  )
        13           Zn  tau(  13) = (  0.8333333  0.6666667  0.5006336  )
        14           Zn  tau(  14) = (  0.6666667  0.8333333  0.0006336  )
        15           O   tau(  15) = (  0.8333333  0.6666667  0.8796764  )
        16           O   tau(  16) = (  0.6666667  0.8333333  0.3796764  )

     number of k points=    34
                       cart. coord. in units 2pi/alat
        k(    1) = (   0.0000000   0.0000000   0.0000000), wk =   0.0092593
        k(    2) = (   0.0000000   0.0000000   0.2150837), wk =   0.0185185
        k(    3) = (   0.0000000   0.0000000   0.4301675), wk =   0.0185185
        k(    4) = (   0.0000000   0.0000000  -0.6452512), wk =   0.0092593
        k(    5) = (   0.0000000   0.1924501   0.0000000), wk =   0.0555556
        k(    6) = (   0.0000000   0.1924501   0.2150837), wk =   0.0555556
        k(    7) = (   0.0000000   0.1924501   0.4301675), wk =   0.0555556
        k(    8) = (   0.0000000   0.1924501  -0.6452512), wk =   0.0555556
        k(    9) = (   0.0000000   0.3849002   0.0000000), wk =   0.0555556
        k(   10) = (   0.0000000   0.3849002   0.2150837), wk =   0.0555556
        k(   11) = (   0.0000000   0.3849002   0.4301675), wk =   0.0555556
        k(   12) = (   0.0000000   0.3849002  -0.6452512), wk =   0.0555556
        k(   13) = (   0.0000000  -0.5773503   0.0000000), wk =   0.0277778
        k(   14) = (   0.0000000  -0.5773503   0.2150837), wk =   0.0555556
        k(   15) = (   0.0000000  -0.5773503   0.4301675), wk =   0.0555556
        k(   16) = (   0.0000000  -0.5773503  -0.6452512), wk =   0.0277778
        k(   17) = (   0.1666667   0.2886751   0.0000000), wk =   0.0555556
        k(   18) = (   0.1666667   0.2886751   0.2150837), wk =   0.1111111
        k(   19) = (   0.1666667   0.2886751   0.4301675), wk =   0.1111111
        k(   20) = (   0.1666667   0.2886751  -0.6452512), wk =   0.0555556
        k(   21) = (   0.1666667   0.4811252   0.0000000), wk =   0.1111111
        k(   22) = (   0.1666667   0.4811252   0.2150837), wk =   0.1111111
        k(   23) = (   0.1666667   0.4811252   0.4301675), wk =   0.1111111
        k(   24) = (   0.1666667   0.4811252  -0.6452512), wk =   0.1111111
        k(   25) = (   0.3333333   0.5773503   0.0000000), wk =   0.0185185
        k(   26) = (   0.3333333   0.5773503   0.2150837), wk =   0.0370370
        k(   27) = (   0.3333333   0.5773503   0.4301675), wk =   0.0370370
        k(   28) = (   0.3333333   0.5773503  -0.6452512), wk =   0.0185185
        k(   29) = (   0.0000000  -0.1924501   0.2150837), wk =   0.0555556
        k(   30) = (   0.0000000  -0.1924501   0.4301675), wk =   0.0555556
        k(   31) = (   0.0000000  -0.3849002   0.2150837), wk =   0.0555556
        k(   32) = (   0.0000000  -0.3849002   0.4301675), wk =   0.0555556
        k(   33) = (  -0.1666667  -0.4811252   0.2150837), wk =   0.1111111
        k(   34) = (  -0.1666667  -0.4811252   0.4301675), wk =   0.1111111

                       cryst. coord.
        k(    1) = (   0.0000000   0.0000000   0.0000000), wk =   0.0092593
        k(    2) = (   0.0000000   0.0000000   0.1666667), wk =   0.0185185
        k(    3) = (   0.0000000   0.0000000   0.3333333), wk =   0.0185185
        k(    4) = (   0.0000000   0.0000000  -0.5000000), wk =   0.0092593
        k(    5) = (   0.0000000   0.1666667   0.0000000), wk =   0.0555556
        k(    6) = (   0.0000000   0.1666667   0.1666667), wk =   0.0555556
        k(    7) = (   0.0000000   0.1666667   0.3333333), wk =   0.0555556
        k(    8) = (   0.0000000   0.1666667  -0.5000000), wk =   0.0555556
        k(    9) = (   0.0000000   0.3333333   0.0000000), wk =   0.0555556
        k(   10) = (   0.0000000   0.3333333   0.1666667), wk =   0.0555556
        k(   11) = (   0.0000000   0.3333333   0.3333333), wk =   0.0555556
        k(   12) = (   0.0000000   0.3333333  -0.5000000), wk =   0.0555556
        k(   13) = (   0.0000000  -0.5000000   0.0000000), wk =   0.0277778
        k(   14) = (   0.0000000  -0.5000000   0.1666667), wk =   0.0555556
        k(   15) = (   0.0000000  -0.5000000   0.3333333), wk =   0.0555556
[...]
        k(   23) = (   0.1666667   0.3333333   0.3333333), wk =   0.1111111
        k(   24) = (   0.1666667   0.3333333  -0.5000000), wk =   0.1111111
        k(   25) = (   0.3333333   0.3333333   0.0000000), wk =   0.0185185
        k(   26) = (   0.3333333   0.3333333   0.1666667), wk =   0.0370370
        k(   27) = (   0.3333333   0.3333333   0.3333333), wk =   0.0370370
        k(   28) = (   0.3333333   0.3333333  -0.5000000), wk =   0.0185185
        k(   29) = (   0.0000000  -0.1666667   0.1666667), wk =   0.0555556
        k(   30) = (   0.0000000  -0.1666667   0.3333333), wk =   0.0555556
        k(   31) = (   0.0000000  -0.3333333   0.1666667), wk =   0.0555556
        k(   32) = (   0.0000000  -0.3333333   0.3333333), wk =   0.0555556
        k(   33) = (  -0.1666667  -0.3333333   0.1666667), wk =   0.1111111
        k(   34) = (  -0.1666667  -0.3333333   0.3333333), wk =   0.1111111

     Check: negative core charge=   -0.000002

     Initial potential from superposition of free atoms

     starting charge     143.9702, renormalised to     144.0000
     Starting wfcs are  104 randomized atomic wfcs

     Self-consistent Calculation

     iteration #  1     ecut=    50.00 Ry     beta= 0.30
     Davidson diagonalization with overlap

     ethr =  1.00E-02,  avg # of iterations =  2.0

     total energy              =   -1445.76462105 Ry
     estimated scf accuracy    <       2.70304082 Ry

[...]

     total energy              =   -1446.33036392 Ry
     estimated scf accuracy    <       0.00000003 Ry

     iteration # 30     ecut=    50.00 Ry     beta= 0.30
     Davidson diagonalization with overlap

     ethr =  1.16E-11,  avg # of iterations =  2.0

     End of self-consistent calculation

          k = 0.0000 0.0000 0.0000 (  6663 PWs)   bands (ev):

    -9.8099  -8.9288  -8.9288  -8.9288  -8.7785  -8.6108  -8.6108  -8.6108
     2.6363   2.6363   2.6363   2.7634   2.7634   2.7634   2.7925   3.0492
     3.0492   3.0946   3.3159   3.3159   3.3381   3.3381   3.3381   3.5793
     3.5793   3.5793   3.8328   3.8328   3.8328   4.0657   4.0657   4.0657
     4.6449   4.6449   4.6894   4.6894   4.6894   4.8919   4.8919   4.8919
     4.9684   4.9684   5.0367   5.0367   5.0367   5.1115   5.1115   5.1115
     5.2734   5.5493   5.5493   5.5493   5.6595   5.6595   5.6595   6.2926
     6.2927   6.2927   6.6127   6.6127   6.6127   8.0496   8.0496   8.0496
     8.3982   8.3982   8.5144   8.5144   8.5144   9.4386   9.4747   9.4747

     occupation numbers
     1.0000   1.0000   1.0000   1.0000   1.0000   1.0000   1.0000   1.0000
     1.0000   1.0000   1.0000   1.0000   1.0000   1.0000   1.0000   1.0000
     1.0000   1.0000   1.0000   1.0000   1.0000   1.0000   1.0000   1.0000
     1.0000   1.0000   1.0000   1.0000   1.0000   1.0000   1.0000   1.0000
     1.0000   1.0000   1.0000   1.0000   1.0000   1.0000   1.0000   1.0000
     1.0000   1.0000   1.0000   1.0000   1.0000   1.0000   1.0000   1.0000
     1.0000   1.0000   1.0000   1.0000   1.0000   1.0000   1.0000   1.0000
     1.0000   1.0000   1.0000   1.0000   1.0000   1.0000   1.0000   1.0000
     1.0000   1.0000   1.0000   1.0000   1.0000   1.0000   1.0000   1.0000

[...]

          k = 0.0000-0.3849 0.4302 (  6688 PWs)   bands (ev):

[...]

          k =-0.1667-0.4811 0.2151 (  6688 PWs)   bands (ev):

[...]

          k =-0.1667-0.4811 0.4302 (  6685 PWs)   bands (ev):

    -9.2969  -9.1189  -8.9793  -8.8811  -8.7831  -8.7502  -8.7179  -8.6632
     2.4404   2.4861   2.5342   2.5432   2.5690   2.5784   2.7055   2.7519
     3.1637   3.2078   3.2407   3.2872   3.2971   3.3413   3.3428   3.3476
     3.3912   3.4417   3.4771   3.5923   3.5955   3.7085   3.8470   3.8768
     4.6841   4.7159   4.7167   4.7188   4.7603   4.7802   4.7998   4.8541
     4.9296   4.9421   4.9769   4.9778   5.0180   5.0838   5.1394   5.2828
     5.5015   5.7639   5.9335   6.1218   6.2187   6.4347   6.4379   6.7495
     7.0327   7.1448   7.2404   7.2752   7.3494   7.5774   7.6125   7.7113
     7.9836   8.0407   8.1403   8.4051   8.4880   8.6013   8.7108   8.7531

     occupation numbers
     1.0000   1.0000   1.0000   1.0000   1.0000   1.0000   1.0000   1.0000
     1.0000   1.0000   1.0000   1.0000   1.0000   1.0000   1.0000   1.0000
     1.0000   1.0000   1.0000   1.0000   1.0000   1.0000   1.0000   1.0000
     1.0000   1.0000   1.0000   1.0000   1.0000   1.0000   1.0000   1.0000
     1.0000   1.0000   1.0000   1.0000   1.0000   1.0000   1.0000   1.0000
     1.0000   1.0000   1.0000   1.0000   1.0000   1.0000   1.0000   1.0000
     1.0000   1.0000   1.0000   1.0000   1.0000   1.0000   1.0000   1.0000
     1.0000   1.0000   1.0000   1.0000   1.0000   1.0000   1.0000   1.0000
     1.0000   1.0000   1.0000   1.0000   1.0000   1.0000   1.0000   1.0000

     highest occupied level (ev):     9.4747

!    total energy              =   -1446.33036392 Ry
     estimated scf accuracy    <          8.8E-09 Ry

     The total energy is the sum of the following terms:
     one-electron contribution =    -542.72619956 Ry
     hartree contribution      =     447.12271276 Ry
     xc contribution           =    -439.66944990 Ry
     ewald contribution        =    -911.05742723 Ry

     convergence has been achieved in  30 iterations

     Forces acting on atoms (cartesian axes, Ry/au):

     atom    1 type  1   force =    -0.00000021   -0.00000012   -0.03106988
     atom    2 type  1   force =     0.00000000    0.00000140   -0.03107170
     atom    3 type  2   force =     0.00000075    0.00000043    0.03107080
     atom    4 type  2   force =     0.00000000    0.00000086    0.03107193
     atom    5 type  1   force =    -0.00000000   -0.00000000   -0.03107183
     atom    6 type  1   force =     0.00000121   -0.00000070   -0.03107170
     atom    7 type  2   force =     0.00000000    0.00000000    0.03106962
     atom    8 type  2   force =     0.00000074   -0.00000043    0.03107193
     atom    9 type  1   force =     0.00000021   -0.00000012   -0.03106988
     atom   10 type  1   force =     0.00000000    0.00000000   -0.03107366
     atom   11 type  2   force =    -0.00000075    0.00000043    0.03107080
     atom   12 type  2   force =     0.00000000    0.00000000    0.03107241
     atom   13 type  1   force =     0.00000000    0.00000025   -0.03106988
     atom   14 type  1   force =    -0.00000121   -0.00000070   -0.03107170
     atom   15 type  2   force =    -0.00000000   -0.00000086    0.03107080
     atom   16 type  2   force =    -0.00000074   -0.00000043    0.03107193
     The non-local contrib.  to forces
     atom    1 type  1   force =     0.00000108    0.00000062   -0.13321569
     atom    2 type  1   force =     0.00000000    0.00000098   -0.13321445
     atom    3 type  2   force =     0.00000018    0.00000010   -0.08595227
     atom    4 type  2   force =    -0.00000000   -0.00000073   -0.08595111
     atom    5 type  1   force =     0.00000000   -0.00000000   -0.13321533
     atom    6 type  1   force =     0.00000085   -0.00000049   -0.13321445
     atom    7 type  2   force =     0.00000000   -0.00000000   -0.08595268
     atom    8 type  2   force =    -0.00000063    0.00000036   -0.08595111
     atom    9 type  1   force =    -0.00000108    0.00000062   -0.13321569
     atom   10 type  1   force =     0.00000000    0.00000000   -0.13321356
     atom   11 type  2   force =    -0.00000018    0.00000010   -0.08595227
     atom   12 type  2   force =     0.00000000   -0.00000000   -0.08594933
     atom   13 type  1   force =     0.00000000   -0.00000125   -0.13321569
     atom   14 type  1   force =    -0.00000085   -0.00000049   -0.13321445
     atom   15 type  2   force =     0.00000000   -0.00000020   -0.08595227
     atom   16 type  2   force =     0.00000063    0.00000036   -0.08595111
     The ionic contribution  to forces
     atom    1 type  1   force =     0.00000001    0.00000001   -0.86727418
     atom    2 type  1   force =     0.00000002    0.00000001   -0.86727418
     atom    3 type  2   force =     0.00000001    0.00000001    0.86727418
     atom    4 type  2   force =     0.00000001    0.00000000    0.86727418
     atom    5 type  1   force =     0.00000001    0.00000001   -0.86727418
     atom    6 type  1   force =     0.00000002    0.00000001   -0.86727418
     atom    7 type  2   force =     0.00000001    0.00000001    0.86727418
     atom    8 type  2   force =     0.00000001    0.00000000    0.86727418
     atom    9 type  1   force =    -0.00000002   -0.00000001   -0.86727418
     atom   10 type  1   force =    -0.00000001   -0.00000001   -0.86727418
     atom   11 type  2   force =    -0.00000001   -0.00000000    0.86727418
     atom   12 type  2   force =    -0.00000001   -0.00000001    0.86727418
     atom   13 type  1   force =    -0.00000002   -0.00000001   -0.86727418
     atom   14 type  1   force =    -0.00000001   -0.00000001   -0.86727418
     atom   15 type  2   force =    -0.00000001   -0.00000000    0.86727418
     atom   16 type  2   force =    -0.00000001   -0.00000001    0.86727418
     The local contribution  to forces
     atom    1 type  1   force =    -0.00000095   -0.00000045    0.95773530
     atom    2 type  1   force =     0.00000008   -0.00000237    0.95773601
     atom    3 type  2   force =    -0.00000101   -0.00000056   -0.75079560
     atom    4 type  2   force =     0.00000002    0.00000001   -0.75079458
     atom    5 type  1   force =    -0.00000000    0.00000009    0.95773545
     atom    6 type  1   force =    -0.00000201    0.00000126    0.95773601
     atom    7 type  2   force =    -0.00000000    0.00000002   -0.75079776
     atom    8 type  2   force =     0.00000002    0.00000002   -0.75079458
     atom    9 type  1   force =     0.00000078   -0.00000045    0.95773530
     atom   10 type  1   force =    -0.00000008    0.00000005    0.95773637
     atom   11 type  2   force =     0.00000097   -0.00000056   -0.75079560
     atom   12 type  2   force =    -0.00000002    0.00000001   -0.75079554
     atom   13 type  1   force =    -0.00000016    0.00000119    0.95773530
     atom   14 type  1   force =     0.00000201    0.00000126    0.95773601
     atom   15 type  2   force =    -0.00000004    0.00000119   -0.75079560
     atom   16 type  2   force =    -0.00000002    0.00000002   -0.75079458
     The core correction contribution to forces
     atom    1 type  1   force =    -0.00000030   -0.00000016    0.01168639
     atom    2 type  1   force =     0.00000001   -0.00000031    0.01168632
     atom    3 type  2   force =    -0.00000003   -0.00000002    0.00054041
     atom    4 type  2   force =    -0.00000000   -0.00000002    0.00054040
     atom    5 type  1   force =    -0.00000000    0.00000001    0.01168643
     atom    6 type  1   force =    -0.00000027    0.00000017    0.01168632
     atom    7 type  2   force =    -0.00000000   -0.00000000    0.00054039
     atom    8 type  2   force =    -0.00000002    0.00000001    0.00054040
     atom    9 type  1   force =     0.00000027   -0.00000016    0.01168639
     atom   10 type  1   force =    -0.00000001    0.00000001    0.01168630
     atom   11 type  2   force =     0.00000003   -0.00000002    0.00054041
     atom   12 type  2   force =     0.00000000   -0.00000000    0.00054036
     atom   13 type  1   force =    -0.00000002    0.00000035    0.01168639
     atom   14 type  1   force =     0.00000027    0.00000017    0.01168632
     atom   15 type  2   force =     0.00000000    0.00000004    0.00054041
     atom   16 type  2   force =     0.00000002    0.00000001    0.00054040
     The Hubbard contrib.    to forces
     atom    1 type  1   force =     0.00000000    0.00000000    0.00000000
     atom    2 type  1   force =     0.00000000    0.00000000    0.00000000
     atom    3 type  2   force =     0.00000000    0.00000000    0.00000000
     atom    4 type  2   force =     0.00000000    0.00000000    0.00000000
     atom    5 type  1   force =     0.00000000    0.00000000    0.00000000
     atom    6 type  1   force =     0.00000000    0.00000000    0.00000000
     atom    7 type  2   force =     0.00000000    0.00000000    0.00000000
     atom    8 type  2   force =     0.00000000    0.00000000    0.00000000
     atom    9 type  1   force =     0.00000000    0.00000000    0.00000000
     atom   10 type  1   force =     0.00000000    0.00000000    0.00000000
     atom   11 type  2   force =     0.00000000    0.00000000    0.00000000
     atom   12 type  2   force =     0.00000000    0.00000000    0.00000000
     atom   13 type  1   force =     0.00000000    0.00000000    0.00000000
     atom   14 type  1   force =     0.00000000    0.00000000    0.00000000
     atom   15 type  2   force =     0.00000000    0.00000000    0.00000000
     atom   16 type  2   force =     0.00000000    0.00000000    0.00000000
     The SCF correction term to forces
     atom    1 type  1   force =    -0.00000011   -0.00000006   -0.00000368
     atom    2 type  1   force =     0.00000000    0.00000309   -0.00000739
     atom    3 type  2   force =     0.00000160    0.00000092    0.00000209
     atom    4 type  2   force =     0.00000000    0.00000159    0.00000105
     atom    5 type  1   force =     0.00000000    0.00000000   -0.00000619
     atom    6 type  1   force =     0.00000267   -0.00000154   -0.00000739
     atom    7 type  2   force =     0.00000000    0.00000000    0.00000349
     atom    8 type  2   force =     0.00000138   -0.00000080    0.00000105
     atom    9 type  1   force =     0.00000011   -0.00000006   -0.00000368
     atom   10 type  1   force =    -0.00000000    0.00000000   -0.00001057
     atom   11 type  2   force =    -0.00000160    0.00000092    0.00000209
     atom   12 type  2   force =    -0.00000000   -0.00000000    0.00000073
     atom   13 type  1   force =    -0.00000000    0.00000013   -0.00000368
     atom   14 type  1   force =    -0.00000267   -0.00000154   -0.00000739
     atom   15 type  2   force =    -0.00000000   -0.00000184    0.00000209
     atom   16 type  2   force =    -0.00000138   -0.00000080    0.00000105

     Total force =     0.124285     Total SCF correction =     0.000021

     General routines

     Parallel routines

   This run was terminated on:  17:41: 7  23Aug2025

   JOB DONE.
Note: The following floating-point exceptions are signalling: IEEE_INVALID_FLAG
Note: The following floating-point exceptions are signalling: IEEE_INVALID_FLAG
Note: The following floating-point exceptions are signalling: IEEE_INVALID_FLAG
Note: The following floating-point exceptions are signalling: IEEE_INVALID_FLAG
Note: The following floating-point exceptions are signalling: IEEE_INVALID_FLAG
Note: The following floating-point exceptions are signalling: IEEE_INVALID_FLAG
Note: The following floating-point exceptions are signalling: IEEE_INVALID_FLAG
Note: The following floating-point exceptions are signalling: IEEE_INVALID_FLAG
Note: The following floating-point exceptions are signalling: IEEE_INVALID_FLAG
Note: The following floating-point exceptions are signalling: IEEE_INVALID_FLAG
Note: The following floating-point exceptions are signalling: IEEE_INVALID_FLAG
Note: The following floating-point exceptions are signalling: IEEE_INVALID_FLAG
Note: The following floating-point exceptions are signalling: IEEE_INVALID_FLAG
Note: The following floating-point exceptions are signalling: IEEE_INVALID_FLAG
Note: The following floating-point exceptions are signalling: IEEE_INVALID_FLAG
Note: The following floating-point exceptions are signalling: IEEE_INVALID_FLAG
Note: The following floating-point exceptions are signalling: IEEE_INVALID_FLAG
Note: The following floating-point exceptions are signalling: IEEE_INVALID_FLAG
Note: The following floating-point exceptions are signalling: IEEE_INVALID_FLAG
Note: The following floating-point exceptions are signalling: IEEE_INVALID_FLAG
Note: The following floating-point exceptions are signalling: IEEE_INVALID_FLAG
Note: The following floating-point exceptions are signalling: IEEE_INVALID_FLAG
Note: The following floating-point exceptions are signalling: IEEE_INVALID_FLAG
Note: The following floating-point exceptions are signalling: IEEE_INVALID_FLAG
Note: The following floating-point exceptions are signalling: IEEE_INVALID_FLAG
Note: The following floating-point exceptions are signalling: IEEE_INVALID_FLAG
Note: The following floating-point exceptions are signalling: IEEE_INVALID_FLAG
Note: The following floating-point exceptions are signalling: IEEE_INVALID_FLAG
Note: The following floating-point exceptions are signalling: IEEE_INVALID_FLAG
Note: The following floating-point exceptions are signalling: IEEE_INVALID_FLAG
Note: The following floating-point exceptions are signalling: IEEE_INVALID_FLAG
Note: The following floating-point exceptions are signalling: IEEE_INVALID_FLAG