     Program PWSCF v.7.2 starts on 24Aug2025 at  4: 4:50

     Reading input from /home/jvc/QEspresso7.2/ZnO_database/scripts/cell221.in/ZnO-3.60-1.61-221.in
Warning: card &CELL ignored
Warning: card / ignored
Warning: card &FCP ignored
Warning: card / ignored
Warning: card &RISM ignored
Warning: card / ignored

     Current dimensions of program PWSCF are:
     Max number of different atomic species (ntypx) = 10
     Max number of k-points (npk) =  40000
     Max angular momentum in pseudopotentials (lmaxx) =  4
     file Zn.upf: wavefunction(s)  3D renormalized
     Found identity + (  0.0000 -0.5000  0.0000) symmetry
     This is a supercell, fractional translations are disabled
     Message from routine setup:
     using ibrav=0 with symmetry is DISCOURAGED, use correct ibrav instead

     K-points division:     npool     =       8
     band groups division:  nbgrp     =       4
     Subspace diagonalization in iterative solution of the eigenvalue problem:
     a serial algorithm will be used

     Using Slab Decomposition

     bravais-lattice index     =            0
     lattice parameter (alat)  =      13.5935  a.u.
     unit-cell volume          =    1755.8702 (a.u.)^3
     number of atoms/cell      =           16
     number of atomic types    =            2
     number of electrons       =       144.00
     number of Kohn-Sham states=           72
     kinetic-energy cutoff     =      50.0000  Ry
     charge density cutoff     =     400.0000  Ry
     scf convergence threshold =      1.0E-08
     mixing beta               =       0.3000
     number of iterations used =            8  plain     mixing
     Exchange-correlation= PBE
                           (   1   4   3   4   0   0   0)

     celldm(1)=  13.593479  celldm(2)=   0.000000  celldm(3)=   0.000000
     celldm(4)=   0.000000  celldm(5)=   0.000000  celldm(6)=   0.000000

     crystal axes: (cart. coord. in units of alat)
               a(1) = (   1.000000   0.000000   0.000000 )
               a(2) = (  -0.500000   0.866025   0.000000 )
               a(3) = (   0.000000   0.000000   0.807179 )

     reciprocal axes: (cart. coord. in units 2 pi/alat)
               b(1) = (  1.000000  0.577350 -0.000000 )
               b(2) = (  0.000000  1.154701  0.000000 )
               b(3) = (  0.000000 -0.000000  1.238882 )

     PseudoPot. # 1 for Zn read from file:
     /home/jvc/QEspresso7.2/ZnO_database/pseudos/Zn.upf
     MD5 check sum: 7f56cabf9682ed8c977c2f7d0c5985c5
     Pseudo is Ultrasoft + core correction, Zval = 12.0
     Generated using &quot;atomic&quot; code by A. Dal Corso  v.6.2.2
     Using radial grid of 1201 points,  6 beta functions with:
                l(1) =   0
                l(2) =   0
                l(3) =   1
                l(4) =   1
                l(5) =   2
                l(6) =   2
     Q(r) pseudized with 0 coefficients

     PseudoPot. # 2 for O  read from file:
     /home/jvc/QEspresso7.2/ZnO_database/pseudos/O.upf
     MD5 check sum: 91400c9766925bcf19f520983a725ff0
     Pseudo is Ultrasoft + core correction, Zval =  6.0
     Generated using &quot;atomic&quot; code by A. Dal Corso  v.6.3MaX
     Using radial grid of 1095 points,  4 beta functions with:
                l(1) =   0
                l(2) =   0
                l(3) =   1
                l(4) =   1
     Q(r) pseudized with 0 coefficients

     atomic species   valence    mass     pseudopotential
        Zn            12.00    65.38000     Zn( 1.00)
        O              6.00    15.99900     O ( 1.00)

      6 Sym. Ops. (no inversion) found

                                    s                        frac. trans.

      isym =  1     identity

 cryst.   s( 1) = (     1          0          0      )
                  (     0          1          0      )
                  (     0          0          1      )

 cart.    s( 1) = (  1.0000000  0.0000000  0.0000000 )
                  (  0.0000000  1.0000000  0.0000000 )
                  (  0.0000000  0.0000000  1.0000000 )

      isym =  2     120 deg rotation - cryst. axis [0,0,1]

[...]

      isym =  3     120 deg rotation - cryst. axis [0,0,-1]

[...]

      isym =  4     inv. 180 deg rotation - cart. axis [1,0,0]

[...]

      isym =  5     inv. 180 deg rotation - cryst. axis [0,1,0]

[...]

      isym =  6     inv. 180 deg rotation - cryst. axis [1,1,0]

 cryst.   s( 6) = (     0         -1          0      )
                  (    -1          0          0      )
                  (     0          0          1      )

 cart.    s( 6) = (  0.5000000 -0.8660254  0.0000000 )
                  ( -0.8660254 -0.5000000  0.0000000 )
                  (  0.0000000  0.0000000  1.0000000 )

   Cartesian axes

     site n.     atom                  positions (alat units)
         1           Zn  tau(   1) = (   0.2500000   0.1443376   0.4041010  )
         2           Zn  tau(   2) = (  -0.0000000   0.2886751   0.0005114  )
         3           O   tau(   3) = (   0.2500000   0.1443376   0.7100565  )
         4           O   tau(   4) = (  -0.0000000   0.2886751   0.3064669  )
         5           Zn  tau(   5) = (  -0.0000000   0.5773503   0.4041010  )
         6           Zn  tau(   6) = (  -0.2500000   0.7216878   0.0005114  )
         7           O   tau(   7) = (  -0.0000000   0.5773503   0.7100565  )
         8           O   tau(   8) = (  -0.2500000   0.7216878   0.3064669  )
         9           Zn  tau(   9) = (   0.7500000   0.1443376   0.4041010  )
        10           Zn  tau(  10) = (   0.5000000   0.2886751   0.0005114  )
        11           O   tau(  11) = (   0.7500000   0.1443376   0.7100565  )
        12           O   tau(  12) = (   0.5000000   0.2886751   0.3064669  )
        13           Zn  tau(  13) = (   0.5000000   0.5773503   0.4041010  )
        14           Zn  tau(  14) = (   0.2500000   0.7216878   0.0005114  )
        15           O   tau(  15) = (   0.5000000   0.5773503   0.7100565  )
        16           O   tau(  16) = (   0.2500000   0.7216878   0.3064669  )

   Crystallographic axes

     site n.     atom                  positions (cryst. coord.)
         1           Zn  tau(   1) = (  0.3333333  0.1666667  0.5006336  )
         2           Zn  tau(   2) = (  0.1666667  0.3333333  0.0006336  )
         3           O   tau(   3) = (  0.3333333  0.1666667  0.8796764  )
         4           O   tau(   4) = (  0.1666667  0.3333333  0.3796764  )
         5           Zn  tau(   5) = (  0.3333333  0.6666667  0.5006336  )
         6           Zn  tau(   6) = (  0.1666667  0.8333333  0.0006336  )
         7           O   tau(   7) = (  0.3333333  0.6666667  0.8796764  )
         8           O   tau(   8) = (  0.1666667  0.8333333  0.3796764  )
         9           Zn  tau(   9) = (  0.8333333  0.1666667  0.5006336  )
        10           Zn  tau(  10) = (  0.6666667  0.3333333  0.0006336  )
        11           O   tau(  11) = (  0.8333333  0.1666667  0.8796764  )
        12           O   tau(  12) = (  0.6666667  0.3333333  0.3796764  )
        13           Zn  tau(  13) = (  0.8333333  0.6666667  0.5006336  )
        14           Zn  tau(  14) = (  0.6666667  0.8333333  0.0006336  )
        15           O   tau(  15) = (  0.8333333  0.6666667  0.8796764  )
        16           O   tau(  16) = (  0.6666667  0.8333333  0.3796764  )

     number of k points=    34
                       cart. coord. in units 2pi/alat
        k(    1) = (   0.0000000   0.0000000   0.0000000), wk =   0.0092593
        k(    2) = (   0.0000000   0.0000000   0.2064804), wk =   0.0185185
        k(    3) = (   0.0000000   0.0000000   0.4129608), wk =   0.0185185
        k(    4) = (   0.0000000   0.0000000  -0.6194412), wk =   0.0092593
        k(    5) = (   0.0000000   0.1924501   0.0000000), wk =   0.0555556
        k(    6) = (   0.0000000   0.1924501   0.2064804), wk =   0.0555556
        k(    7) = (   0.0000000   0.1924501   0.4129608), wk =   0.0555556
        k(    8) = (   0.0000000   0.1924501  -0.6194412), wk =   0.0555556
        k(    9) = (   0.0000000   0.3849002   0.0000000), wk =   0.0555556
        k(   10) = (   0.0000000   0.3849002   0.2064804), wk =   0.0555556
        k(   11) = (   0.0000000   0.3849002   0.4129608), wk =   0.0555556
        k(   12) = (   0.0000000   0.3849002  -0.6194412), wk =   0.0555556
        k(   13) = (   0.0000000  -0.5773503   0.0000000), wk =   0.0277778
        k(   14) = (   0.0000000  -0.5773503   0.2064804), wk =   0.0555556
        k(   15) = (   0.0000000  -0.5773503   0.4129608), wk =   0.0555556
        k(   16) = (   0.0000000  -0.5773503  -0.6194412), wk =   0.0277778
        k(   17) = (   0.1666667   0.2886751   0.0000000), wk =   0.0555556
        k(   18) = (   0.1666667   0.2886751   0.2064804), wk =   0.1111111
        k(   19) = (   0.1666667   0.2886751   0.4129608), wk =   0.1111111
        k(   20) = (   0.1666667   0.2886751  -0.6194412), wk =   0.0555556
        k(   21) = (   0.1666667   0.4811252   0.0000000), wk =   0.1111111
        k(   22) = (   0.1666667   0.4811252   0.2064804), wk =   0.1111111
        k(   23) = (   0.1666667   0.4811252   0.4129608), wk =   0.1111111
        k(   24) = (   0.1666667   0.4811252  -0.6194412), wk =   0.1111111
        k(   25) = (   0.3333333   0.5773503   0.0000000), wk =   0.0185185
        k(   26) = (   0.3333333   0.5773503   0.2064804), wk =   0.0370370
        k(   27) = (   0.3333333   0.5773503   0.4129608), wk =   0.0370370
        k(   28) = (   0.3333333   0.5773503  -0.6194412), wk =   0.0185185
        k(   29) = (   0.0000000  -0.1924501   0.2064804), wk =   0.0555556
        k(   30) = (   0.0000000  -0.1924501   0.4129608), wk =   0.0555556
        k(   31) = (   0.0000000  -0.3849002   0.2064804), wk =   0.0555556
        k(   32) = (   0.0000000  -0.3849002   0.4129608), wk =   0.0555556
        k(   33) = (  -0.1666667  -0.4811252   0.2064804), wk =   0.1111111
        k(   34) = (  -0.1666667  -0.4811252   0.4129608), wk =   0.1111111

                       cryst. coord.
        k(    1) = (   0.0000000   0.0000000   0.0000000), wk =   0.0092593
        k(    2) = (   0.0000000   0.0000000   0.1666667), wk =   0.0185185
        k(    3) = (   0.0000000   0.0000000   0.3333333), wk =   0.0185185
        k(    4) = (   0.0000000   0.0000000  -0.5000000), wk =   0.0092593
        k(    5) = (   0.0000000   0.1666667   0.0000000), wk =   0.0555556
        k(    6) = (   0.0000000   0.1666667   0.1666667), wk =   0.0555556
        k(    7) = (   0.0000000   0.1666667   0.3333333), wk =   0.0555556
        k(    8) = (   0.0000000   0.1666667  -0.5000000), wk =   0.0555556
        k(    9) = (   0.0000000   0.3333333   0.0000000), wk =   0.0555556
        k(   10) = (   0.0000000   0.3333333   0.1666667), wk =   0.0555556
        k(   11) = (   0.0000000   0.3333333   0.3333333), wk =   0.0555556
        k(   12) = (   0.0000000   0.3333333  -0.5000000), wk =   0.0555556
        k(   13) = (   0.0000000  -0.5000000   0.0000000), wk =   0.0277778
        k(   14) = (   0.0000000  -0.5000000   0.1666667), wk =   0.0555556
        k(   15) = (   0.0000000  -0.5000000   0.3333333), wk =   0.0555556
[...]
        k(   27) = (   0.3333333   0.3333333   0.3333333), wk =   0.0370370
        k(   28) = (   0.3333333   0.3333333  -0.5000000), wk =   0.0185185
        k(   29) = (   0.0000000  -0.1666667   0.1666667), wk =   0.0555556
        k(   30) = (   0.0000000  -0.1666667   0.3333333), wk =   0.0555556
        k(   31) = (   0.0000000  -0.3333333   0.1666667), wk =   0.0555556
        k(   32) = (   0.0000000  -0.3333333   0.3333333), wk =   0.0555556
        k(   33) = (  -0.1666667  -0.3333333   0.1666667), wk =   0.1111111
        k(   34) = (  -0.1666667  -0.3333333   0.3333333), wk =   0.1111111

     Check: negative core charge=   -0.000002

     Initial potential from superposition of free atoms

     starting charge     143.9702, renormalised to     144.0000
     Starting wfcs are  104 randomized atomic wfcs

     Self-consistent Calculation

     iteration #  1     ecut=    50.00 Ry     beta= 0.30
     Davidson diagonalization with overlap

     ethr =  1.00E-02,  avg # of iterations =  1.4

     total energy              =   -1445.36930321 Ry
     estimated scf accuracy    <       3.39407979 Ry

[...]

     c_bands:  1 eigenvalues not converged
     c_bands:  1 eigenvalues not converged
     c_bands:  2 eigenvalues not converged
     ethr =  6.99E-07,  avg # of iterations = 16.8

[...]

     c_bands:  1 eigenvalues not converged
     ethr =  2.98E-09,  avg # of iterations = 10.8

[...]

     total energy              =   -1446.19117933 Ry
     estimated scf accuracy    <       0.00000001 Ry

     iteration # 36     ecut=    50.00 Ry     beta= 0.30
     Davidson diagonalization with overlap

     ethr =  9.75E-12,  avg # of iterations =  5.8

     End of self-consistent calculation

          k = 0.0000 0.0000 0.0000 ( 10489 PWs)   bands (ev):

   -12.7785 -12.4468 -12.4468 -12.4468 -12.4313 -12.3393 -12.3393 -12.3393
    -1.4486  -1.4486  -1.4389  -1.4389  -1.4389  -1.4362  -1.3498  -1.3498
    -1.3230  -1.3230  -1.3230  -1.2071  -1.2071  -1.2071  -1.1333  -1.1333
    -1.1333  -1.0652  -1.0652  -1.0652  -1.0081  -1.0081  -1.0081  -0.9825
    -0.9825  -0.8995  -0.8995  -0.8995  -0.8857  -0.8841  -0.8841  -0.8762
    -0.8762  -0.8762  -0.8629  -0.8629  -0.8629  -0.8242  -0.8242  -0.8242
    -0.1117   0.2097   0.2097   0.2097   0.7208   0.7208   0.7208   1.4686
     1.4686   1.4686   2.0192   2.0192   2.0192   2.5503   2.5503   2.5503
     2.8702   2.8702   2.8702   2.8798   2.8798   3.3461   3.3635   3.3635

     occupation numbers
     1.0000   1.0000   1.0000   1.0000   1.0000   1.0000   1.0000   1.0000
     1.0000   1.0000   1.0000   1.0000   1.0000   1.0000   1.0000   1.0000
     1.0000   1.0000   1.0000   1.0000   1.0000   1.0000   1.0000   1.0000
     1.0000   1.0000   1.0000   1.0000   1.0000   1.0000   1.0000   1.0000
     1.0000   1.0000   1.0000   1.0000   1.0000   1.0000   1.0000   1.0000
     1.0000   1.0000   1.0000   1.0000   1.0000   1.0000   1.0000   1.0000
     1.0000   1.0000   1.0000   1.0000   1.0000   1.0000   1.0000   1.0000
     1.0000   1.0000   1.0000   1.0000   1.0000   1.0000   1.0000   1.0000
     1.0000   1.0000   1.0000   1.0000   1.0000   1.0000   1.0000   1.0000

[...]

          k = 0.0000-0.3849 0.4130 ( 10470 PWs)   bands (ev):

[...]

          k =-0.1667-0.4811 0.2065 ( 10486 PWs)   bands (ev):

[...]

          k =-0.1667-0.4811 0.4130 ( 10487 PWs)   bands (ev):

   -12.5890 -12.5214 -12.4693 -12.4509 -12.4106 -12.3863 -12.3834 -12.3575
    -1.4648  -1.4541  -1.4061  -1.3942  -1.3866  -1.3675  -1.3637  -1.3600
    -1.3299  -1.3162  -1.3059  -1.2750  -1.2742  -1.2641  -1.2550  -1.2265
    -1.2194  -1.2096  -1.1895  -1.1768  -1.1601  -1.1426  -1.0705  -1.0527
    -0.9589  -0.9530  -0.9485  -0.9477  -0.9474  -0.9334  -0.9311  -0.9141
    -0.8994  -0.8933  -0.8751  -0.8674  -0.8436  -0.8132  -0.7831  -0.7495
     0.3913   0.5078   0.5688   0.6818   0.7856   0.8297   1.0673   1.4339
     1.4574   2.0210   2.0402   2.0573   2.1450   2.2624   2.3812   2.4259
     2.5184   2.6383   2.6452   2.7774   2.8079   2.8610   2.9196   2.9759

     occupation numbers
     1.0000   1.0000   1.0000   1.0000   1.0000   1.0000   1.0000   1.0000
     1.0000   1.0000   1.0000   1.0000   1.0000   1.0000   1.0000   1.0000
     1.0000   1.0000   1.0000   1.0000   1.0000   1.0000   1.0000   1.0000
     1.0000   1.0000   1.0000   1.0000   1.0000   1.0000   1.0000   1.0000
     1.0000   1.0000   1.0000   1.0000   1.0000   1.0000   1.0000   1.0000
     1.0000   1.0000   1.0000   1.0000   1.0000   1.0000   1.0000   1.0000
     1.0000   1.0000   1.0000   1.0000   1.0000   1.0000   1.0000   1.0000
     1.0000   1.0000   1.0000   1.0000   1.0000   1.0000   1.0000   1.0000
     1.0000   1.0000   1.0000   1.0000   1.0000   1.0000   1.0000   1.0000

     highest occupied level (ev):     3.3635

!    total energy              =   -1446.19117933 Ry
     estimated scf accuracy    <          4.6E-10 Ry

     The total energy is the sum of the following terms:
     one-electron contribution =    -744.43693142 Ry
     hartree contribution      =     519.35088217 Ry
     xc contribution           =    -436.18291242 Ry
     ewald contribution        =    -784.92221767 Ry

     convergence has been achieved in  36 iterations

     Forces acting on atoms (cartesian axes, Ry/au):

     atom    1 type  1   force =    -0.00000116   -0.00000067   -0.00008467
     atom    2 type  1   force =    -0.00000000   -0.00000067   -0.00008352
     atom    3 type  2   force =     0.00000015    0.00000008    0.00008412
     atom    4 type  2   force =     0.00000000   -0.00000007    0.00008428
     atom    5 type  1   force =     0.00000000    0.00000000   -0.00008567
     atom    6 type  1   force =    -0.00000058    0.00000033   -0.00008352
     atom    7 type  2   force =     0.00000000    0.00000000    0.00008419
     atom    8 type  2   force =    -0.00000006    0.00000004    0.00008428
     atom    9 type  1   force =     0.00000116   -0.00000067   -0.00008467
     atom   10 type  1   force =     0.00000000    0.00000000   -0.00008334
     atom   11 type  2   force =    -0.00000015    0.00000008    0.00008412
     atom   12 type  2   force =     0.00000000    0.00000000    0.00008419
     atom   13 type  1   force =     0.00000000    0.00000134   -0.00008467
     atom   14 type  1   force =     0.00000058    0.00000033   -0.00008352
     atom   15 type  2   force =     0.00000000   -0.00000017    0.00008412
     atom   16 type  2   force =     0.00000006    0.00000004    0.00008428
     The non-local contrib.  to forces
     atom    1 type  1   force =    -0.00000083   -0.00000048   -0.00460901
     atom    2 type  1   force =    -0.00000000   -0.00000116   -0.00460764
     atom    3 type  2   force =     0.00000138    0.00000079    0.00629550
     atom    4 type  2   force =     0.00000000   -0.00000035    0.00629682
     atom    5 type  1   force =     0.00000000   -0.00000000   -0.00460986
     atom    6 type  1   force =    -0.00000100    0.00000058   -0.00460764
     atom    7 type  2   force =     0.00000000    0.00000000    0.00629535
     atom    8 type  2   force =    -0.00000030    0.00000018    0.00629682
     atom    9 type  1   force =     0.00000083   -0.00000048   -0.00460901
     atom   10 type  1   force =     0.00000000    0.00000000   -0.00460745
     atom   11 type  2   force =    -0.00000138    0.00000079    0.00629550
     atom   12 type  2   force =     0.00000000    0.00000000    0.00629565
     atom   13 type  1   force =     0.00000000    0.00000095   -0.00460901
     atom   14 type  1   force =     0.00000100    0.00000058   -0.00460764
     atom   15 type  2   force =     0.00000000   -0.00000159    0.00629550
     atom   16 type  2   force =     0.00000030    0.00000018    0.00629682
     The ionic contribution  to forces
     atom    1 type  1   force =     0.00000000    0.00000002    0.05183209
     atom    2 type  1   force =     0.00000001    0.00000002    0.05183208
     atom    3 type  2   force =    -0.00000000    0.00000001   -0.05183209
     atom    4 type  2   force =     0.00000001    0.00000001   -0.05183208
     atom    5 type  1   force =     0.00000000   -0.00000001    0.05183208
     atom    6 type  1   force =    -0.00000000   -0.00000002    0.05183209
     atom    7 type  2   force =     0.00000000   -0.00000001   -0.05183208
     atom    8 type  2   force =    -0.00000000   -0.00000001   -0.05183209
     atom    9 type  1   force =    -0.00000002    0.00000002    0.05183209
     atom   10 type  1   force =     0.00000001    0.00000001    0.05183208
     atom   11 type  2   force =    -0.00000001    0.00000001   -0.05183209
     atom   12 type  2   force =     0.00000001    0.00000000   -0.05183208
     atom   13 type  1   force =     0.00000000   -0.00000002    0.05183208
     atom   14 type  1   force =    -0.00000001   -0.00000002    0.05183209
     atom   15 type  2   force =     0.00000000   -0.00000001   -0.05183208
     atom   16 type  2   force =    -0.00000001   -0.00000001   -0.05183209
     The local contribution  to forces
     atom    1 type  1   force =     0.00000190    0.00000121   -0.04756453
     atom    2 type  1   force =     0.00000010    0.00000219   -0.04756734
     atom    3 type  2   force =     0.00000237    0.00000140    0.04568909
     atom    4 type  2   force =     0.00000003    0.00000176    0.04569138
     atom    5 type  1   force =     0.00000010   -0.00000006   -0.04756288
     atom    6 type  1   force =     0.00000185   -0.00000118   -0.04756734
     atom    7 type  2   force =     0.00000003   -0.00000001    0.04568983
     atom    8 type  2   force =     0.00000151   -0.00000090    0.04569138
     atom    9 type  1   force =    -0.00000209    0.00000121   -0.04756453
     atom   10 type  1   force =     0.00000010    0.00000006   -0.04756762
     atom   11 type  2   force =    -0.00000243    0.00000140    0.04568909
     atom   12 type  2   force =     0.00000003    0.00000001    0.04569173
     atom   13 type  1   force =     0.00000010   -0.00000225   -0.04756453
     atom   14 type  1   force =    -0.00000185   -0.00000118   -0.04756734
     atom   15 type  2   force =     0.00000003   -0.00000276    0.04568909
     atom   16 type  2   force =    -0.00000151   -0.00000090    0.04569138
     The core correction contribution to forces
     atom    1 type  1   force =    -0.00000004   -0.00000001    0.00025871
     atom    2 type  1   force =     0.00000001   -0.00000001    0.00025873
     atom    3 type  2   force =    -0.00000001   -0.00000001   -0.00007044
     atom    4 type  2   force =    -0.00000000    0.00000001   -0.00007045
     atom    5 type  1   force =     0.00000001   -0.00000001    0.00025871
     atom    6 type  1   force =    -0.00000001   -0.00000001    0.00025873
     atom    7 type  2   force =    -0.00000000    0.00000000   -0.00007043
     atom    8 type  2   force =     0.00000001   -0.00000001   -0.00007045
     atom    9 type  1   force =     0.00000001   -0.00000001    0.00025871
     atom   10 type  1   force =     0.00000001    0.00000001    0.00025871
     atom   11 type  2   force =     0.00000001   -0.00000001   -0.00007044
     atom   12 type  2   force =    -0.00000000   -0.00000000   -0.00007043
     atom   13 type  1   force =     0.00000001    0.00000004    0.00025871
     atom   14 type  1   force =     0.00000001   -0.00000001    0.00025873
     atom   15 type  2   force =    -0.00000000    0.00000001   -0.00007044
     atom   16 type  2   force =    -0.00000001   -0.00000001   -0.00007045
     The Hubbard contrib.    to forces
     atom    1 type  1   force =     0.00000000    0.00000000    0.00000000
     atom    2 type  1   force =     0.00000000    0.00000000    0.00000000
     atom    3 type  2   force =     0.00000000    0.00000000    0.00000000
     atom    4 type  2   force =     0.00000000    0.00000000    0.00000000
     atom    5 type  1   force =     0.00000000    0.00000000    0.00000000
     atom    6 type  1   force =     0.00000000    0.00000000    0.00000000
     atom    7 type  2   force =     0.00000000    0.00000000    0.00000000
     atom    8 type  2   force =     0.00000000    0.00000000    0.00000000
     atom    9 type  1   force =     0.00000000    0.00000000    0.00000000
     atom   10 type  1   force =     0.00000000    0.00000000    0.00000000
     atom   11 type  2   force =     0.00000000    0.00000000    0.00000000
     atom   12 type  2   force =     0.00000000    0.00000000    0.00000000
     atom   13 type  1   force =     0.00000000    0.00000000    0.00000000
     atom   14 type  1   force =     0.00000000    0.00000000    0.00000000
     atom   15 type  2   force =     0.00000000    0.00000000    0.00000000
     atom   16 type  2   force =     0.00000000    0.00000000    0.00000000
     The SCF correction term to forces
     atom    1 type  1   force =    -0.00000232   -0.00000134   -0.00000332
     atom    2 type  1   force =    -0.00000000   -0.00000171   -0.00000076
     atom    3 type  2   force =    -0.00000363   -0.00000209    0.00000064
     atom    4 type  2   force =    -0.00000000   -0.00000150   -0.00000278
     atom    5 type  1   force =    -0.00000000    0.00000000   -0.00000512
     atom    6 type  1   force =    -0.00000148    0.00000085   -0.00000076
     atom    7 type  2   force =    -0.00000000    0.00000000    0.00000013
     atom    8 type  2   force =    -0.00000130    0.00000075   -0.00000278
     atom    9 type  1   force =     0.00000232   -0.00000134   -0.00000332
     atom   10 type  1   force =    -0.00000000   -0.00000000   -0.00000045
     atom   11 type  2   force =     0.00000363   -0.00000209    0.00000064
     atom   12 type  2   force =    -0.00000000   -0.00000000   -0.00000208
     atom   13 type  1   force =    -0.00000000    0.00000268   -0.00000332
     atom   14 type  1   force =     0.00000148    0.00000085   -0.00000076
     atom   15 type  2   force =    -0.00000000    0.00000419    0.00000064
     atom   16 type  2   force =     0.00000130    0.00000075   -0.00000278

     Total force =     0.000337     Total SCF correction =     0.000013

     General routines

     Parallel routines

   This run was terminated on:   4:15:41  24Aug2025

   JOB DONE.
Note: The following floating-point exceptions are signalling: IEEE_INVALID_FLAG
Note: The following floating-point exceptions are signalling: IEEE_INVALID_FLAG
Note: The following floating-point exceptions are signalling: IEEE_INVALID_FLAG
Note: The following floating-point exceptions are signalling: IEEE_INVALID_FLAG
Note: The following floating-point exceptions are signalling: IEEE_INVALID_FLAG
Note: The following floating-point exceptions are signalling: IEEE_INVALID_FLAG
Note: The following floating-point exceptions are signalling: IEEE_INVALID_FLAG
Note: The following floating-point exceptions are signalling: IEEE_INVALID_FLAG
Note: The following floating-point exceptions are signalling: IEEE_INVALID_FLAG
Note: The following floating-point exceptions are signalling: IEEE_INVALID_FLAG
Note: The following floating-point exceptions are signalling: IEEE_INVALID_FLAG
Note: The following floating-point exceptions are signalling: IEEE_INVALID_FLAG
Note: The following floating-point exceptions are signalling: IEEE_INVALID_FLAG
Note: The following floating-point exceptions are signalling: IEEE_INVALID_FLAG
Note: The following floating-point exceptions are signalling: IEEE_INVALID_FLAG
Note: The following floating-point exceptions are signalling: IEEE_INVALID_FLAG
Note: The following floating-point exceptions are signalling: IEEE_INVALID_FLAG
Note: The following floating-point exceptions are signalling: IEEE_INVALID_FLAG
Note: The following floating-point exceptions are signalling: IEEE_INVALID_FLAG
Note: The following floating-point exceptions are signalling: IEEE_INVALID_FLAG
Note: The following floating-point exceptions are signalling: IEEE_INVALID_FLAG
Note: The following floating-point exceptions are signalling: IEEE_INVALID_FLAG
Note: The following floating-point exceptions are signalling: IEEE_INVALID_FLAG
Note: The following floating-point exceptions are signalling: IEEE_INVALID_FLAG
Note: The following floating-point exceptions are signalling: IEEE_INVALID_FLAG
Note: The following floating-point exceptions are signalling: IEEE_INVALID_FLAG
Note: The following floating-point exceptions are signalling: IEEE_INVALID_FLAG
Note: The following floating-point exceptions are signalling: IEEE_INVALID_FLAG
Note: The following floating-point exceptions are signalling: IEEE_INVALID_FLAG
Note: The following floating-point exceptions are signalling: IEEE_INVALID_FLAG
Note: The following floating-point exceptions are signalling: IEEE_INVALID_FLAG
Note: The following floating-point exceptions are signalling: IEEE_INVALID_FLAG