     Program PWSCF v.7.2 starts on 23Aug2025 at 21:28: 8

     Reading input from /home/jvc/QEspresso7.2/ZnO_database/scripts/cell221.in/ZnO-3.34-1.65-221.in
Warning: card &CELL ignored
Warning: card / ignored
Warning: card &FCP ignored
Warning: card / ignored
Warning: card &RISM ignored
Warning: card / ignored

     Current dimensions of program PWSCF are:
     Max number of different atomic species (ntypx) = 10
     Max number of k-points (npk) =  40000
     Max angular momentum in pseudopotentials (lmaxx) =  4
     file Zn.upf: wavefunction(s)  3D renormalized
     Found identity + (  0.0000 -0.5000  0.0000) symmetry
     This is a supercell, fractional translations are disabled
     Message from routine setup:
     using ibrav=0 with symmetry is DISCOURAGED, use correct ibrav instead

     K-points division:     npool     =       8
     band groups division:  nbgrp     =       4
     Subspace diagonalization in iterative solution of the eigenvalue problem:
     a serial algorithm will be used

     Using Slab Decomposition

     bravais-lattice index     =            0
     lattice parameter (alat)  =      12.6049  a.u.
     unit-cell volume          =    1427.9567 (a.u.)^3
     number of atoms/cell      =           16
     number of atomic types    =            2
     number of electrons       =       144.00
     number of Kohn-Sham states=           72
     kinetic-energy cutoff     =      50.0000  Ry
     charge density cutoff     =     400.0000  Ry
     scf convergence threshold =      1.0E-08
     mixing beta               =       0.3000
     number of iterations used =            8  plain     mixing
     Exchange-correlation= PBE
                           (   1   4   3   4   0   0   0)

     celldm(1)=  12.604862  celldm(2)=   0.000000  celldm(3)=   0.000000
     celldm(4)=   0.000000  celldm(5)=   0.000000  celldm(6)=   0.000000

     crystal axes: (cart. coord. in units of alat)
               a(1) = (   1.000000   0.000000   0.000000 )
               a(2) = (  -0.500000   0.866025   0.000000 )
               a(3) = (   0.000000   0.000000   0.823323 )

     reciprocal axes: (cart. coord. in units 2 pi/alat)
               b(1) = (  1.000000  0.577350 -0.000000 )
               b(2) = (  0.000000  1.154701  0.000000 )
               b(3) = (  0.000000 -0.000000  1.214590 )

     PseudoPot. # 1 for Zn read from file:
     /home/jvc/QEspresso7.2/ZnO_database/pseudos/Zn.upf
     MD5 check sum: 7f56cabf9682ed8c977c2f7d0c5985c5
     Pseudo is Ultrasoft + core correction, Zval = 12.0
     Generated using &quot;atomic&quot; code by A. Dal Corso  v.6.2.2
     Using radial grid of 1201 points,  6 beta functions with:
                l(1) =   0
                l(2) =   0
                l(3) =   1
                l(4) =   1
                l(5) =   2
                l(6) =   2
     Q(r) pseudized with 0 coefficients

     PseudoPot. # 2 for O  read from file:
     /home/jvc/QEspresso7.2/ZnO_database/pseudos/O.upf
     MD5 check sum: 91400c9766925bcf19f520983a725ff0
     Pseudo is Ultrasoft + core correction, Zval =  6.0
     Generated using &quot;atomic&quot; code by A. Dal Corso  v.6.3MaX
     Using radial grid of 1095 points,  4 beta functions with:
                l(1) =   0
                l(2) =   0
                l(3) =   1
                l(4) =   1
     Q(r) pseudized with 0 coefficients

     atomic species   valence    mass     pseudopotential
        Zn            12.00    65.38000     Zn( 1.00)
        O              6.00    15.99900     O ( 1.00)

      6 Sym. Ops. (no inversion) found

                                    s                        frac. trans.

      isym =  1     identity

 cryst.   s( 1) = (     1          0          0      )
                  (     0          1          0      )
                  (     0          0          1      )

 cart.    s( 1) = (  1.0000000  0.0000000  0.0000000 )
                  (  0.0000000  1.0000000  0.0000000 )
                  (  0.0000000  0.0000000  1.0000000 )

      isym =  2     120 deg rotation - cryst. axis [0,0,1]

[...]

      isym =  3     120 deg rotation - cryst. axis [0,0,-1]

[...]

      isym =  4     inv. 180 deg rotation - cart. axis [1,0,0]

[...]

      isym =  5     inv. 180 deg rotation - cryst. axis [0,1,0]

[...]

      isym =  6     inv. 180 deg rotation - cryst. axis [1,1,0]

 cryst.   s( 6) = (     0         -1          0      )
                  (    -1          0          0      )
                  (     0          0          1      )

 cart.    s( 6) = (  0.5000000 -0.8660254  0.0000000 )
                  ( -0.8660254 -0.5000000  0.0000000 )
                  (  0.0000000  0.0000000  1.0000000 )

   Cartesian axes

     site n.     atom                  positions (alat units)
         1           Zn  tau(   1) = (   0.2500000   0.1443376   0.4121830  )
         2           Zn  tau(   2) = (  -0.0000000   0.2886751   0.0005216  )
         3           O   tau(   3) = (   0.2500000   0.1443376   0.7242576  )
         4           O   tau(   4) = (  -0.0000000   0.2886751   0.3125962  )
         5           Zn  tau(   5) = (   0.0000000   0.5773503   0.4121830  )
         6           Zn  tau(   6) = (  -0.2500000   0.7216878   0.0005216  )
         7           O   tau(   7) = (   0.0000000   0.5773503   0.7242576  )
         8           O   tau(   8) = (  -0.2500000   0.7216878   0.3125962  )
         9           Zn  tau(   9) = (   0.7500000   0.1443376   0.4121830  )
        10           Zn  tau(  10) = (   0.5000000   0.2886751   0.0005216  )
        11           O   tau(  11) = (   0.7500000   0.1443376   0.7242576  )
        12           O   tau(  12) = (   0.5000000   0.2886751   0.3125962  )
        13           Zn  tau(  13) = (   0.5000000   0.5773503   0.4121830  )
        14           Zn  tau(  14) = (   0.2500000   0.7216878   0.0005216  )
        15           O   tau(  15) = (   0.5000000   0.5773503   0.7242576  )
        16           O   tau(  16) = (   0.2500000   0.7216878   0.3125962  )

   Crystallographic axes

     site n.     atom                  positions (cryst. coord.)
         1           Zn  tau(   1) = (  0.3333333  0.1666667  0.5006336  )
         2           Zn  tau(   2) = (  0.1666667  0.3333333  0.0006336  )
         3           O   tau(   3) = (  0.3333333  0.1666667  0.8796764  )
         4           O   tau(   4) = (  0.1666667  0.3333333  0.3796764  )
         5           Zn  tau(   5) = (  0.3333333  0.6666667  0.5006336  )
         6           Zn  tau(   6) = (  0.1666667  0.8333333  0.0006336  )
         7           O   tau(   7) = (  0.3333333  0.6666667  0.8796764  )
         8           O   tau(   8) = (  0.1666667  0.8333333  0.3796764  )
         9           Zn  tau(   9) = (  0.8333333  0.1666667  0.5006336  )
        10           Zn  tau(  10) = (  0.6666667  0.3333333  0.0006336  )
        11           O   tau(  11) = (  0.8333333  0.1666667  0.8796764  )
        12           O   tau(  12) = (  0.6666667  0.3333333  0.3796764  )
        13           Zn  tau(  13) = (  0.8333333  0.6666667  0.5006336  )
        14           Zn  tau(  14) = (  0.6666667  0.8333333  0.0006336  )
        15           O   tau(  15) = (  0.8333333  0.6666667  0.8796764  )
        16           O   tau(  16) = (  0.6666667  0.8333333  0.3796764  )

     number of k points=    34
                       cart. coord. in units 2pi/alat
        k(    1) = (   0.0000000   0.0000000   0.0000000), wk =   0.0092593
        k(    2) = (   0.0000000   0.0000000   0.2024317), wk =   0.0185185
        k(    3) = (   0.0000000   0.0000000   0.4048635), wk =   0.0185185
        k(    4) = (   0.0000000   0.0000000  -0.6072952), wk =   0.0092593
        k(    5) = (   0.0000000   0.1924501   0.0000000), wk =   0.0555556
        k(    6) = (   0.0000000   0.1924501   0.2024317), wk =   0.0555556
        k(    7) = (   0.0000000   0.1924501   0.4048635), wk =   0.0555556
        k(    8) = (   0.0000000   0.1924501  -0.6072952), wk =   0.0555556
        k(    9) = (   0.0000000   0.3849002   0.0000000), wk =   0.0555556
        k(   10) = (   0.0000000   0.3849002   0.2024317), wk =   0.0555556
        k(   11) = (   0.0000000   0.3849002   0.4048635), wk =   0.0555556
        k(   12) = (   0.0000000   0.3849002  -0.6072952), wk =   0.0555556
        k(   13) = (   0.0000000  -0.5773503   0.0000000), wk =   0.0277778
        k(   14) = (   0.0000000  -0.5773503   0.2024317), wk =   0.0555556
        k(   15) = (   0.0000000  -0.5773503   0.4048635), wk =   0.0555556
        k(   16) = (   0.0000000  -0.5773503  -0.6072952), wk =   0.0277778
        k(   17) = (   0.1666667   0.2886751   0.0000000), wk =   0.0555556
        k(   18) = (   0.1666667   0.2886751   0.2024317), wk =   0.1111111
        k(   19) = (   0.1666667   0.2886751   0.4048635), wk =   0.1111111
        k(   20) = (   0.1666667   0.2886751  -0.6072952), wk =   0.0555556
        k(   21) = (   0.1666667   0.4811252   0.0000000), wk =   0.1111111
        k(   22) = (   0.1666667   0.4811252   0.2024317), wk =   0.1111111
        k(   23) = (   0.1666667   0.4811252   0.4048635), wk =   0.1111111
        k(   24) = (   0.1666667   0.4811252  -0.6072952), wk =   0.1111111
        k(   25) = (   0.3333333   0.5773503   0.0000000), wk =   0.0185185
        k(   26) = (   0.3333333   0.5773503   0.2024317), wk =   0.0370370
        k(   27) = (   0.3333333   0.5773503   0.4048635), wk =   0.0370370
        k(   28) = (   0.3333333   0.5773503  -0.6072952), wk =   0.0185185
        k(   29) = (   0.0000000  -0.1924501   0.2024317), wk =   0.0555556
        k(   30) = (   0.0000000  -0.1924501   0.4048635), wk =   0.0555556
        k(   31) = (   0.0000000  -0.3849002   0.2024317), wk =   0.0555556
        k(   32) = (   0.0000000  -0.3849002   0.4048635), wk =   0.0555556
        k(   33) = (  -0.1666667  -0.4811252   0.2024317), wk =   0.1111111
        k(   34) = (  -0.1666667  -0.4811252   0.4048635), wk =   0.1111111

                       cryst. coord.
        k(    1) = (   0.0000000   0.0000000   0.0000000), wk =   0.0092593
        k(    2) = (   0.0000000   0.0000000   0.1666667), wk =   0.0185185
        k(    3) = (   0.0000000   0.0000000   0.3333333), wk =   0.0185185
        k(    4) = (   0.0000000   0.0000000  -0.5000000), wk =   0.0092593
        k(    5) = (   0.0000000   0.1666667   0.0000000), wk =   0.0555556
        k(    6) = (   0.0000000   0.1666667   0.1666667), wk =   0.0555556
        k(    7) = (   0.0000000   0.1666667   0.3333333), wk =   0.0555556
        k(    8) = (   0.0000000   0.1666667  -0.5000000), wk =   0.0555556
        k(    9) = (   0.0000000   0.3333333   0.0000000), wk =   0.0555556
        k(   10) = (   0.0000000   0.3333333   0.1666667), wk =   0.0555556
        k(   11) = (   0.0000000   0.3333333   0.3333333), wk =   0.0555556
        k(   12) = (   0.0000000   0.3333333  -0.5000000), wk =   0.0555556
        k(   13) = (   0.0000000  -0.5000000   0.0000000), wk =   0.0277778
        k(   14) = (   0.0000000  -0.5000000   0.1666667), wk =   0.0555556
        k(   15) = (   0.0000000  -0.5000000   0.3333333), wk =   0.0555556
[...]
        k(   28) = (   0.3333333   0.3333333  -0.5000000), wk =   0.0185185
        k(   29) = (   0.0000000  -0.1666667   0.1666667), wk =   0.0555556
        k(   30) = (   0.0000000  -0.1666667   0.3333333), wk =   0.0555556
        k(   31) = (   0.0000000  -0.3333333   0.1666667), wk =   0.0555556
        k(   32) = (   0.0000000  -0.3333333   0.3333333), wk =   0.0555556
        k(   33) = (  -0.1666667  -0.3333333   0.1666667), wk =   0.1111111
        k(   34) = (  -0.1666667  -0.3333333   0.3333333), wk =   0.1111111

     Check: negative core charge=   -0.000002

     Initial potential from superposition of free atoms

     starting charge     143.9702, renormalised to     144.0000
     Starting wfcs are  104 randomized atomic wfcs

     Self-consistent Calculation

     iteration #  1     ecut=    50.00 Ry     beta= 0.30
     Davidson diagonalization with overlap

     ethr =  1.00E-02,  avg # of iterations =  2.0

     total energy              =   -1445.84516864 Ry
     estimated scf accuracy    <       2.88882917 Ry

[...]

     c_bands:  2 eigenvalues not converged
     c_bands:  1 eigenvalues not converged
     c_bands:  1 eigenvalues not converged
     ethr =  1.60E-08,  avg # of iterations = 14.5

[...]

     c_bands:  1 eigenvalues not converged
     c_bands:  1 eigenvalues not converged
     ethr =  1.60E-08,  avg # of iterations = 15.9

[...]

     total energy              =   -1446.52002044 Ry
     estimated scf accuracy    <       0.00000024 Ry

     iteration # 28     ecut=    50.00 Ry     beta= 0.30
     Davidson diagonalization with overlap

     ethr =  2.42E-11,  avg # of iterations =  8.5

     End of self-consistent calculation

          k = 0.0000 0.0000 0.0000 (  8549 PWs)   bands (ev):

   -11.5305 -10.9853 -10.9771 -10.9771 -10.9771 -10.8105 -10.8105 -10.8105
     0.3978   0.3978   0.3978   0.5122   0.5122   0.5528   0.6313   0.6313
     0.6313   0.6631   0.6631   0.7320   0.7320   0.7320   0.8364   1.0641
     1.0641   1.0641   1.1510   1.1510   1.1510   1.1801   1.1801   1.1801
     1.4240   1.4240   1.4717   1.4717   1.4717   1.5578   1.5578   1.5578
     1.5765   1.5765   1.6154   1.6154   1.6154   1.6801   1.6801   1.6801
     1.8657   2.1612   2.1612   2.1612   2.5287   2.5287   2.5287   3.2804
     3.2804   3.2804   3.9167   3.9167   3.9167   4.6496   4.6496   4.6496
     5.0603   5.0603   5.0603   5.1607   5.1607   5.6912   5.7954   5.7954

     occupation numbers
     1.0000   1.0000   1.0000   1.0000   1.0000   1.0000   1.0000   1.0000
     1.0000   1.0000   1.0000   1.0000   1.0000   1.0000   1.0000   1.0000
     1.0000   1.0000   1.0000   1.0000   1.0000   1.0000   1.0000   1.0000
     1.0000   1.0000   1.0000   1.0000   1.0000   1.0000   1.0000   1.0000
     1.0000   1.0000   1.0000   1.0000   1.0000   1.0000   1.0000   1.0000
     1.0000   1.0000   1.0000   1.0000   1.0000   1.0000   1.0000   1.0000
     1.0000   1.0000   1.0000   1.0000   1.0000   1.0000   1.0000   1.0000
     1.0000   1.0000   1.0000   1.0000   1.0000   1.0000   1.0000   1.0000
     1.0000   1.0000   1.0000   1.0000   1.0000   1.0000   1.0000   1.0000

[...]

          k = 0.0000-0.3849 0.4049 (  8526 PWs)   bands (ev):

[...]

          k =-0.1667-0.4811 0.2024 (  8535 PWs)   bands (ev):

[...]

          k =-0.1667-0.4811 0.4049 (  8523 PWs)   bands (ev):

   -11.2232 -11.1086 -11.0201 -11.0056 -10.9338 -10.8845 -10.8798 -10.8347
     0.3143   0.3399   0.3902   0.4327   0.4401   0.4705   0.5417   0.6366
     0.6519   0.6769   0.7183   0.7452   0.7566   0.7825   0.7873   0.7899
     0.8264   0.8758   0.8963   0.9217   0.9244   0.9732   1.1166   1.1435
     1.4471   1.4479   1.4546   1.4555   1.4732   1.4924   1.4974   1.5294
     1.5517   1.5622   1.5896   1.5903   1.6225   1.6727   1.7194   1.8061
     2.2454   2.4431   2.6164   2.7946   2.9066   2.9925   3.1979   3.2813
     3.7779   3.9515   3.9639   4.0025   4.0699   4.3141   4.3700   4.5129
     4.6407   4.6997   4.8290   4.9389   4.9641   5.0418   5.1188   5.2566

     occupation numbers
     1.0000   1.0000   1.0000   1.0000   1.0000   1.0000   1.0000   1.0000
     1.0000   1.0000   1.0000   1.0000   1.0000   1.0000   1.0000   1.0000
     1.0000   1.0000   1.0000   1.0000   1.0000   1.0000   1.0000   1.0000
     1.0000   1.0000   1.0000   1.0000   1.0000   1.0000   1.0000   1.0000
     1.0000   1.0000   1.0000   1.0000   1.0000   1.0000   1.0000   1.0000
     1.0000   1.0000   1.0000   1.0000   1.0000   1.0000   1.0000   1.0000
     1.0000   1.0000   1.0000   1.0000   1.0000   1.0000   1.0000   1.0000
     1.0000   1.0000   1.0000   1.0000   1.0000   1.0000   1.0000   1.0000
     1.0000   1.0000   1.0000   1.0000   1.0000   1.0000   1.0000   1.0000

     highest occupied level (ev):     5.7954

!    total energy              =   -1446.52002049 Ry
     estimated scf accuracy    <          1.4E-10 Ry

     The total energy is the sum of the following terms:
     one-electron contribution =    -653.99450989 Ry
     hartree contribution      =     485.98042876 Ry
     xc contribution           =    -437.56233140 Ry
     ewald contribution        =    -840.94360797 Ry

     convergence has been achieved in  28 iterations

     Forces acting on atoms (cartesian axes, Ry/au):

     atom    1 type  1   force =    -0.00000095   -0.00000055    0.00276287
     atom    2 type  1   force =     0.00000000   -0.00000229    0.00276236
     atom    3 type  2   force =     0.00000013    0.00000008   -0.00276256
     atom    4 type  2   force =     0.00000000    0.00000013   -0.00276238
     atom    5 type  1   force =     0.00000000   -0.00000000    0.00276182
     atom    6 type  1   force =    -0.00000198    0.00000114    0.00276236
     atom    7 type  2   force =     0.00000000   -0.00000000   -0.00276269
     atom    8 type  2   force =     0.00000011   -0.00000006   -0.00276238
     atom    9 type  1   force =     0.00000095   -0.00000055    0.00276287
     atom   10 type  1   force =     0.00000000    0.00000000    0.00276238
     atom   11 type  2   force =    -0.00000013    0.00000008   -0.00276256
     atom   12 type  2   force =     0.00000000   -0.00000000   -0.00276238
     atom   13 type  1   force =     0.00000000    0.00000110    0.00276287
     atom   14 type  1   force =     0.00000198    0.00000114    0.00276236
     atom   15 type  2   force =     0.00000000   -0.00000016   -0.00276256
     atom   16 type  2   force =    -0.00000011   -0.00000006   -0.00276238
     The non-local contrib.  to forces
     atom    1 type  1   force =    -0.00000097   -0.00000056    0.04910070
     atom    2 type  1   force =     0.00000000   -0.00000140    0.04910051
     atom    3 type  2   force =     0.00000028    0.00000016    0.05542718
     atom    4 type  2   force =     0.00000000    0.00000058    0.05542692
     atom    5 type  1   force =     0.00000000   -0.00000000    0.04910037
     atom    6 type  1   force =    -0.00000122    0.00000070    0.04910051
     atom    7 type  2   force =     0.00000000    0.00000000    0.05542667
     atom    8 type  2   force =     0.00000051   -0.00000029    0.05542692
     atom    9 type  1   force =     0.00000097   -0.00000056    0.04910070
     atom   10 type  1   force =     0.00000000    0.00000000    0.04909982
     atom   11 type  2   force =    -0.00000028    0.00000016    0.05542718
     atom   12 type  2   force =     0.00000000   -0.00000000    0.05542717
     atom   13 type  1   force =     0.00000000    0.00000112    0.04910070
     atom   14 type  1   force =     0.00000122    0.00000070    0.04910051
     atom   15 type  2   force =     0.00000000   -0.00000033    0.05542718
     atom   16 type  2   force =    -0.00000051   -0.00000029    0.05542692
     The ionic contribution  to forces
     atom    1 type  1   force =     0.00000000    0.00000001    0.44698223
     atom    2 type  1   force =     0.00000001    0.00000000    0.44698223
     atom    3 type  2   force =     0.00000000    0.00000000   -0.44698223
     atom    4 type  2   force =     0.00000001    0.00000000   -0.44698223
     atom    5 type  1   force =     0.00000000    0.00000001    0.44698223
     atom    6 type  1   force =     0.00000001    0.00000000    0.44698223
     atom    7 type  2   force =     0.00000000    0.00000000   -0.44698223
     atom    8 type  2   force =     0.00000001    0.00000000   -0.44698223
     atom    9 type  1   force =    -0.00000002   -0.00000000    0.44698223
     atom   10 type  1   force =     0.00000000   -0.00000001    0.44698223
     atom   11 type  2   force =    -0.00000001    0.00000000   -0.44698223
     atom   12 type  2   force =     0.00000000   -0.00000001   -0.44698223
     atom   13 type  1   force =    -0.00000002   -0.00000000    0.44698223
     atom   14 type  1   force =     0.00000000   -0.00000001    0.44698223
     atom   15 type  2   force =    -0.00000001    0.00000000   -0.44698223
     atom   16 type  2   force =     0.00000000   -0.00000001   -0.44698223
     The local contribution  to forces
     atom    1 type  1   force =     0.00000220    0.00000137   -0.49006469
     atom    2 type  1   force =     0.00000009    0.00000434   -0.49006422
     atom    3 type  2   force =     0.00000059    0.00000037    0.38927321
     atom    4 type  2   force =     0.00000002    0.00000056    0.38927268
     atom    5 type  1   force =    -0.00000000    0.00000010   -0.49006209
     atom    6 type  1   force =     0.00000380   -0.00000209   -0.49006422
     atom    7 type  2   force =    -0.00000000    0.00000003    0.38927316
     atom    8 type  2   force =     0.00000050   -0.00000026    0.38927268
     atom    9 type  1   force =    -0.00000238    0.00000137   -0.49006469
     atom   10 type  1   force =     0.00000009    0.00000005   -0.49006233
     atom   11 type  2   force =    -0.00000064    0.00000037    0.38927321
     atom   12 type  2   force =     0.00000002    0.00000001    0.38927193
     atom   13 type  1   force =    -0.00000017   -0.00000244   -0.49006469
     atom   14 type  1   force =    -0.00000362   -0.00000209   -0.49006422
     atom   15 type  2   force =    -0.00000005   -0.00000065    0.38927321
     atom   16 type  2   force =    -0.00000045   -0.00000026    0.38927268
     The core correction contribution to forces
     atom    1 type  1   force =     0.00000015    0.00000010   -0.00325554
     atom    2 type  1   force =     0.00000001    0.00000015   -0.00325553
     atom    3 type  2   force =     0.00000000    0.00000000   -0.00047789
     atom    4 type  2   force =    -0.00000000    0.00000000   -0.00047789
     atom    5 type  1   force =    -0.00000000    0.00000001   -0.00325565
     atom    6 type  1   force =     0.00000014   -0.00000007   -0.00325553
     atom    7 type  2   force =    -0.00000000   -0.00000000   -0.00047789
     atom    8 type  2   force =     0.00000000   -0.00000000   -0.00047789
     atom    9 type  1   force =    -0.00000018    0.00000010   -0.00325554
     atom   10 type  1   force =     0.00000001    0.00000001   -0.00325562
     atom   11 type  2   force =    -0.00000000    0.00000000   -0.00047789
     atom   12 type  2   force =    -0.00000000   -0.00000000   -0.00047790
     atom   13 type  1   force =    -0.00000002   -0.00000017   -0.00325554
     atom   14 type  1   force =    -0.00000011   -0.00000007   -0.00325553
     atom   15 type  2   force =     0.00000000   -0.00000001   -0.00047789
     atom   16 type  2   force =    -0.00000000   -0.00000000   -0.00047789
     The Hubbard contrib.    to forces
     atom    1 type  1   force =     0.00000000    0.00000000    0.00000000
     atom    2 type  1   force =     0.00000000    0.00000000    0.00000000
     atom    3 type  2   force =     0.00000000    0.00000000    0.00000000
     atom    4 type  2   force =     0.00000000    0.00000000    0.00000000
     atom    5 type  1   force =     0.00000000    0.00000000    0.00000000
     atom    6 type  1   force =     0.00000000    0.00000000    0.00000000
     atom    7 type  2   force =     0.00000000    0.00000000    0.00000000
     atom    8 type  2   force =     0.00000000    0.00000000    0.00000000
     atom    9 type  1   force =     0.00000000    0.00000000    0.00000000
     atom   10 type  1   force =     0.00000000    0.00000000    0.00000000
     atom   11 type  2   force =     0.00000000    0.00000000    0.00000000
     atom   12 type  2   force =     0.00000000    0.00000000    0.00000000
     atom   13 type  1   force =     0.00000000    0.00000000    0.00000000
     atom   14 type  1   force =     0.00000000    0.00000000    0.00000000
     atom   15 type  2   force =     0.00000000    0.00000000    0.00000000
     atom   16 type  2   force =     0.00000000    0.00000000    0.00000000
     The SCF correction term to forces
     atom    1 type  1   force =    -0.00000240   -0.00000139    0.00000150
     atom    2 type  1   force =     0.00000000   -0.00000532    0.00000070
     atom    3 type  2   force =    -0.00000076   -0.00000044   -0.00000151
     atom    4 type  2   force =     0.00000000   -0.00000101   -0.00000055
     atom    5 type  1   force =     0.00000000    0.00000000   -0.00000172
     atom    6 type  1   force =    -0.00000460    0.00000266    0.00000070
     atom    7 type  2   force =     0.00000000    0.00000000   -0.00000108
     atom    8 type  2   force =    -0.00000088    0.00000051   -0.00000055
     atom    9 type  1   force =     0.00000240   -0.00000139    0.00000150
     atom   10 type  1   force =     0.00000000    0.00000000   -0.00000040
     atom   11 type  2   force =     0.00000076   -0.00000044   -0.00000151
     atom   12 type  2   force =     0.00000000   -0.00000000   -0.00000004
     atom   13 type  1   force =    -0.00000000    0.00000277    0.00000150
     atom   14 type  1   force =     0.00000460    0.00000266    0.00000070
     atom   15 type  2   force =    -0.00000000    0.00000088   -0.00000151
     atom   16 type  2   force =     0.00000088    0.00000051   -0.00000055

     Total force =     0.011050     Total SCF correction =     0.000012

     General routines

     Parallel routines

   This run was terminated on:  21:36:39  23Aug2025

   JOB DONE.
Note: The following floating-point exceptions are signalling: IEEE_INVALID_FLAG
Note: The following floating-point exceptions are signalling: IEEE_INVALID_FLAG
Note: The following floating-point exceptions are signalling: IEEE_INVALID_FLAG
Note: The following floating-point exceptions are signalling: IEEE_INVALID_FLAG
Note: The following floating-point exceptions are signalling: IEEE_INVALID_FLAG
Note: The following floating-point exceptions are signalling: IEEE_INVALID_FLAG
Note: The following floating-point exceptions are signalling: IEEE_INVALID_FLAG
Note: The following floating-point exceptions are signalling: IEEE_INVALID_FLAG
Note: The following floating-point exceptions are signalling: IEEE_INVALID_FLAG
Note: The following floating-point exceptions are signalling: IEEE_INVALID_FLAG
Note: The following floating-point exceptions are signalling: IEEE_INVALID_FLAG
Note: The following floating-point exceptions are signalling: IEEE_INVALID_FLAG
Note: The following floating-point exceptions are signalling: IEEE_INVALID_FLAG
Note: The following floating-point exceptions are signalling: IEEE_INVALID_FLAG
Note: The following floating-point exceptions are signalling: IEEE_INVALID_FLAG
Note: The following floating-point exceptions are signalling: IEEE_INVALID_FLAG
Note: The following floating-point exceptions are signalling: IEEE_INVALID_FLAG
Note: The following floating-point exceptions are signalling: IEEE_INVALID_FLAG
Note: The following floating-point exceptions are signalling: IEEE_INVALID_FLAG
Note: The following floating-point exceptions are signalling: IEEE_INVALID_FLAG
Note: The following floating-point exceptions are signalling: IEEE_INVALID_FLAG
Note: The following floating-point exceptions are signalling: IEEE_INVALID_FLAG
Note: The following floating-point exceptions are signalling: IEEE_INVALID_FLAG
Note: The following floating-point exceptions are signalling: IEEE_INVALID_FLAG
Note: The following floating-point exceptions are signalling: IEEE_INVALID_FLAG
Note: The following floating-point exceptions are signalling: IEEE_INVALID_FLAG
Note: The following floating-point exceptions are signalling: IEEE_INVALID_FLAG
Note: The following floating-point exceptions are signalling: IEEE_INVALID_FLAG
Note: The following floating-point exceptions are signalling: IEEE_INVALID_FLAG
Note: The following floating-point exceptions are signalling: IEEE_INVALID_FLAG
Note: The following floating-point exceptions are signalling: IEEE_INVALID_FLAG
Note: The following floating-point exceptions are signalling: IEEE_INVALID_FLAG