     Program PWSCF v.7.2 starts on 23Aug2025 at 15:17:10

     Reading input from /home/jvc/QEspresso7.2/ZnO_database/scripts/cell221.in/ZnO-2.94-1.68-221.in
Warning: card &CELL ignored
Warning: card / ignored
Warning: card &FCP ignored
Warning: card / ignored
Warning: card &RISM ignored
Warning: card / ignored

     Current dimensions of program PWSCF are:
     Max number of different atomic species (ntypx) = 10
     Max number of k-points (npk) =  40000
     Max angular momentum in pseudopotentials (lmaxx) =  4
     file Zn.upf: wavefunction(s)  3D renormalized
     Found identity + ( -0.0000 -0.5000  0.0000) symmetry
     This is a supercell, fractional translations are disabled
     Message from routine setup:
     using ibrav=0 with symmetry is DISCOURAGED, use correct ibrav instead

     K-points division:     npool     =       8
     band groups division:  nbgrp     =       4
     Subspace diagonalization in iterative solution of the eigenvalue problem:
     a serial algorithm will be used

     Using Slab Decomposition

     bravais-lattice index     =            0
     lattice parameter (alat)  =      11.1219  a.u.
     unit-cell volume          =    1000.1732 (a.u.)^3
     number of atoms/cell      =           16
     number of atomic types    =            2
     number of electrons       =       144.00
     number of Kohn-Sham states=           72
     kinetic-energy cutoff     =      50.0000  Ry
     charge density cutoff     =     400.0000  Ry
     scf convergence threshold =      1.0E-08
     mixing beta               =       0.3000
     number of iterations used =            8  plain     mixing
     Exchange-correlation= PBE
                           (   1   4   3   4   0   0   0)

     celldm(1)=  11.121937  celldm(2)=   0.000000  celldm(3)=   0.000000
     celldm(4)=   0.000000  celldm(5)=   0.000000  celldm(6)=   0.000000

     crystal axes: (cart. coord. in units of alat)
               a(1) = (   1.000000   0.000000   0.000000 )
               a(2) = (  -0.500000   0.866025   0.000000 )
               a(3) = (   0.000000   0.000000   0.839466 )

     reciprocal axes: (cart. coord. in units 2 pi/alat)
               b(1) = (  1.000000  0.577350 -0.000000 )
               b(2) = (  0.000000  1.154701  0.000000 )
               b(3) = (  0.000000 -0.000000  1.191233 )

     PseudoPot. # 1 for Zn read from file:
     /home/jvc/QEspresso7.2/ZnO_database/pseudos/Zn.upf
     MD5 check sum: 7f56cabf9682ed8c977c2f7d0c5985c5
     Pseudo is Ultrasoft + core correction, Zval = 12.0
     Generated using &quot;atomic&quot; code by A. Dal Corso  v.6.2.2
     Using radial grid of 1201 points,  6 beta functions with:
                l(1) =   0
                l(2) =   0
                l(3) =   1
                l(4) =   1
                l(5) =   2
                l(6) =   2
     Q(r) pseudized with 0 coefficients

     PseudoPot. # 2 for O  read from file:
     /home/jvc/QEspresso7.2/ZnO_database/pseudos/O.upf
     MD5 check sum: 91400c9766925bcf19f520983a725ff0
     Pseudo is Ultrasoft + core correction, Zval =  6.0
     Generated using &quot;atomic&quot; code by A. Dal Corso  v.6.3MaX
     Using radial grid of 1095 points,  4 beta functions with:
                l(1) =   0
                l(2) =   0
                l(3) =   1
                l(4) =   1
     Q(r) pseudized with 0 coefficients

     atomic species   valence    mass     pseudopotential
        Zn            12.00    65.38000     Zn( 1.00)
        O              6.00    15.99900     O ( 1.00)

      6 Sym. Ops. (no inversion) found

                                    s                        frac. trans.

      isym =  1     identity

 cryst.   s( 1) = (     1          0          0      )
                  (     0          1          0      )
                  (     0          0          1      )

 cart.    s( 1) = (  1.0000000  0.0000000  0.0000000 )
                  (  0.0000000  1.0000000  0.0000000 )
                  (  0.0000000  0.0000000  1.0000000 )

      isym =  2     120 deg rotation - cryst. axis [0,0,1]

[...]

      isym =  3     120 deg rotation - cryst. axis [0,0,-1]

[...]

      isym =  4     inv. 180 deg rotation - cart. axis [1,0,0]

[...]

      isym =  5     inv. 180 deg rotation - cryst. axis [0,1,0]

[...]

      isym =  6     inv. 180 deg rotation - cryst. axis [1,1,0]

 cryst.   s( 6) = (     0         -1          0      )
                  (    -1          0          0      )
                  (     0          0          1      )

 cart.    s( 6) = (  0.5000000 -0.8660254  0.0000000 )
                  ( -0.8660254 -0.5000000  0.0000000 )
                  (  0.0000000  0.0000000  1.0000000 )

   Cartesian axes

     site n.     atom                  positions (alat units)
         1           Zn  tau(   1) = (   0.2500000   0.1443376   0.4202650  )
         2           Zn  tau(   2) = (  -0.0000000   0.2886751   0.0005319  )
         3           O   tau(   3) = (   0.2500000   0.1443376   0.7384587  )
         4           O   tau(   4) = (  -0.0000000   0.2886751   0.3187256  )
         5           Zn  tau(   5) = (   0.0000000   0.5773503   0.4202650  )
         6           Zn  tau(   6) = (  -0.2500000   0.7216878   0.0005319  )
         7           O   tau(   7) = (   0.0000000   0.5773503   0.7384587  )
         8           O   tau(   8) = (  -0.2500000   0.7216878   0.3187256  )
         9           Zn  tau(   9) = (   0.7500000   0.1443376   0.4202650  )
        10           Zn  tau(  10) = (   0.5000000   0.2886751   0.0005319  )
        11           O   tau(  11) = (   0.7500000   0.1443376   0.7384587  )
        12           O   tau(  12) = (   0.5000000   0.2886751   0.3187256  )
        13           Zn  tau(  13) = (   0.5000000   0.5773503   0.4202650  )
        14           Zn  tau(  14) = (   0.2500000   0.7216878   0.0005319  )
        15           O   tau(  15) = (   0.5000000   0.5773503   0.7384587  )
        16           O   tau(  16) = (   0.2500000   0.7216878   0.3187256  )

   Crystallographic axes

     site n.     atom                  positions (cryst. coord.)
         1           Zn  tau(   1) = (  0.3333333  0.1666667  0.5006336  )
         2           Zn  tau(   2) = (  0.1666667  0.3333333  0.0006336  )
         3           O   tau(   3) = (  0.3333333  0.1666667  0.8796764  )
         4           O   tau(   4) = (  0.1666667  0.3333333  0.3796764  )
         5           Zn  tau(   5) = (  0.3333333  0.6666667  0.5006336  )
         6           Zn  tau(   6) = (  0.1666667  0.8333333  0.0006336  )
         7           O   tau(   7) = (  0.3333333  0.6666667  0.8796764  )
         8           O   tau(   8) = (  0.1666667  0.8333333  0.3796764  )
         9           Zn  tau(   9) = (  0.8333333  0.1666667  0.5006336  )
        10           Zn  tau(  10) = (  0.6666667  0.3333333  0.0006336  )
        11           O   tau(  11) = (  0.8333333  0.1666667  0.8796764  )
        12           O   tau(  12) = (  0.6666667  0.3333333  0.3796764  )
        13           Zn  tau(  13) = (  0.8333333  0.6666667  0.5006336  )
        14           Zn  tau(  14) = (  0.6666667  0.8333333  0.0006336  )
        15           O   tau(  15) = (  0.8333333  0.6666667  0.8796764  )
        16           O   tau(  16) = (  0.6666667  0.8333333  0.3796764  )

     number of k points=    34
                       cart. coord. in units 2pi/alat
        k(    1) = (   0.0000000   0.0000000   0.0000000), wk =   0.0092593
        k(    2) = (   0.0000000   0.0000000   0.1985388), wk =   0.0185185
        k(    3) = (   0.0000000   0.0000000   0.3970777), wk =   0.0185185
        k(    4) = (   0.0000000   0.0000000  -0.5956165), wk =   0.0092593
        k(    5) = (   0.0000000   0.1924501   0.0000000), wk =   0.0555556
        k(    6) = (   0.0000000   0.1924501   0.1985388), wk =   0.0555556
        k(    7) = (   0.0000000   0.1924501   0.3970777), wk =   0.0555556
        k(    8) = (   0.0000000   0.1924501  -0.5956165), wk =   0.0555556
        k(    9) = (   0.0000000   0.3849002   0.0000000), wk =   0.0555556
        k(   10) = (   0.0000000   0.3849002   0.1985388), wk =   0.0555556
        k(   11) = (   0.0000000   0.3849002   0.3970777), wk =   0.0555556
        k(   12) = (   0.0000000   0.3849002  -0.5956165), wk =   0.0555556
        k(   13) = (   0.0000000  -0.5773503   0.0000000), wk =   0.0277778
        k(   14) = (   0.0000000  -0.5773503   0.1985388), wk =   0.0555556
        k(   15) = (   0.0000000  -0.5773503   0.3970777), wk =   0.0555556
        k(   16) = (   0.0000000  -0.5773503  -0.5956165), wk =   0.0277778
        k(   17) = (   0.1666667   0.2886751   0.0000000), wk =   0.0555556
        k(   18) = (   0.1666667   0.2886751   0.1985388), wk =   0.1111111
        k(   19) = (   0.1666667   0.2886751   0.3970777), wk =   0.1111111
        k(   20) = (   0.1666667   0.2886751  -0.5956165), wk =   0.0555556
        k(   21) = (   0.1666667   0.4811252   0.0000000), wk =   0.1111111
        k(   22) = (   0.1666667   0.4811252   0.1985388), wk =   0.1111111
        k(   23) = (   0.1666667   0.4811252   0.3970777), wk =   0.1111111
        k(   24) = (   0.1666667   0.4811252  -0.5956165), wk =   0.1111111
        k(   25) = (   0.3333333   0.5773503   0.0000000), wk =   0.0185185
        k(   26) = (   0.3333333   0.5773503   0.1985388), wk =   0.0370370
        k(   27) = (   0.3333333   0.5773503   0.3970777), wk =   0.0370370
        k(   28) = (   0.3333333   0.5773503  -0.5956165), wk =   0.0185185
        k(   29) = (   0.0000000  -0.1924501   0.1985388), wk =   0.0555556
        k(   30) = (   0.0000000  -0.1924501   0.3970777), wk =   0.0555556
        k(   31) = (   0.0000000  -0.3849002   0.1985388), wk =   0.0555556
        k(   32) = (   0.0000000  -0.3849002   0.3970777), wk =   0.0555556
        k(   33) = (  -0.1666667  -0.4811252   0.1985388), wk =   0.1111111
        k(   34) = (  -0.1666667  -0.4811252   0.3970777), wk =   0.1111111

                       cryst. coord.
        k(    1) = (   0.0000000   0.0000000   0.0000000), wk =   0.0092593
        k(    2) = (   0.0000000   0.0000000   0.1666667), wk =   0.0185185
        k(    3) = (   0.0000000   0.0000000   0.3333333), wk =   0.0185185
        k(    4) = (   0.0000000   0.0000000  -0.5000000), wk =   0.0092593
        k(    5) = (   0.0000000   0.1666667   0.0000000), wk =   0.0555556
        k(    6) = (   0.0000000   0.1666667   0.1666667), wk =   0.0555556
        k(    7) = (   0.0000000   0.1666667   0.3333333), wk =   0.0555556
        k(    8) = (   0.0000000   0.1666667  -0.5000000), wk =   0.0555556
        k(    9) = (   0.0000000   0.3333333   0.0000000), wk =   0.0555556
        k(   10) = (   0.0000000   0.3333333   0.1666667), wk =   0.0555556
        k(   11) = (   0.0000000   0.3333333   0.3333333), wk =   0.0555556
        k(   12) = (   0.0000000   0.3333333  -0.5000000), wk =   0.0555556
        k(   13) = (   0.0000000  -0.5000000   0.0000000), wk =   0.0277778
        k(   14) = (   0.0000000  -0.5000000   0.1666667), wk =   0.0555556
        k(   15) = (   0.0000000  -0.5000000   0.3333333), wk =   0.0555556
[...]
        k(   23) = (   0.1666667   0.3333333   0.3333333), wk =   0.1111111
        k(   24) = (   0.1666667   0.3333333  -0.5000000), wk =   0.1111111
        k(   25) = (   0.3333333   0.3333333   0.0000000), wk =   0.0185185
        k(   26) = (   0.3333333   0.3333333   0.1666667), wk =   0.0370370
        k(   27) = (   0.3333333   0.3333333   0.3333333), wk =   0.0370370
        k(   28) = (   0.3333333   0.3333333  -0.5000000), wk =   0.0185185
        k(   29) = (   0.0000000  -0.1666667   0.1666667), wk =   0.0555556
        k(   30) = (   0.0000000  -0.1666667   0.3333333), wk =   0.0555556
        k(   31) = (   0.0000000  -0.3333333   0.1666667), wk =   0.0555556
        k(   32) = (   0.0000000  -0.3333333   0.3333333), wk =   0.0555556
        k(   33) = (  -0.1666667  -0.3333333   0.1666667), wk =   0.1111111
        k(   34) = (  -0.1666667  -0.3333333   0.3333333), wk =   0.1111111

     Check: negative core charge=   -0.000001

     Initial potential from superposition of free atoms

     starting charge     143.9702, renormalised to     144.0000
     Starting wfcs are  104 randomized atomic wfcs

     Self-consistent Calculation

     iteration #  1     ecut=    50.00 Ry     beta= 0.30
     Davidson diagonalization with overlap

     ethr =  1.00E-02,  avg # of iterations =  2.1

     total energy              =   -1445.39639549 Ry
     estimated scf accuracy    <       2.71478600 Ry

[...]

     total energy              =   -1445.91826206 Ry
     estimated scf accuracy    <       0.00000074 Ry

     iteration # 21     ecut=    50.00 Ry     beta= 0.30
     Davidson diagonalization with overlap

     ethr =  3.99E-10,  avg # of iterations =  4.4

     End of self-consistent calculation

          k = 0.0000 0.0000 0.0000 (  5997 PWs)   bands (ev):

    -8.8757  -7.7909  -7.7209  -7.7209  -7.7209  -7.3935  -7.3935  -7.3935
     3.5949   3.6982   3.6982   3.6982   3.6983   3.6983   3.6983   4.2672
     4.2672   4.3493   4.5200   4.5200   4.6754   4.6754   4.6754   4.9653
     4.9653   4.9653   5.2500   5.2500   5.2500   5.3926   5.3926   5.3926
     6.3916   6.3916   6.3916   6.3928   6.3928   6.6858   6.6858   6.6858
     6.7176   6.7176   6.8103   6.8103   6.8103   6.9192   6.9192   6.9192
     7.0516   7.0516   7.0516   7.1716   7.4472   7.4472   7.4472   8.0699
     8.0699   8.0699   8.6848   8.6848   8.6848   9.8764   9.8764   9.8764
    10.4483  10.4484  10.4484  10.7163  10.7163  11.3879  11.7198  11.7198

     occupation numbers
     1.0000   1.0000   1.0000   1.0000   1.0000   1.0000   1.0000   1.0000
     1.0000   1.0000   1.0000   1.0000   1.0000   1.0000   1.0000   1.0000
     1.0000   1.0000   1.0000   1.0000   1.0000   1.0000   1.0000   1.0000
     1.0000   1.0000   1.0000   1.0000   1.0000   1.0000   1.0000   1.0000
     1.0000   1.0000   1.0000   1.0000   1.0000   1.0000   1.0000   1.0000
     1.0000   1.0000   1.0000   1.0000   1.0000   1.0000   1.0000   1.0000
     1.0000   1.0000   1.0000   1.0000   1.0000   1.0000   1.0000   1.0000
     1.0000   1.0000   1.0000   1.0000   1.0000   1.0000   1.0000   1.0000
     1.0000   1.0000   1.0000   1.0000   1.0000   1.0000   1.0000   1.0000

[...]

          k = 0.0000-0.3849 0.3971 (  5965 PWs)   bands (ev):

[...]

          k =-0.1667-0.4811 0.1985 (  5964 PWs)   bands (ev):

[...]

          k =-0.1667-0.4811 0.3971 (  5972 PWs)   bands (ev):

    -8.2565  -8.0127  -7.8231  -7.8196  -7.6602  -7.5492  -7.5221  -7.4319
     3.5382   3.6028   3.6529   3.6695   3.7033   3.7290   3.9138   3.9734
     4.4287   4.4701   4.5094   4.5772   4.5794   4.5901   4.6202   4.6503
     4.6604   4.7343   4.8072   4.9234   4.9745   5.0820   5.3287   5.3459
     6.3673   6.3816   6.3915   6.4054   6.4869   6.4878   6.5402   6.6131
     6.6608   6.6842   6.7134   6.7383   6.7565   6.8414   6.8891   7.0529
     7.2715   7.5531   7.8213   7.9492   8.1127   8.2113   8.3433   8.5704
     8.7641   8.8002   9.0065   9.1363   9.3639   9.3813   9.6227   9.6908
     9.8072   9.9539  10.1989  10.2149  10.3047  10.4793  10.5103  10.8632

     occupation numbers
     1.0000   1.0000   1.0000   1.0000   1.0000   1.0000   1.0000   1.0000
     1.0000   1.0000   1.0000   1.0000   1.0000   1.0000   1.0000   1.0000
     1.0000   1.0000   1.0000   1.0000   1.0000   1.0000   1.0000   1.0000
     1.0000   1.0000   1.0000   1.0000   1.0000   1.0000   1.0000   1.0000
     1.0000   1.0000   1.0000   1.0000   1.0000   1.0000   1.0000   1.0000
     1.0000   1.0000   1.0000   1.0000   1.0000   1.0000   1.0000   1.0000
     1.0000   1.0000   1.0000   1.0000   1.0000   1.0000   1.0000   1.0000
     1.0000   1.0000   1.0000   1.0000   1.0000   1.0000   1.0000   1.0000
     1.0000   1.0000   1.0000   1.0000   1.0000   1.0000   1.0000   1.0000

     highest occupied level (ev):    11.7198

!    total energy              =   -1445.91826223 Ry
     estimated scf accuracy    <          2.8E-10 Ry

     The total energy is the sum of the following terms:
     one-electron contribution =    -486.17229781 Ry
     hartree contribution      =     427.87433014 Ry
     xc contribution           =    -440.85925011 Ry
     ewald contribution        =    -946.76104445 Ry

     convergence has been achieved in  21 iterations

     Forces acting on atoms (cartesian axes, Ry/au):

     atom    1 type  1   force =     0.00000460    0.00000266    0.04100823
     atom    2 type  1   force =     0.00000000    0.00000075    0.04101601
     atom    3 type  2   force =    -0.00000047   -0.00000027   -0.04101155
     atom    4 type  2   force =    -0.00000000    0.00000049   -0.04101359
     atom    5 type  1   force =     0.00000000    0.00000000    0.04101102
     atom    6 type  1   force =     0.00000065   -0.00000037    0.04101601
     atom    7 type  2   force =     0.00000000    0.00000000   -0.04101207
     atom    8 type  2   force =     0.00000043   -0.00000025   -0.04101359
     atom    9 type  1   force =    -0.00000460    0.00000266    0.04100823
     atom   10 type  1   force =     0.00000000    0.00000000    0.04101837
     atom   11 type  2   force =     0.00000047   -0.00000027   -0.04101155
     atom   12 type  2   force =     0.00000000    0.00000000   -0.04101460
     atom   13 type  1   force =     0.00000000   -0.00000531    0.04100823
     atom   14 type  1   force =    -0.00000065   -0.00000037    0.04101601
     atom   15 type  2   force =    -0.00000000    0.00000054   -0.04101155
     atom   16 type  2   force =    -0.00000043   -0.00000025   -0.04101359
     The non-local contrib.  to forces
     atom    1 type  1   force =     0.00000125    0.00000072    0.11999726
     atom    2 type  1   force =     0.00000000    0.00000111    0.11999866
     atom    3 type  2   force =    -0.00000214   -0.00000123    0.08469490
     atom    4 type  2   force =     0.00000000    0.00000012    0.08469399
     atom    5 type  1   force =     0.00000000    0.00000000    0.11999835
     atom    6 type  1   force =     0.00000096   -0.00000056    0.11999866
     atom    7 type  2   force =     0.00000000   -0.00000000    0.08469505
     atom    8 type  2   force =     0.00000011   -0.00000006    0.08469399
     atom    9 type  1   force =    -0.00000125    0.00000072    0.11999726
     atom   10 type  1   force =     0.00000000    0.00000000    0.11999888
     atom   11 type  2   force =     0.00000214   -0.00000123    0.08469490
     atom   12 type  2   force =     0.00000000    0.00000000    0.08469365
     atom   13 type  1   force =     0.00000000   -0.00000144    0.11999726
     atom   14 type  1   force =    -0.00000096   -0.00000056    0.11999866
     atom   15 type  2   force =     0.00000000    0.00000247    0.08469490
     atom   16 type  2   force =    -0.00000011   -0.00000006    0.08469399
     The ionic contribution  to forces
     atom    1 type  1   force =    -0.00000001    0.00000001    1.04948329
     atom    2 type  1   force =     0.00000000    0.00000001    1.04948328
     atom    3 type  2   force =    -0.00000000    0.00000001   -1.04948329
     atom    4 type  2   force =     0.00000000    0.00000000   -1.04948328
     atom    5 type  1   force =     0.00000000   -0.00000000    1.04948328
     atom    6 type  1   force =    -0.00000000   -0.00000002    1.04948328
     atom    7 type  2   force =     0.00000000    0.00000000   -1.04948328
     atom    8 type  2   force =    -0.00000000   -0.00000001   -1.04948328
     atom    9 type  1   force =    -0.00000001    0.00000001    1.04948329
     atom   10 type  1   force =     0.00000000    0.00000001    1.04948328
     atom   11 type  2   force =    -0.00000000    0.00000001   -1.04948329
     atom   12 type  2   force =     0.00000000    0.00000000   -1.04948328
     atom   13 type  1   force =     0.00000000   -0.00000000    1.04948328
     atom   14 type  1   force =    -0.00000000   -0.00000002    1.04948328
     atom   15 type  2   force =     0.00000000    0.00000000   -1.04948328
     atom   16 type  2   force =    -0.00000000   -0.00000001   -1.04948328
     The local contribution  to forces
     atom    1 type  1   force =    -0.00000690   -0.00000390   -1.11769937
     atom    2 type  1   force =     0.00000007   -0.00000245   -1.11770912
     atom    3 type  2   force =    -0.00000269   -0.00000153    0.92428027
     atom    4 type  2   force =     0.00000002   -0.00000025    0.92427678
     atom    5 type  1   force =     0.00000000    0.00000009   -1.11770355
     atom    6 type  1   force =    -0.00000216    0.00000116   -1.11770912
     atom    7 type  2   force =     0.00000000    0.00000002    0.92428255
     atom    8 type  2   force =    -0.00000023    0.00000011    0.92427678
     atom    9 type  1   force =     0.00000690   -0.00000390   -1.11769937
     atom   10 type  1   force =     0.00000007    0.00000004   -1.11771291
     atom   11 type  2   force =     0.00000269   -0.00000153    0.92428027
     atom   12 type  2   force =     0.00000002    0.00000001    0.92427966
     atom   13 type  1   force =     0.00000000    0.00000806   -1.11769937
     atom   14 type  1   force =     0.00000216    0.00000116   -1.11770912
     atom   15 type  2   force =    -0.00000000    0.00000312    0.92428027
     atom   16 type  2   force =     0.00000023    0.00000011    0.92427678
     The core correction contribution to forces
     atom    1 type  1   force =     0.00000013    0.00000009   -0.01076622
     atom    2 type  1   force =     0.00000001   -0.00000002   -0.01076599
     atom    3 type  2   force =     0.00000002    0.00000001   -0.00050590
     atom    4 type  2   force =    -0.00000000   -0.00000000   -0.00050590
     atom    5 type  1   force =    -0.00000000    0.00000001   -0.01076621
     atom    6 type  1   force =    -0.00000002   -0.00000000   -0.01076599
     atom    7 type  2   force =    -0.00000000   -0.00000000   -0.00050590
     atom    8 type  2   force =    -0.00000000    0.00000000   -0.00050590
     atom    9 type  1   force =    -0.00000013    0.00000009   -0.01076622
     atom   10 type  1   force =     0.00000001    0.00000001   -0.01076585
     atom   11 type  2   force =    -0.00000002    0.00000001   -0.00050590
     atom   12 type  2   force =    -0.00000000   -0.00000000   -0.00050588
     atom   13 type  1   force =    -0.00000000   -0.00000014   -0.01076622
     atom   14 type  1   force =     0.00000002   -0.00000000   -0.01076599
     atom   15 type  2   force =    -0.00000000   -0.00000003   -0.00050590
     atom   16 type  2   force =     0.00000000    0.00000000   -0.00050590
     The Hubbard contrib.    to forces
     atom    1 type  1   force =     0.00000000    0.00000000    0.00000000
     atom    2 type  1   force =     0.00000000    0.00000000    0.00000000
     atom    3 type  2   force =     0.00000000    0.00000000    0.00000000
     atom    4 type  2   force =     0.00000000    0.00000000    0.00000000
     atom    5 type  1   force =     0.00000000    0.00000000    0.00000000
     atom    6 type  1   force =     0.00000000    0.00000000    0.00000000
     atom    7 type  2   force =     0.00000000    0.00000000    0.00000000
     atom    8 type  2   force =     0.00000000    0.00000000    0.00000000
     atom    9 type  1   force =     0.00000000    0.00000000    0.00000000
     atom   10 type  1   force =     0.00000000    0.00000000    0.00000000
     atom   11 type  2   force =     0.00000000    0.00000000    0.00000000
     atom   12 type  2   force =     0.00000000    0.00000000    0.00000000
     atom   13 type  1   force =     0.00000000    0.00000000    0.00000000
     atom   14 type  1   force =     0.00000000    0.00000000    0.00000000
     atom   15 type  2   force =     0.00000000    0.00000000    0.00000000
     atom   16 type  2   force =     0.00000000    0.00000000    0.00000000
     The SCF correction term to forces
     atom    1 type  1   force =     0.00001011    0.00000584   -0.00001033
     atom    2 type  1   force =     0.00000000    0.00000209    0.00000557
     atom    3 type  2   force =     0.00000433    0.00000250   -0.00000113
     atom    4 type  2   force =     0.00000000    0.00000062    0.00000122
     atom    5 type  1   force =     0.00000000    0.00000000   -0.00000444
     atom    6 type  1   force =     0.00000181   -0.00000105    0.00000557
     atom    7 type  2   force =     0.00000000    0.00000000   -0.00000409
     atom    8 type  2   force =     0.00000053   -0.00000031    0.00000122
     atom    9 type  1   force =    -0.00001011    0.00000584   -0.00001033
     atom   10 type  1   force =     0.00000000    0.00000000    0.00001137
     atom   11 type  2   force =    -0.00000433    0.00000250   -0.00000113
     atom   12 type  2   force =     0.00000000    0.00000000   -0.00000234
     atom   13 type  1   force =     0.00000000   -0.00001168   -0.00001033
     atom   14 type  1   force =    -0.00000181   -0.00000105    0.00000557
     atom   15 type  2   force =     0.00000000   -0.00000499   -0.00000113
     atom   16 type  2   force =    -0.00000053   -0.00000031    0.00000122

     Total force =     0.164051     Total SCF correction =     0.000033

     General routines

     Parallel routines

   This run was terminated on:  15:21:11  23Aug2025

   JOB DONE.
Note: The following floating-point exceptions are signalling: IEEE_INVALID_FLAG
Note: The following floating-point exceptions are signalling: IEEE_INVALID_FLAG
Note: The following floating-point exceptions are signalling: IEEE_INVALID_FLAG
Note: The following floating-point exceptions are signalling: IEEE_INVALID_FLAG
Note: The following floating-point exceptions are signalling: IEEE_INVALID_FLAG
Note: The following floating-point exceptions are signalling: IEEE_INVALID_FLAG
Note: The following floating-point exceptions are signalling: IEEE_INVALID_FLAG
Note: The following floating-point exceptions are signalling: IEEE_INVALID_FLAG
Note: The following floating-point exceptions are signalling: IEEE_INVALID_FLAG
Note: The following floating-point exceptions are signalling: IEEE_INVALID_FLAG
Note: The following floating-point exceptions are signalling: IEEE_INVALID_FLAG
Note: The following floating-point exceptions are signalling: IEEE_INVALID_FLAG
Note: The following floating-point exceptions are signalling: IEEE_INVALID_FLAG
Note: The following floating-point exceptions are signalling: IEEE_INVALID_FLAG
Note: The following floating-point exceptions are signalling: IEEE_INVALID_FLAG
Note: The following floating-point exceptions are signalling: IEEE_INVALID_FLAG
Note: The following floating-point exceptions are signalling: IEEE_INVALID_FLAG
Note: The following floating-point exceptions are signalling: IEEE_INVALID_FLAG
Note: The following floating-point exceptions are signalling: IEEE_INVALID_FLAG
Note: The following floating-point exceptions are signalling: IEEE_INVALID_FLAG
Note: The following floating-point exceptions are signalling: IEEE_INVALID_FLAG
Note: The following floating-point exceptions are signalling: IEEE_INVALID_FLAG
Note: The following floating-point exceptions are signalling: IEEE_INVALID_FLAG
Note: The following floating-point exceptions are signalling: IEEE_INVALID_FLAG
Note: The following floating-point exceptions are signalling: IEEE_INVALID_FLAG
Note: The following floating-point exceptions are signalling: IEEE_INVALID_FLAG
Note: The following floating-point exceptions are signalling: IEEE_INVALID_FLAG
Note: The following floating-point exceptions are signalling: IEEE_INVALID_FLAG
Note: The following floating-point exceptions are signalling: IEEE_INVALID_FLAG
Note: The following floating-point exceptions are signalling: IEEE_INVALID_FLAG
Note: The following floating-point exceptions are signalling: IEEE_INVALID_FLAG
Note: The following floating-point exceptions are signalling: IEEE_INVALID_FLAG