     Program PWSCF v.7.2 starts on 23Aug2025 at 21:19:20

     Reading input from /home/jvc/QEspresso7.2/ZnO_database/scripts/cell221.in/ZnO-3.34-1.61-221.in
Warning: card &CELL ignored
Warning: card / ignored
Warning: card &FCP ignored
Warning: card / ignored
Warning: card &RISM ignored
Warning: card / ignored

     Current dimensions of program PWSCF are:
     Max number of different atomic species (ntypx) = 10
     Max number of k-points (npk) =  40000
     Max angular momentum in pseudopotentials (lmaxx) =  4
     file Zn.upf: wavefunction(s)  3D renormalized
     Found identity + (  0.0000 -0.5000  0.0000) symmetry
     This is a supercell, fractional translations are disabled
     Message from routine setup:
     using ibrav=0 with symmetry is DISCOURAGED, use correct ibrav instead

     K-points division:     npool     =       8
     band groups division:  nbgrp     =       4
     Subspace diagonalization in iterative solution of the eigenvalue problem:
     a serial algorithm will be used

     Using Slab Decomposition

     bravais-lattice index     =            0
     lattice parameter (alat)  =      12.6049  a.u.
     unit-cell volume          =    1399.9576 (a.u.)^3
     number of atoms/cell      =           16
     number of atomic types    =            2
     number of electrons       =       144.00
     number of Kohn-Sham states=           72
     kinetic-energy cutoff     =      50.0000  Ry
     charge density cutoff     =     400.0000  Ry
     scf convergence threshold =      1.0E-08
     mixing beta               =       0.3000
     number of iterations used =            8  plain     mixing
     Exchange-correlation= PBE
                           (   1   4   3   4   0   0   0)

     celldm(1)=  12.604862  celldm(2)=   0.000000  celldm(3)=   0.000000
     celldm(4)=   0.000000  celldm(5)=   0.000000  celldm(6)=   0.000000

     crystal axes: (cart. coord. in units of alat)
               a(1) = (   1.000000   0.000000   0.000000 )
               a(2) = (  -0.500000   0.866025   0.000000 )
               a(3) = (   0.000000   0.000000   0.807179 )

     reciprocal axes: (cart. coord. in units 2 pi/alat)
               b(1) = (  1.000000  0.577350 -0.000000 )
               b(2) = (  0.000000  1.154701  0.000000 )
               b(3) = (  0.000000 -0.000000  1.238882 )

     PseudoPot. # 1 for Zn read from file:
     /home/jvc/QEspresso7.2/ZnO_database/pseudos/Zn.upf
     MD5 check sum: 7f56cabf9682ed8c977c2f7d0c5985c5
     Pseudo is Ultrasoft + core correction, Zval = 12.0
     Generated using &quot;atomic&quot; code by A. Dal Corso  v.6.2.2
     Using radial grid of 1201 points,  6 beta functions with:
                l(1) =   0
                l(2) =   0
                l(3) =   1
                l(4) =   1
                l(5) =   2
                l(6) =   2
     Q(r) pseudized with 0 coefficients

     PseudoPot. # 2 for O  read from file:
     /home/jvc/QEspresso7.2/ZnO_database/pseudos/O.upf
     MD5 check sum: 91400c9766925bcf19f520983a725ff0
     Pseudo is Ultrasoft + core correction, Zval =  6.0
     Generated using &quot;atomic&quot; code by A. Dal Corso  v.6.3MaX
     Using radial grid of 1095 points,  4 beta functions with:
                l(1) =   0
                l(2) =   0
                l(3) =   1
                l(4) =   1
     Q(r) pseudized with 0 coefficients

     atomic species   valence    mass     pseudopotential
        Zn            12.00    65.38000     Zn( 1.00)
        O              6.00    15.99900     O ( 1.00)

      6 Sym. Ops. (no inversion) found

                                    s                        frac. trans.

      isym =  1     identity

 cryst.   s( 1) = (     1          0          0      )
                  (     0          1          0      )
                  (     0          0          1      )

 cart.    s( 1) = (  1.0000000  0.0000000  0.0000000 )
                  (  0.0000000  1.0000000  0.0000000 )
                  (  0.0000000  0.0000000  1.0000000 )

      isym =  2     120 deg rotation - cryst. axis [0,0,1]

[...]

      isym =  3     120 deg rotation - cryst. axis [0,0,-1]

[...]

      isym =  4     inv. 180 deg rotation - cart. axis [1,0,0]

[...]

      isym =  5     inv. 180 deg rotation - cryst. axis [0,1,0]

[...]

      isym =  6     inv. 180 deg rotation - cryst. axis [1,1,0]

 cryst.   s( 6) = (     0         -1          0      )
                  (    -1          0          0      )
                  (     0          0          1      )

 cart.    s( 6) = (  0.5000000 -0.8660254  0.0000000 )
                  ( -0.8660254 -0.5000000  0.0000000 )
                  (  0.0000000  0.0000000  1.0000000 )

   Cartesian axes

     site n.     atom                  positions (alat units)
         1           Zn  tau(   1) = (   0.2500000   0.1443376   0.4041010  )
         2           Zn  tau(   2) = (  -0.0000000   0.2886751   0.0005114  )
         3           O   tau(   3) = (   0.2500000   0.1443376   0.7100565  )
         4           O   tau(   4) = (  -0.0000000   0.2886751   0.3064669  )
         5           Zn  tau(   5) = (   0.0000000   0.5773503   0.4041010  )
         6           Zn  tau(   6) = (  -0.2500000   0.7216878   0.0005114  )
         7           O   tau(   7) = (   0.0000000   0.5773503   0.7100565  )
         8           O   tau(   8) = (  -0.2500000   0.7216878   0.3064669  )
         9           Zn  tau(   9) = (   0.7500000   0.1443376   0.4041010  )
        10           Zn  tau(  10) = (   0.5000000   0.2886751   0.0005114  )
        11           O   tau(  11) = (   0.7500000   0.1443376   0.7100565  )
        12           O   tau(  12) = (   0.5000000   0.2886751   0.3064669  )
        13           Zn  tau(  13) = (   0.5000000   0.5773503   0.4041010  )
        14           Zn  tau(  14) = (   0.2500000   0.7216878   0.0005114  )
        15           O   tau(  15) = (   0.5000000   0.5773503   0.7100565  )
        16           O   tau(  16) = (   0.2500000   0.7216878   0.3064669  )

   Crystallographic axes

     site n.     atom                  positions (cryst. coord.)
         1           Zn  tau(   1) = (  0.3333333  0.1666667  0.5006336  )
         2           Zn  tau(   2) = (  0.1666667  0.3333333  0.0006336  )
         3           O   tau(   3) = (  0.3333333  0.1666667  0.8796764  )
         4           O   tau(   4) = (  0.1666667  0.3333333  0.3796764  )
         5           Zn  tau(   5) = (  0.3333333  0.6666667  0.5006336  )
         6           Zn  tau(   6) = (  0.1666667  0.8333333  0.0006336  )
         7           O   tau(   7) = (  0.3333333  0.6666667  0.8796764  )
         8           O   tau(   8) = (  0.1666667  0.8333333  0.3796764  )
         9           Zn  tau(   9) = (  0.8333333  0.1666667  0.5006336  )
        10           Zn  tau(  10) = (  0.6666667  0.3333333  0.0006336  )
        11           O   tau(  11) = (  0.8333333  0.1666667  0.8796764  )
        12           O   tau(  12) = (  0.6666667  0.3333333  0.3796764  )
        13           Zn  tau(  13) = (  0.8333333  0.6666667  0.5006336  )
        14           Zn  tau(  14) = (  0.6666667  0.8333333  0.0006336  )
        15           O   tau(  15) = (  0.8333333  0.6666667  0.8796764  )
        16           O   tau(  16) = (  0.6666667  0.8333333  0.3796764  )

     number of k points=    34
                       cart. coord. in units 2pi/alat
        k(    1) = (   0.0000000   0.0000000   0.0000000), wk =   0.0092593
        k(    2) = (   0.0000000   0.0000000   0.2064804), wk =   0.0185185
        k(    3) = (   0.0000000   0.0000000   0.4129608), wk =   0.0185185
        k(    4) = (   0.0000000   0.0000000  -0.6194412), wk =   0.0092593
        k(    5) = (   0.0000000   0.1924501   0.0000000), wk =   0.0555556
        k(    6) = (   0.0000000   0.1924501   0.2064804), wk =   0.0555556
        k(    7) = (   0.0000000   0.1924501   0.4129608), wk =   0.0555556
        k(    8) = (   0.0000000   0.1924501  -0.6194412), wk =   0.0555556
        k(    9) = (   0.0000000   0.3849002   0.0000000), wk =   0.0555556
        k(   10) = (   0.0000000   0.3849002   0.2064804), wk =   0.0555556
        k(   11) = (   0.0000000   0.3849002   0.4129608), wk =   0.0555556
        k(   12) = (   0.0000000   0.3849002  -0.6194412), wk =   0.0555556
        k(   13) = (   0.0000000  -0.5773503   0.0000000), wk =   0.0277778
        k(   14) = (   0.0000000  -0.5773503   0.2064804), wk =   0.0555556
        k(   15) = (   0.0000000  -0.5773503   0.4129608), wk =   0.0555556
        k(   16) = (   0.0000000  -0.5773503  -0.6194412), wk =   0.0277778
        k(   17) = (   0.1666667   0.2886751   0.0000000), wk =   0.0555556
        k(   18) = (   0.1666667   0.2886751   0.2064804), wk =   0.1111111
        k(   19) = (   0.1666667   0.2886751   0.4129608), wk =   0.1111111
        k(   20) = (   0.1666667   0.2886751  -0.6194412), wk =   0.0555556
        k(   21) = (   0.1666667   0.4811252   0.0000000), wk =   0.1111111
        k(   22) = (   0.1666667   0.4811252   0.2064804), wk =   0.1111111
        k(   23) = (   0.1666667   0.4811252   0.4129608), wk =   0.1111111
        k(   24) = (   0.1666667   0.4811252  -0.6194412), wk =   0.1111111
        k(   25) = (   0.3333333   0.5773503   0.0000000), wk =   0.0185185
        k(   26) = (   0.3333333   0.5773503   0.2064804), wk =   0.0370370
        k(   27) = (   0.3333333   0.5773503   0.4129608), wk =   0.0370370
        k(   28) = (   0.3333333   0.5773503  -0.6194412), wk =   0.0185185
        k(   29) = (   0.0000000  -0.1924501   0.2064804), wk =   0.0555556
        k(   30) = (   0.0000000  -0.1924501   0.4129608), wk =   0.0555556
        k(   31) = (   0.0000000  -0.3849002   0.2064804), wk =   0.0555556
        k(   32) = (   0.0000000  -0.3849002   0.4129608), wk =   0.0555556
        k(   33) = (  -0.1666667  -0.4811252   0.2064804), wk =   0.1111111
        k(   34) = (  -0.1666667  -0.4811252   0.4129608), wk =   0.1111111

                       cryst. coord.
        k(    1) = (   0.0000000   0.0000000   0.0000000), wk =   0.0092593
        k(    2) = (   0.0000000   0.0000000   0.1666667), wk =   0.0185185
        k(    3) = (   0.0000000   0.0000000   0.3333333), wk =   0.0185185
        k(    4) = (   0.0000000   0.0000000  -0.5000000), wk =   0.0092593
        k(    5) = (   0.0000000   0.1666667   0.0000000), wk =   0.0555556
        k(    6) = (   0.0000000   0.1666667   0.1666667), wk =   0.0555556
        k(    7) = (   0.0000000   0.1666667   0.3333333), wk =   0.0555556
        k(    8) = (   0.0000000   0.1666667  -0.5000000), wk =   0.0555556
        k(    9) = (   0.0000000   0.3333333   0.0000000), wk =   0.0555556
        k(   10) = (   0.0000000   0.3333333   0.1666667), wk =   0.0555556
        k(   11) = (   0.0000000   0.3333333   0.3333333), wk =   0.0555556
        k(   12) = (   0.0000000   0.3333333  -0.5000000), wk =   0.0555556
        k(   13) = (   0.0000000  -0.5000000   0.0000000), wk =   0.0277778
        k(   14) = (   0.0000000  -0.5000000   0.1666667), wk =   0.0555556
        k(   15) = (   0.0000000  -0.5000000   0.3333333), wk =   0.0555556
[...]
        k(   25) = (   0.3333333   0.3333333   0.0000000), wk =   0.0185185
        k(   26) = (   0.3333333   0.3333333   0.1666667), wk =   0.0370370
        k(   27) = (   0.3333333   0.3333333   0.3333333), wk =   0.0370370
        k(   28) = (   0.3333333   0.3333333  -0.5000000), wk =   0.0185185
        k(   29) = (   0.0000000  -0.1666667   0.1666667), wk =   0.0555556
        k(   30) = (   0.0000000  -0.1666667   0.3333333), wk =   0.0555556
        k(   31) = (   0.0000000  -0.3333333   0.1666667), wk =   0.0555556
        k(   32) = (   0.0000000  -0.3333333   0.3333333), wk =   0.0555556
        k(   33) = (  -0.1666667  -0.3333333   0.1666667), wk =   0.1111111
        k(   34) = (  -0.1666667  -0.3333333   0.3333333), wk =   0.1111111

     Check: negative core charge=   -0.000002

     Initial potential from superposition of free atoms

     starting charge     143.9702, renormalised to     144.0000
     Starting wfcs are  104 randomized atomic wfcs

     Self-consistent Calculation

     iteration #  1     ecut=    50.00 Ry     beta= 0.30
     Davidson diagonalization with overlap

     ethr =  1.00E-02,  avg # of iterations =  2.0

     total energy              =   -1445.87118252 Ry
     estimated scf accuracy    <       2.85368547 Ry

[...]

     total energy              =   -1446.53472147 Ry
     estimated scf accuracy    <       0.00000052 Ry

     iteration # 37     ecut=    50.00 Ry     beta= 0.30
     Davidson diagonalization with overlap

     ethr =  5.84E-11,  avg # of iterations =  7.4

     End of self-consistent calculation

          k = 0.0000 0.0000 0.0000 (  8321 PWs)   bands (ev):

   -11.3990 -10.8292 -10.8292 -10.8291 -10.8020 -10.6458 -10.6458 -10.6458
     0.5820   0.5820   0.5820   0.7194   0.7194   0.7534   0.8298   0.8298
     0.8298   0.8857   0.8857   0.9374   0.9374   0.9374   1.0196   1.2773
     1.2773   1.2773   1.3512   1.3512   1.3512   1.3951   1.3951   1.3951
     1.6664   1.6664   1.7106   1.7106   1.7106   1.8078   1.8078   1.8078
     1.8374   1.8374   1.8766   1.8766   1.8766   1.9396   1.9396   1.9396
     2.0977   2.4282   2.4282   2.4282   2.7706   2.7707   2.7707   3.4756
     3.4756   3.4756   4.0622   4.0622   4.0622   4.8935   4.8935   4.8935
     5.3134   5.3134   5.3134   5.3474   5.3474   5.9804   6.0448   6.0448

     occupation numbers
     1.0000   1.0000   1.0000   1.0000   1.0000   1.0000   1.0000   1.0000
     1.0000   1.0000   1.0000   1.0000   1.0000   1.0000   1.0000   1.0000
     1.0000   1.0000   1.0000   1.0000   1.0000   1.0000   1.0000   1.0000
     1.0000   1.0000   1.0000   1.0000   1.0000   1.0000   1.0000   1.0000
     1.0000   1.0000   1.0000   1.0000   1.0000   1.0000   1.0000   1.0000
     1.0000   1.0000   1.0000   1.0000   1.0000   1.0000   1.0000   1.0000
     1.0000   1.0000   1.0000   1.0000   1.0000   1.0000   1.0000   1.0000
     1.0000   1.0000   1.0000   1.0000   1.0000   1.0000   1.0000   1.0000
     1.0000   1.0000   1.0000   1.0000   1.0000   1.0000   1.0000   1.0000

[...]

          k = 0.0000-0.3849 0.4130 (  8364 PWs)   bands (ev):

[...]

          k =-0.1667-0.4811 0.2065 (  8366 PWs)   bands (ev):

[...]

          k =-0.1667-0.4811 0.4130 (  8363 PWs)   bands (ev):

   -11.0766 -10.9599 -10.8694 -10.8380 -10.7680 -10.7246 -10.7205 -10.6750
     0.4849   0.5163   0.5549   0.6046   0.6137   0.6399   0.7161   0.7980
     0.8576   0.8818   0.9249   0.9270   0.9600   0.9840   0.9874   1.0022
     1.0229   1.0770   1.1121   1.1320   1.1320   1.1939   1.3285   1.3509
     1.6984   1.7006   1.7007   1.7073   1.7234   1.7420   1.7481   1.7810
     1.8115   1.8212   1.8478   1.8516   1.8842   1.9350   1.9797   2.0681
     2.4823   2.6857   2.8459   3.0338   3.1653   3.2369   3.3846   3.5289
     4.0296   4.1735   4.2058   4.2470   4.2915   4.5412   4.6257   4.7048
     4.8759   4.9665   5.0266   5.2170   5.2187   5.3042   5.3990   5.4919

     occupation numbers
     1.0000   1.0000   1.0000   1.0000   1.0000   1.0000   1.0000   1.0000
     1.0000   1.0000   1.0000   1.0000   1.0000   1.0000   1.0000   1.0000
     1.0000   1.0000   1.0000   1.0000   1.0000   1.0000   1.0000   1.0000
     1.0000   1.0000   1.0000   1.0000   1.0000   1.0000   1.0000   1.0000
     1.0000   1.0000   1.0000   1.0000   1.0000   1.0000   1.0000   1.0000
     1.0000   1.0000   1.0000   1.0000   1.0000   1.0000   1.0000   1.0000
     1.0000   1.0000   1.0000   1.0000   1.0000   1.0000   1.0000   1.0000
     1.0000   1.0000   1.0000   1.0000   1.0000   1.0000   1.0000   1.0000
     1.0000   1.0000   1.0000   1.0000   1.0000   1.0000   1.0000   1.0000

     highest occupied level (ev):     6.0448

!    total energy              =   -1446.53472155 Ry
     estimated scf accuracy    <          6.7E-09 Ry

     The total energy is the sum of the following terms:
     one-electron contribution =    -645.15449121 Ry
     hartree contribution      =     482.81643125 Ry
     xc contribution           =    -437.71191704 Ry
     ewald contribution        =    -846.48474455 Ry

     convergence has been achieved in  37 iterations

     Forces acting on atoms (cartesian axes, Ry/au):

     atom    1 type  1   force =     0.00000561    0.00000324   -0.00004894
     atom    2 type  1   force =     0.00000000    0.00000958   -0.00004837
     atom    3 type  2   force =     0.00000018    0.00000011    0.00004823
     atom    4 type  2   force =     0.00000000   -0.00000055    0.00004790
     atom    5 type  1   force =     0.00000000   -0.00000000   -0.00003977
     atom    6 type  1   force =     0.00000830   -0.00000479   -0.00004837
     atom    7 type  2   force =     0.00000000   -0.00000000    0.00004753
     atom    8 type  2   force =    -0.00000047    0.00000027    0.00004790
     atom    9 type  1   force =    -0.00000561    0.00000324   -0.00004894
     atom   10 type  1   force =     0.00000000   -0.00000000   -0.00005201
     atom   11 type  2   force =    -0.00000018    0.00000011    0.00004823
     atom   12 type  2   force =     0.00000000    0.00000000    0.00004777
     atom   13 type  1   force =    -0.00000000   -0.00000648   -0.00004894
     atom   14 type  1   force =    -0.00000830   -0.00000479   -0.00004837
     atom   15 type  2   force =     0.00000000   -0.00000021    0.00004823
     atom   16 type  2   force =     0.00000047    0.00000027    0.00004790
     The non-local contrib.  to forces
     atom    1 type  1   force =     0.00000197    0.00000114   -0.00460631
     atom    2 type  1   force =     0.00000000    0.00000674   -0.00460616
     atom    3 type  2   force =     0.00000130    0.00000075    0.00590361
     atom    4 type  2   force =     0.00000000   -0.00000801    0.00590412
     atom    5 type  1   force =     0.00000000    0.00000000   -0.00460798
     atom    6 type  1   force =     0.00000583   -0.00000337   -0.00460616
     atom    7 type  2   force =     0.00000000    0.00000000    0.00590129
     atom    8 type  2   force =    -0.00000694    0.00000400    0.00590412
     atom    9 type  1   force =    -0.00000197    0.00000114   -0.00460631
     atom   10 type  1   force =     0.00000000    0.00000000   -0.00460624
     atom   11 type  2   force =    -0.00000130    0.00000075    0.00590361
     atom   12 type  2   force =     0.00000000   -0.00000000    0.00590358
     atom   13 type  1   force =     0.00000000   -0.00000228   -0.00460631
     atom   14 type  1   force =    -0.00000583   -0.00000337   -0.00460616
     atom   15 type  2   force =     0.00000000   -0.00000150    0.00590361
     atom   16 type  2   force =     0.00000694    0.00000400    0.00590412
     The ionic contribution  to forces
     atom    1 type  1   force =     0.00000000    0.00000001    0.06028145
     atom    2 type  1   force =     0.00000001    0.00000000    0.06028145
     atom    3 type  2   force =     0.00000000    0.00000000   -0.06028145
     atom    4 type  2   force =     0.00000001    0.00000000   -0.06028145
     atom    5 type  1   force =     0.00000000    0.00000001    0.06028145
     atom    6 type  1   force =     0.00000001    0.00000000    0.06028145
     atom    7 type  2   force =     0.00000000    0.00000000   -0.06028145
     atom    8 type  2   force =     0.00000001    0.00000000   -0.06028145
     atom    9 type  1   force =    -0.00000002   -0.00000000    0.06028145
     atom   10 type  1   force =     0.00000000   -0.00000001    0.06028145
     atom   11 type  2   force =    -0.00000001    0.00000000   -0.06028145
     atom   12 type  2   force =     0.00000000   -0.00000001   -0.06028145
     atom   13 type  1   force =    -0.00000002   -0.00000000    0.06028145
     atom   14 type  1   force =     0.00000000   -0.00000001    0.06028145
     atom   15 type  2   force =    -0.00000001    0.00000000   -0.06028145
     atom   16 type  2   force =     0.00000000   -0.00000001   -0.06028145
     The local contribution  to forces
     atom    1 type  1   force =    -0.00000485   -0.00000270   -0.05613755
     atom    2 type  1   force =     0.00000009   -0.00001841   -0.05613825
     atom    3 type  2   force =    -0.00000216   -0.00000122    0.05449377
     atom    4 type  2   force =     0.00000002   -0.00000243    0.05450098
     atom    5 type  1   force =    -0.00000000    0.00000010   -0.05614175
     atom    6 type  1   force =    -0.00001590    0.00000928   -0.05613825
     atom    7 type  2   force =    -0.00000000    0.00000003    0.05450418
     atom    8 type  2   force =    -0.00000209    0.00000123    0.05450098
     atom    9 type  1   force =     0.00000467   -0.00000270   -0.05613755
     atom   10 type  1   force =     0.00000009    0.00000005   -0.05613708
     atom   11 type  2   force =     0.00000211   -0.00000122    0.05449377
     atom   12 type  2   force =     0.00000002    0.00000001    0.05449759
     atom   13 type  1   force =    -0.00000017    0.00000570   -0.05613755
     atom   14 type  1   force =     0.00001607    0.00000928   -0.05613825
     atom   15 type  2   force =    -0.00000005    0.00000252    0.05449377
     atom   16 type  2   force =     0.00000214    0.00000123    0.05450098
     The core correction contribution to forces
     atom    1 type  1   force =     0.00000007    0.00000005    0.00040765
     atom    2 type  1   force =     0.00000001    0.00000059    0.00040763
     atom    3 type  2   force =    -0.00000000   -0.00000000   -0.00006626
     atom    4 type  2   force =    -0.00000000    0.00000011   -0.00006624
     atom    5 type  1   force =     0.00000000    0.00000001    0.00040794
     atom    6 type  1   force =     0.00000051   -0.00000028    0.00040763
     atom    7 type  2   force =    -0.00000000   -0.00000000   -0.00006618
     atom    8 type  2   force =     0.00000010   -0.00000006   -0.00006624
     atom    9 type  1   force =    -0.00000009    0.00000005    0.00040765
     atom   10 type  1   force =     0.00000001    0.00000001    0.00040765
     atom   11 type  2   force =     0.00000000   -0.00000000   -0.00006626
     atom   12 type  2   force =    -0.00000000   -0.00000000   -0.00006623
     atom   13 type  1   force =    -0.00000002   -0.00000006    0.00040765
     atom   14 type  1   force =    -0.00000049   -0.00000028    0.00040763
     atom   15 type  2   force =     0.00000000    0.00000000   -0.00006626
     atom   16 type  2   force =    -0.00000010   -0.00000006   -0.00006624
     The Hubbard contrib.    to forces
     atom    1 type  1   force =     0.00000000    0.00000000    0.00000000
     atom    2 type  1   force =     0.00000000    0.00000000    0.00000000
     atom    3 type  2   force =     0.00000000    0.00000000    0.00000000
     atom    4 type  2   force =     0.00000000    0.00000000    0.00000000
     atom    5 type  1   force =     0.00000000    0.00000000    0.00000000
     atom    6 type  1   force =     0.00000000    0.00000000    0.00000000
     atom    7 type  2   force =     0.00000000    0.00000000    0.00000000
     atom    8 type  2   force =     0.00000000    0.00000000    0.00000000
     atom    9 type  1   force =     0.00000000    0.00000000    0.00000000
     atom   10 type  1   force =     0.00000000    0.00000000    0.00000000
     atom   11 type  2   force =     0.00000000    0.00000000    0.00000000
     atom   12 type  2   force =     0.00000000    0.00000000    0.00000000
     atom   13 type  1   force =     0.00000000    0.00000000    0.00000000
     atom   14 type  1   force =     0.00000000    0.00000000    0.00000000
     atom   15 type  2   force =     0.00000000    0.00000000    0.00000000
     atom   16 type  2   force =     0.00000000    0.00000000    0.00000000
     The SCF correction term to forces
     atom    1 type  1   force =     0.00000836    0.00000483    0.00001304
     atom    2 type  1   force =     0.00000000    0.00002072    0.00001417
     atom    3 type  2   force =     0.00000103    0.00000060    0.00000578
     atom    4 type  2   force =     0.00000000    0.00000978   -0.00000229
     atom    5 type  1   force =     0.00000000    0.00000000    0.00002779
     atom    6 type  1   force =     0.00001794   -0.00001036    0.00001417
     atom    7 type  2   force =     0.00000000    0.00000000   -0.00000311
     atom    8 type  2   force =     0.00000847   -0.00000489   -0.00000229
     atom    9 type  1   force =    -0.00000836    0.00000483    0.00001304
     atom   10 type  1   force =     0.00000000    0.00000000    0.00000942
     atom   11 type  2   force =    -0.00000103    0.00000060    0.00000578
     atom   12 type  2   force =     0.00000000    0.00000000    0.00000149
     atom   13 type  1   force =    -0.00000000   -0.00000966    0.00001304
     atom   14 type  1   force =    -0.00001794   -0.00001036    0.00001417
     atom   15 type  2   force =    -0.00000000   -0.00000119    0.00000578
     atom   16 type  2   force =    -0.00000847   -0.00000489   -0.00000229

     Total force =     0.000193     Total SCF correction =     0.000063
     SCF correction compared to forces is large: reduce conv_thr to get better values

     General routines

     Parallel routines

   This run was terminated on:  21:28: 7  23Aug2025

   JOB DONE.
Note: The following floating-point exceptions are signalling: IEEE_INVALID_FLAG
Note: The following floating-point exceptions are signalling: IEEE_INVALID_FLAG
Note: The following floating-point exceptions are signalling: IEEE_INVALID_FLAG
Note: The following floating-point exceptions are signalling: IEEE_INVALID_FLAG
Note: The following floating-point exceptions are signalling: IEEE_INVALID_FLAG
Note: The following floating-point exceptions are signalling: IEEE_INVALID_FLAG
Note: The following floating-point exceptions are signalling: IEEE_INVALID_FLAG
Note: The following floating-point exceptions are signalling: IEEE_INVALID_FLAG
Note: The following floating-point exceptions are signalling: IEEE_INVALID_FLAG
Note: The following floating-point exceptions are signalling: IEEE_INVALID_FLAG
Note: The following floating-point exceptions are signalling: IEEE_INVALID_FLAG
Note: The following floating-point exceptions are signalling: IEEE_INVALID_FLAG
Note: The following floating-point exceptions are signalling: IEEE_INVALID_FLAG
Note: The following floating-point exceptions are signalling: IEEE_INVALID_FLAG
Note: The following floating-point exceptions are signalling: IEEE_INVALID_FLAG
Note: The following floating-point exceptions are signalling: IEEE_INVALID_FLAG
Note: The following floating-point exceptions are signalling: IEEE_INVALID_FLAG
Note: The following floating-point exceptions are signalling: IEEE_INVALID_FLAG
Note: The following floating-point exceptions are signalling: IEEE_INVALID_FLAG
Note: The following floating-point exceptions are signalling: IEEE_INVALID_FLAG
Note: The following floating-point exceptions are signalling: IEEE_INVALID_FLAG
Note: The following floating-point exceptions are signalling: IEEE_INVALID_FLAG
Note: The following floating-point exceptions are signalling: IEEE_INVALID_FLAG
Note: The following floating-point exceptions are signalling: IEEE_INVALID_FLAG
Note: The following floating-point exceptions are signalling: IEEE_INVALID_FLAG
Note: The following floating-point exceptions are signalling: IEEE_INVALID_FLAG
Note: The following floating-point exceptions are signalling: IEEE_INVALID_FLAG
Note: The following floating-point exceptions are signalling: IEEE_INVALID_FLAG
Note: The following floating-point exceptions are signalling: IEEE_INVALID_FLAG
Note: The following floating-point exceptions are signalling: IEEE_INVALID_FLAG
Note: The following floating-point exceptions are signalling: IEEE_INVALID_FLAG
Note: The following floating-point exceptions are signalling: IEEE_INVALID_FLAG