     Program PWSCF v.7.2 starts on 23Aug2025 at 18:58:32

     Reading input from /home/jvc/QEspresso7.2/ZnO_database/scripts/cell221.in/ZnO-3.20-1.68-221.in
Warning: card &CELL ignored
Warning: card / ignored
Warning: card &FCP ignored
Warning: card / ignored
Warning: card &RISM ignored
Warning: card / ignored

     Current dimensions of program PWSCF are:
     Max number of different atomic species (ntypx) = 10
     Max number of k-points (npk) =  40000
     Max angular momentum in pseudopotentials (lmaxx) =  4
     file Zn.upf: wavefunction(s)  3D renormalized
     Found identity + (  0.0000  0.5000  0.0000) symmetry
     This is a supercell, fractional translations are disabled
     Message from routine setup:
     using ibrav=0 with symmetry is DISCOURAGED, use correct ibrav instead

     K-points division:     npool     =       8
     band groups division:  nbgrp     =       4
     Subspace diagonalization in iterative solution of the eigenvalue problem:
     a serial algorithm will be used

     Using Slab Decomposition

     bravais-lattice index     =            0
     lattice parameter (alat)  =      12.1106  a.u.
     unit-cell volume          =    1291.2964 (a.u.)^3
     number of atoms/cell      =           16
     number of atomic types    =            2
     number of electrons       =       144.00
     number of Kohn-Sham states=           72
     kinetic-energy cutoff     =      50.0000  Ry
     charge density cutoff     =     400.0000  Ry
     scf convergence threshold =      1.0E-08
     mixing beta               =       0.3000
     number of iterations used =            8  plain     mixing
     Exchange-correlation= PBE
                           (   1   4   3   4   0   0   0)

     celldm(1)=  12.110554  celldm(2)=   0.000000  celldm(3)=   0.000000
     celldm(4)=   0.000000  celldm(5)=   0.000000  celldm(6)=   0.000000

     crystal axes: (cart. coord. in units of alat)
               a(1) = (   1.000000   0.000000   0.000000 )
               a(2) = (  -0.500000   0.866025   0.000000 )
               a(3) = (   0.000000   0.000000   0.839466 )

     reciprocal axes: (cart. coord. in units 2 pi/alat)
               b(1) = (  1.000000  0.577350 -0.000000 )
               b(2) = (  0.000000  1.154701  0.000000 )
               b(3) = (  0.000000 -0.000000  1.191233 )

     PseudoPot. # 1 for Zn read from file:
     /home/jvc/QEspresso7.2/ZnO_database/pseudos/Zn.upf
     MD5 check sum: 7f56cabf9682ed8c977c2f7d0c5985c5
     Pseudo is Ultrasoft + core correction, Zval = 12.0
     Generated using &quot;atomic&quot; code by A. Dal Corso  v.6.2.2
     Using radial grid of 1201 points,  6 beta functions with:
                l(1) =   0
                l(2) =   0
                l(3) =   1
                l(4) =   1
                l(5) =   2
                l(6) =   2
     Q(r) pseudized with 0 coefficients

     PseudoPot. # 2 for O  read from file:
     /home/jvc/QEspresso7.2/ZnO_database/pseudos/O.upf
     MD5 check sum: 91400c9766925bcf19f520983a725ff0
     Pseudo is Ultrasoft + core correction, Zval =  6.0
     Generated using &quot;atomic&quot; code by A. Dal Corso  v.6.3MaX
     Using radial grid of 1095 points,  4 beta functions with:
                l(1) =   0
                l(2) =   0
                l(3) =   1
                l(4) =   1
     Q(r) pseudized with 0 coefficients

     atomic species   valence    mass     pseudopotential
        Zn            12.00    65.38000     Zn( 1.00)
        O              6.00    15.99900     O ( 1.00)

      6 Sym. Ops. (no inversion) found

                                    s                        frac. trans.

      isym =  1     identity

 cryst.   s( 1) = (     1          0          0      )
                  (     0          1          0      )
                  (     0          0          1      )

 cart.    s( 1) = (  1.0000000  0.0000000  0.0000000 )
                  (  0.0000000  1.0000000  0.0000000 )
                  (  0.0000000  0.0000000  1.0000000 )

      isym =  2     120 deg rotation - cryst. axis [0,0,1]

[...]

      isym =  3     120 deg rotation - cryst. axis [0,0,-1]

[...]

      isym =  4     inv. 180 deg rotation - cart. axis [1,0,0]

[...]

      isym =  5     inv. 180 deg rotation - cryst. axis [0,1,0]

[...]

      isym =  6     inv. 180 deg rotation - cryst. axis [1,1,0]

 cryst.   s( 6) = (     0         -1          0      )
                  (    -1          0          0      )
                  (     0          0          1      )

 cart.    s( 6) = (  0.5000000 -0.8660254  0.0000000 )
                  ( -0.8660254 -0.5000000  0.0000000 )
                  (  0.0000000  0.0000000  1.0000000 )

   Cartesian axes

     site n.     atom                  positions (alat units)
         1           Zn  tau(   1) = (   0.2500000   0.1443376   0.4202650  )
         2           Zn  tau(   2) = (  -0.0000000   0.2886751   0.0005319  )
         3           O   tau(   3) = (   0.2500000   0.1443376   0.7384587  )
         4           O   tau(   4) = (  -0.0000000   0.2886751   0.3187256  )
         5           Zn  tau(   5) = (  -0.0000000   0.5773503   0.4202650  )
         6           Zn  tau(   6) = (  -0.2500000   0.7216878   0.0005319  )
         7           O   tau(   7) = (  -0.0000000   0.5773503   0.7384587  )
         8           O   tau(   8) = (  -0.2500000   0.7216878   0.3187256  )
         9           Zn  tau(   9) = (   0.7500000   0.1443376   0.4202650  )
        10           Zn  tau(  10) = (   0.5000000   0.2886751   0.0005319  )
        11           O   tau(  11) = (   0.7500000   0.1443376   0.7384587  )
        12           O   tau(  12) = (   0.5000000   0.2886751   0.3187256  )
        13           Zn  tau(  13) = (   0.5000000   0.5773503   0.4202650  )
        14           Zn  tau(  14) = (   0.2500000   0.7216878   0.0005319  )
        15           O   tau(  15) = (   0.5000000   0.5773503   0.7384587  )
        16           O   tau(  16) = (   0.2500000   0.7216878   0.3187256  )

   Crystallographic axes

     site n.     atom                  positions (cryst. coord.)
         1           Zn  tau(   1) = (  0.3333333  0.1666667  0.5006336  )
         2           Zn  tau(   2) = (  0.1666667  0.3333333  0.0006336  )
         3           O   tau(   3) = (  0.3333333  0.1666667  0.8796764  )
         4           O   tau(   4) = (  0.1666667  0.3333333  0.3796764  )
         5           Zn  tau(   5) = (  0.3333333  0.6666667  0.5006336  )
         6           Zn  tau(   6) = (  0.1666667  0.8333333  0.0006336  )
         7           O   tau(   7) = (  0.3333333  0.6666667  0.8796764  )
         8           O   tau(   8) = (  0.1666667  0.8333333  0.3796764  )
         9           Zn  tau(   9) = (  0.8333333  0.1666667  0.5006336  )
        10           Zn  tau(  10) = (  0.6666667  0.3333333  0.0006336  )
        11           O   tau(  11) = (  0.8333333  0.1666667  0.8796764  )
        12           O   tau(  12) = (  0.6666667  0.3333333  0.3796764  )
        13           Zn  tau(  13) = (  0.8333333  0.6666667  0.5006336  )
        14           Zn  tau(  14) = (  0.6666667  0.8333333  0.0006336  )
        15           O   tau(  15) = (  0.8333333  0.6666667  0.8796764  )
        16           O   tau(  16) = (  0.6666667  0.8333333  0.3796764  )

     number of k points=    34
                       cart. coord. in units 2pi/alat
        k(    1) = (   0.0000000   0.0000000   0.0000000), wk =   0.0092593
        k(    2) = (   0.0000000   0.0000000   0.1985388), wk =   0.0185185
        k(    3) = (   0.0000000   0.0000000   0.3970777), wk =   0.0185185
        k(    4) = (   0.0000000   0.0000000  -0.5956165), wk =   0.0092593
        k(    5) = (   0.0000000   0.1924501   0.0000000), wk =   0.0555556
        k(    6) = (   0.0000000   0.1924501   0.1985388), wk =   0.0555556
        k(    7) = (   0.0000000   0.1924501   0.3970777), wk =   0.0555556
        k(    8) = (   0.0000000   0.1924501  -0.5956165), wk =   0.0555556
        k(    9) = (   0.0000000   0.3849002   0.0000000), wk =   0.0555556
        k(   10) = (   0.0000000   0.3849002   0.1985388), wk =   0.0555556
        k(   11) = (   0.0000000   0.3849002   0.3970777), wk =   0.0555556
        k(   12) = (   0.0000000   0.3849002  -0.5956165), wk =   0.0555556
        k(   13) = (   0.0000000  -0.5773503   0.0000000), wk =   0.0277778
        k(   14) = (   0.0000000  -0.5773503   0.1985388), wk =   0.0555556
        k(   15) = (   0.0000000  -0.5773503   0.3970777), wk =   0.0555556
        k(   16) = (   0.0000000  -0.5773503  -0.5956165), wk =   0.0277778
        k(   17) = (   0.1666667   0.2886751   0.0000000), wk =   0.0555556
        k(   18) = (   0.1666667   0.2886751   0.1985388), wk =   0.1111111
        k(   19) = (   0.1666667   0.2886751   0.3970777), wk =   0.1111111
        k(   20) = (   0.1666667   0.2886751  -0.5956165), wk =   0.0555556
        k(   21) = (   0.1666667   0.4811252   0.0000000), wk =   0.1111111
        k(   22) = (   0.1666667   0.4811252   0.1985388), wk =   0.1111111
        k(   23) = (   0.1666667   0.4811252   0.3970777), wk =   0.1111111
        k(   24) = (   0.1666667   0.4811252  -0.5956165), wk =   0.1111111
        k(   25) = (   0.3333333   0.5773503   0.0000000), wk =   0.0185185
        k(   26) = (   0.3333333   0.5773503   0.1985388), wk =   0.0370370
        k(   27) = (   0.3333333   0.5773503   0.3970777), wk =   0.0370370
        k(   28) = (   0.3333333   0.5773503  -0.5956165), wk =   0.0185185
        k(   29) = (   0.0000000  -0.1924501   0.1985388), wk =   0.0555556
        k(   30) = (   0.0000000  -0.1924501   0.3970777), wk =   0.0555556
        k(   31) = (   0.0000000  -0.3849002   0.1985388), wk =   0.0555556
        k(   32) = (   0.0000000  -0.3849002   0.3970777), wk =   0.0555556
        k(   33) = (  -0.1666667  -0.4811252   0.1985388), wk =   0.1111111
        k(   34) = (  -0.1666667  -0.4811252   0.3970777), wk =   0.1111111

                       cryst. coord.
        k(    1) = (   0.0000000   0.0000000   0.0000000), wk =   0.0092593
        k(    2) = (   0.0000000   0.0000000   0.1666667), wk =   0.0185185
        k(    3) = (   0.0000000   0.0000000   0.3333333), wk =   0.0185185
        k(    4) = (   0.0000000   0.0000000  -0.5000000), wk =   0.0092593
        k(    5) = (   0.0000000   0.1666667   0.0000000), wk =   0.0555556
        k(    6) = (   0.0000000   0.1666667   0.1666667), wk =   0.0555556
        k(    7) = (   0.0000000   0.1666667   0.3333333), wk =   0.0555556
        k(    8) = (   0.0000000   0.1666667  -0.5000000), wk =   0.0555556
        k(    9) = (   0.0000000   0.3333333   0.0000000), wk =   0.0555556
        k(   10) = (   0.0000000   0.3333333   0.1666667), wk =   0.0555556
        k(   11) = (   0.0000000   0.3333333   0.3333333), wk =   0.0555556
        k(   12) = (   0.0000000   0.3333333  -0.5000000), wk =   0.0555556
        k(   13) = (   0.0000000  -0.5000000   0.0000000), wk =   0.0277778
        k(   14) = (   0.0000000  -0.5000000   0.1666667), wk =   0.0555556
        k(   15) = (   0.0000000  -0.5000000   0.3333333), wk =   0.0555556
[...]
        k(   23) = (   0.1666667   0.3333333   0.3333333), wk =   0.1111111
        k(   24) = (   0.1666667   0.3333333  -0.5000000), wk =   0.1111111
        k(   25) = (   0.3333333   0.3333333   0.0000000), wk =   0.0185185
        k(   26) = (   0.3333333   0.3333333   0.1666667), wk =   0.0370370
        k(   27) = (   0.3333333   0.3333333   0.3333333), wk =   0.0370370
        k(   28) = (   0.3333333   0.3333333  -0.5000000), wk =   0.0185185
        k(   29) = (   0.0000000  -0.1666667   0.1666667), wk =   0.0555556
        k(   30) = (   0.0000000  -0.1666667   0.3333333), wk =   0.0555556
        k(   31) = (   0.0000000  -0.3333333   0.1666667), wk =   0.0555556
        k(   32) = (   0.0000000  -0.3333333   0.3333333), wk =   0.0555556
        k(   33) = (  -0.1666667  -0.3333333   0.1666667), wk =   0.1111111
        k(   34) = (  -0.1666667  -0.3333333   0.3333333), wk =   0.1111111

     Check: negative core charge=   -0.000002

     Initial potential from superposition of free atoms

     starting charge     143.9702, renormalised to     144.0000
     Starting wfcs are  104 randomized atomic wfcs

     Self-consistent Calculation

     iteration #  1     ecut=    50.00 Ry     beta= 0.30
     Davidson diagonalization with overlap

     ethr =  1.00E-02,  avg # of iterations =  2.0

     total energy              =   -1445.91440151 Ry
     estimated scf accuracy    <       2.74318392 Ry

[...]

     total energy              =   -1446.53283640 Ry
     estimated scf accuracy    <       0.00000009 Ry

     iteration # 34     ecut=    50.00 Ry     beta= 0.30
     Davidson diagonalization with overlap

     ethr =  6.17E-11,  avg # of iterations =  4.3

     End of self-consistent calculation

          k = 0.0000 0.0000 0.0000 (  7757 PWs)   bands (ev):

   -10.8595 -10.2092 -10.1598 -10.1598 -10.1598  -9.9626  -9.9626  -9.9626
     1.2801   1.2801   1.2801   1.4304   1.4304   1.4304   1.5029   1.5029
     1.5067   1.5638   1.6741   1.6741   1.7819   1.7819   1.7819   2.1885
     2.1885   2.1885   2.2367   2.2367   2.2367   2.2683   2.2683   2.2683
     2.7172   2.7172   2.7443   2.7443   2.7443   2.8857   2.8857   2.8857
     2.8983   2.8983   2.9520   2.9520   2.9520   3.0341   3.0341   3.0341
     3.2148   3.4403   3.4403   3.4403   3.6078   3.6078   3.6078   4.4175
     4.4175   4.4175   5.0995   5.0995   5.0995   5.8930   5.8930   5.8931
     6.3573   6.3573   6.3573   6.5500   6.5500   7.0499   7.2447   7.2447

     occupation numbers
     1.0000   1.0000   1.0000   1.0000   1.0000   1.0000   1.0000   1.0000
     1.0000   1.0000   1.0000   1.0000   1.0000   1.0000   1.0000   1.0000
     1.0000   1.0000   1.0000   1.0000   1.0000   1.0000   1.0000   1.0000
     1.0000   1.0000   1.0000   1.0000   1.0000   1.0000   1.0000   1.0000
     1.0000   1.0000   1.0000   1.0000   1.0000   1.0000   1.0000   1.0000
     1.0000   1.0000   1.0000   1.0000   1.0000   1.0000   1.0000   1.0000
     1.0000   1.0000   1.0000   1.0000   1.0000   1.0000   1.0000   1.0000
     1.0000   1.0000   1.0000   1.0000   1.0000   1.0000   1.0000   1.0000
     1.0000   1.0000   1.0000   1.0000   1.0000   1.0000   1.0000   1.0000

[...]

          k = 0.0000-0.3849 0.3971 (  7699 PWs)   bands (ev):

[...]

          k =-0.1667-0.4811 0.1985 (  7713 PWs)   bands (ev):

[...]

          k =-0.1667-0.4811 0.3971 (  7701 PWs)   bands (ev):

   -10.4799 -10.3330 -10.2199 -10.2197 -10.1241 -10.0576 -10.0411  -9.9875
     1.1700   1.2285   1.2478   1.2972   1.3104   1.3407   1.4598   1.5577
     1.6674   1.6963   1.7449   1.7477   1.7797   1.8046   1.8226   1.8303
     1.8482   1.9136   1.9292   1.9625   2.0088   2.0617   2.2408   2.2636
     2.7283   2.7332   2.7367   2.7373   2.7734   2.7906   2.8043   2.8448
     2.8677   2.8822   2.9086   2.9170   2.9442   3.0054   3.0561   3.1880
     3.4220   3.6745   3.8954   4.0961   4.1915   4.3122   4.3157   4.6017
     5.0871   5.1096   5.1670   5.1867   5.2478   5.5455   5.5664   5.7850
     5.9028   5.9203   6.1563   6.1790   6.2356   6.3507   6.3993   6.6251

     occupation numbers
     1.0000   1.0000   1.0000   1.0000   1.0000   1.0000   1.0000   1.0000
     1.0000   1.0000   1.0000   1.0000   1.0000   1.0000   1.0000   1.0000
     1.0000   1.0000   1.0000   1.0000   1.0000   1.0000   1.0000   1.0000
     1.0000   1.0000   1.0000   1.0000   1.0000   1.0000   1.0000   1.0000
     1.0000   1.0000   1.0000   1.0000   1.0000   1.0000   1.0000   1.0000
     1.0000   1.0000   1.0000   1.0000   1.0000   1.0000   1.0000   1.0000
     1.0000   1.0000   1.0000   1.0000   1.0000   1.0000   1.0000   1.0000
     1.0000   1.0000   1.0000   1.0000   1.0000   1.0000   1.0000   1.0000
     1.0000   1.0000   1.0000   1.0000   1.0000   1.0000   1.0000   1.0000

     highest occupied level (ev):     7.2447

!    total energy              =   -1446.53283642 Ry
     estimated scf accuracy    <          2.8E-09 Ry

     The total energy is the sum of the following terms:
     one-electron contribution =    -608.39710512 Ry
     hartree contribution      =     469.69971217 Ry
     xc contribution           =    -438.36101489 Ry
     ewald contribution        =    -869.47442858 Ry

     convergence has been achieved in  34 iterations

     Forces acting on atoms (cartesian axes, Ry/au):

     atom    1 type  1   force =     0.00000022    0.00000013    0.01193814
     atom    2 type  1   force =     0.00000000    0.00000038    0.01192418
     atom    3 type  2   force =    -0.00000060   -0.00000035   -0.01193141
     atom    4 type  2   force =     0.00000000   -0.00000063   -0.01193146
     atom    5 type  1   force =     0.00000000   -0.00000000    0.01193981
     atom    6 type  1   force =     0.00000033   -0.00000019    0.01192418
     atom    7 type  2   force =     0.00000000    0.00000000   -0.01193222
     atom    8 type  2   force =    -0.00000054    0.00000031   -0.01193146
     atom    9 type  1   force =    -0.00000022    0.00000013    0.01193814
     atom   10 type  1   force =    -0.00000000   -0.00000000    0.01192493
     atom   11 type  2   force =     0.00000060   -0.00000035   -0.01193141
     atom   12 type  2   force =     0.00000000    0.00000000   -0.01193087
     atom   13 type  1   force =    -0.00000000   -0.00000026    0.01193814
     atom   14 type  1   force =    -0.00000033   -0.00000019    0.01192418
     atom   15 type  2   force =    -0.00000000    0.00000070   -0.01193141
     atom   16 type  2   force =     0.00000054    0.00000031   -0.01193146
     The non-local contrib.  to forces
     atom    1 type  1   force =    -0.00000036   -0.00000021    0.10646980
     atom    2 type  1   force =     0.00000000    0.00000168    0.10646277
     atom    3 type  2   force =    -0.00000014   -0.00000008    0.10065815
     atom    4 type  2   force =     0.00000000   -0.00000166    0.10066248
     atom    5 type  1   force =     0.00000000    0.00000000    0.10646918
     atom    6 type  1   force =     0.00000146   -0.00000084    0.10646277
     atom    7 type  2   force =     0.00000000    0.00000000    0.10065748
     atom    8 type  2   force =    -0.00000143    0.00000083    0.10066248
     atom    9 type  1   force =     0.00000036   -0.00000021    0.10646980
     atom   10 type  1   force =     0.00000000    0.00000000    0.10646396
     atom   11 type  2   force =     0.00000014   -0.00000008    0.10065815
     atom   12 type  2   force =     0.00000000    0.00000000    0.10066088
     atom   13 type  1   force =     0.00000000    0.00000041    0.10646980
     atom   14 type  1   force =    -0.00000146   -0.00000084    0.10646277
     atom   15 type  2   force =     0.00000000    0.00000016    0.10065815
     atom   16 type  2   force =     0.00000143    0.00000083    0.10066248
     The ionic contribution  to forces
     atom    1 type  1   force =     0.00000001   -0.00000002    0.88513271
     atom    2 type  1   force =    -0.00000001   -0.00000002    0.88513272
     atom    3 type  2   force =     0.00000000   -0.00000001   -0.88513271
     atom    4 type  2   force =    -0.00000000   -0.00000001   -0.88513272
     atom    5 type  1   force =    -0.00000001    0.00000002    0.88513272
     atom    6 type  1   force =     0.00000001    0.00000002    0.88513271
     atom    7 type  2   force =    -0.00000000    0.00000001   -0.88513272
     atom    8 type  2   force =     0.00000000    0.00000001   -0.88513271
     atom    9 type  1   force =     0.00000001   -0.00000002    0.88513271
     atom   10 type  1   force =    -0.00000001   -0.00000002    0.88513272
     atom   11 type  2   force =     0.00000000   -0.00000001   -0.88513271
     atom   12 type  2   force =    -0.00000000   -0.00000001   -0.88513272
     atom   13 type  1   force =    -0.00000001    0.00000002    0.88513272
     atom   14 type  1   force =     0.00000001    0.00000002    0.88513271
     atom   15 type  2   force =    -0.00000000    0.00000001   -0.88513272
     atom   16 type  2   force =     0.00000000    0.00000001   -0.88513271
     The local contribution  to forces
     atom    1 type  1   force =     0.00000033    0.00000009   -0.97195570
     atom    2 type  1   force =    -0.00000000   -0.00000796   -0.97192659
     atom    3 type  2   force =     0.00000439    0.00000251    0.77335683
     atom    4 type  2   force =    -0.00000000    0.00000354    0.77335052
     atom    5 type  1   force =    -0.00000000    0.00000010   -0.97196056
     atom    6 type  1   force =    -0.00000673    0.00000398   -0.97192659
     atom    7 type  2   force =    -0.00000000    0.00000003    0.77335554
     atom    8 type  2   force =     0.00000311   -0.00000177    0.77335052
     atom    9 type  1   force =    -0.00000016    0.00000009   -0.97195570
     atom   10 type  1   force =     0.00000000   -0.00000010   -0.97193023
     atom   11 type  2   force =    -0.00000435    0.00000251    0.77335683
     atom   12 type  2   force =     0.00000000   -0.00000003    0.77334739
     atom   13 type  1   force =    -0.00000000   -0.00000018   -0.97195570
     atom   14 type  1   force =     0.00000689    0.00000398   -0.97192659
     atom   15 type  2   force =    -0.00000000   -0.00000502    0.77335683
     atom   16 type  2   force =    -0.00000307   -0.00000177    0.77335052
     The core correction contribution to forces
     atom    1 type  1   force =     0.00000001   -0.00000001   -0.00772844
     atom    2 type  1   force =     0.00000000    0.00000034   -0.00772929
     atom    3 type  2   force =     0.00000002    0.00000001   -0.00080402
     atom    4 type  2   force =     0.00000000    0.00000004   -0.00080408
     atom    5 type  1   force =     0.00000000    0.00000001   -0.00772807
     atom    6 type  1   force =     0.00000031   -0.00000017   -0.00772929
     atom    7 type  2   force =     0.00000000   -0.00000000   -0.00080401
     atom    8 type  2   force =     0.00000003   -0.00000002   -0.00080408
     atom    9 type  1   force =     0.00000001   -0.00000001   -0.00772844
     atom   10 type  1   force =     0.00000000   -0.00000001   -0.00772919
     atom   11 type  2   force =    -0.00000002    0.00000001   -0.00080402
     atom   12 type  2   force =     0.00000000    0.00000000   -0.00080408
     atom   13 type  1   force =     0.00000000    0.00000001   -0.00772844
     atom   14 type  1   force =    -0.00000029   -0.00000017   -0.00772929
     atom   15 type  2   force =     0.00000000   -0.00000002   -0.00080402
     atom   16 type  2   force =    -0.00000003   -0.00000002   -0.00080408
     The Hubbard contrib.    to forces
     atom    1 type  1   force =     0.00000000    0.00000000    0.00000000
     atom    2 type  1   force =     0.00000000    0.00000000    0.00000000
     atom    3 type  2   force =     0.00000000    0.00000000    0.00000000
     atom    4 type  2   force =     0.00000000    0.00000000    0.00000000
     atom    5 type  1   force =     0.00000000    0.00000000    0.00000000
     atom    6 type  1   force =     0.00000000    0.00000000    0.00000000
     atom    7 type  2   force =     0.00000000    0.00000000    0.00000000
     atom    8 type  2   force =     0.00000000    0.00000000    0.00000000
     atom    9 type  1   force =     0.00000000    0.00000000    0.00000000
     atom   10 type  1   force =     0.00000000    0.00000000    0.00000000
     atom   11 type  2   force =     0.00000000    0.00000000    0.00000000
     atom   12 type  2   force =     0.00000000    0.00000000    0.00000000
     atom   13 type  1   force =     0.00000000    0.00000000    0.00000000
     atom   14 type  1   force =     0.00000000    0.00000000    0.00000000
     atom   15 type  2   force =     0.00000000    0.00000000    0.00000000
     atom   16 type  2   force =     0.00000000    0.00000000    0.00000000
     The SCF correction term to forces
     atom    1 type  1   force =     0.00000040    0.00000023    0.00002524
     atom    2 type  1   force =    -0.00000000    0.00000627   -0.00000997
     atom    3 type  2   force =    -0.00000484   -0.00000279   -0.00000419
     atom    4 type  2   force =    -0.00000000   -0.00000256   -0.00000219
     atom    5 type  1   force =    -0.00000000    0.00000000    0.00003201
     atom    6 type  1   force =     0.00000543   -0.00000314   -0.00000997
     atom    7 type  2   force =    -0.00000000    0.00000000   -0.00000305
     atom    8 type  2   force =    -0.00000221    0.00000128   -0.00000219
     atom    9 type  1   force =    -0.00000040    0.00000023    0.00002524
     atom   10 type  1   force =    -0.00000000   -0.00000000   -0.00000686
     atom   11 type  2   force =     0.00000484   -0.00000279   -0.00000419
     atom   12 type  2   force =    -0.00000000   -0.00000000    0.00000312
     atom   13 type  1   force =    -0.00000000   -0.00000046    0.00002524
     atom   14 type  1   force =    -0.00000543   -0.00000314   -0.00000997
     atom   15 type  2   force =    -0.00000000    0.00000558   -0.00000419
     atom   16 type  2   force =     0.00000221    0.00000128   -0.00000219

     Total force =     0.047726     Total SCF correction =     0.000060

     General routines

     Parallel routines

   This run was terminated on:  19: 5: 5  23Aug2025

   JOB DONE.
Note: The following floating-point exceptions are signalling: IEEE_INVALID_FLAG
Note: The following floating-point exceptions are signalling: IEEE_INVALID_FLAG
Note: The following floating-point exceptions are signalling: IEEE_INVALID_FLAG
Note: The following floating-point exceptions are signalling: IEEE_INVALID_FLAG
Note: The following floating-point exceptions are signalling: IEEE_INVALID_FLAG
Note: The following floating-point exceptions are signalling: IEEE_INVALID_FLAG
Note: The following floating-point exceptions are signalling: IEEE_INVALID_FLAG
Note: The following floating-point exceptions are signalling: IEEE_INVALID_FLAG
Note: The following floating-point exceptions are signalling: IEEE_INVALID_FLAG
Note: The following floating-point exceptions are signalling: IEEE_INVALID_FLAG
Note: The following floating-point exceptions are signalling: IEEE_INVALID_FLAG
Note: The following floating-point exceptions are signalling: IEEE_INVALID_FLAG
Note: The following floating-point exceptions are signalling: IEEE_INVALID_FLAG
Note: The following floating-point exceptions are signalling: IEEE_INVALID_FLAG
Note: The following floating-point exceptions are signalling: IEEE_INVALID_FLAG
Note: The following floating-point exceptions are signalling: IEEE_INVALID_FLAG
Note: The following floating-point exceptions are signalling: IEEE_INVALID_FLAG
Note: The following floating-point exceptions are signalling: IEEE_INVALID_FLAG
Note: The following floating-point exceptions are signalling: IEEE_INVALID_FLAG
Note: The following floating-point exceptions are signalling: IEEE_INVALID_FLAG
Note: The following floating-point exceptions are signalling: IEEE_INVALID_FLAG
Note: The following floating-point exceptions are signalling: IEEE_INVALID_FLAG
Note: The following floating-point exceptions are signalling: IEEE_INVALID_FLAG
Note: The following floating-point exceptions are signalling: IEEE_INVALID_FLAG
Note: The following floating-point exceptions are signalling: IEEE_INVALID_FLAG
Note: The following floating-point exceptions are signalling: IEEE_INVALID_FLAG
Note: The following floating-point exceptions are signalling: IEEE_INVALID_FLAG
Note: The following floating-point exceptions are signalling: IEEE_INVALID_FLAG
Note: The following floating-point exceptions are signalling: IEEE_INVALID_FLAG
Note: The following floating-point exceptions are signalling: IEEE_INVALID_FLAG
Note: The following floating-point exceptions are signalling: IEEE_INVALID_FLAG
Note: The following floating-point exceptions are signalling: IEEE_INVALID_FLAG