     Program PWSCF v.7.2 starts on 24Aug2025 at 10: 1:51

     Reading input from ZnO-3.14-1.52-221.in
Warning: card &CELL ignored
Warning: card / ignored
Warning: card &FCP ignored
Warning: card / ignored
Warning: card &RISM ignored
Warning: card / ignored

     Current dimensions of program PWSCF are:
     Max number of different atomic species (ntypx) = 10
     Max number of k-points (npk) =  40000
     Max angular momentum in pseudopotentials (lmaxx) =  4
     file Zn.upf: wavefunction(s)  3D renormalized
     Found identity + (  0.0000 -0.5000  0.0000) symmetry
     This is a supercell, fractional translations are disabled
     Message from routine setup:
     using ibrav=0 with symmetry is DISCOURAGED, use correct ibrav instead

     K-points division:     npool     =      16
     band groups division:  nbgrp     =       4
     Subspace diagonalization in iterative solution of the eigenvalue problem:
     a serial algorithm will be used

     Using Slab Decomposition

     bravais-lattice index     =            0
     lattice parameter (alat)  =      11.8634  a.u.
     unit-cell volume          =    1097.1245 (a.u.)^3
     number of atoms/cell      =           16
     number of atomic types    =            2
     number of electrons       =       144.00
     number of Kohn-Sham states=           72
     kinetic-energy cutoff     =      50.0000  Ry
     charge density cutoff     =     400.0000  Ry
     scf convergence threshold =      1.0E-08
     mixing beta               =       0.3000
     number of iterations used =            8  plain     mixing
     Exchange-correlation= PBE
                           (   1   4   3   4   0   0   0)

     celldm(1)=  11.863400  celldm(2)=   0.000000  celldm(3)=   0.000000
     celldm(4)=   0.000000  celldm(5)=   0.000000  celldm(6)=   0.000000

     crystal axes: (cart. coord. in units of alat)
               a(1) = (   1.000000   0.000000   0.000000 )
               a(2) = (  -0.500000   0.866025   0.000000 )
               a(3) = (   0.000000   0.000000   0.758748 )

     reciprocal axes: (cart. coord. in units 2 pi/alat)
               b(1) = (  1.000000  0.577350 -0.000000 )
               b(2) = (  0.000000  1.154701  0.000000 )
               b(3) = (  0.000000 -0.000000  1.317960 )

     PseudoPot. # 1 for Zn read from file:
     /home/jvc/QEspresso7.2/ZnO_database/pseudos/Zn.upf
     MD5 check sum: 7f56cabf9682ed8c977c2f7d0c5985c5
     Pseudo is Ultrasoft + core correction, Zval = 12.0
     Generated using &quot;atomic&quot; code by A. Dal Corso  v.6.2.2
     Using radial grid of 1201 points,  6 beta functions with:
                l(1) =   0
                l(2) =   0
                l(3) =   1
                l(4) =   1
                l(5) =   2
                l(6) =   2
     Q(r) pseudized with 0 coefficients

     PseudoPot. # 2 for O  read from file:
     /home/jvc/QEspresso7.2/ZnO_database/pseudos/O.upf
     MD5 check sum: 91400c9766925bcf19f520983a725ff0
     Pseudo is Ultrasoft + core correction, Zval =  6.0
     Generated using &quot;atomic&quot; code by A. Dal Corso  v.6.3MaX
     Using radial grid of 1095 points,  4 beta functions with:
                l(1) =   0
                l(2) =   0
                l(3) =   1
                l(4) =   1
     Q(r) pseudized with 0 coefficients

     atomic species   valence    mass     pseudopotential
        Zn            12.00    65.38000     Zn( 1.00)
        O              6.00    15.99900     O ( 1.00)

      6 Sym. Ops. (no inversion) found

                                    s                        frac. trans.

      isym =  1     identity

 cryst.   s( 1) = (     1          0          0      )
                  (     0          1          0      )
                  (     0          0          1      )

 cart.    s( 1) = (  1.0000000  0.0000000  0.0000000 )
                  (  0.0000000  1.0000000  0.0000000 )
                  (  0.0000000  0.0000000  1.0000000 )

      isym =  2     120 deg rotation - cryst. axis [0,0,1]

[...]

      isym =  3     120 deg rotation - cryst. axis [0,0,-1]

[...]

      isym =  4     inv. 180 deg rotation - cart. axis [1,0,0]

[...]

      isym =  5     inv. 180 deg rotation - cryst. axis [0,1,0]

[...]

      isym =  6     inv. 180 deg rotation - cryst. axis [1,1,0]

 cryst.   s( 6) = (     0         -1          0      )
                  (    -1          0          0      )
                  (     0          0          1      )

 cart.    s( 6) = (  0.5000000 -0.8660254  0.0000000 )
                  ( -0.8660254 -0.5000000  0.0000000 )
                  (  0.0000000  0.0000000  1.0000000 )

   Cartesian axes

     site n.     atom                  positions (alat units)
         1           Zn  tau(   1) = (   0.2500000   0.1443376   0.3798549  )
         2           Zn  tau(   2) = (  -0.0000000   0.2886751   0.0004807  )
         3           O   tau(   3) = (   0.2500000   0.1443376   0.6674531  )
         4           O   tau(   4) = (  -0.0000000   0.2886751   0.2880789  )
         5           Zn  tau(   5) = (  -0.0000000   0.5773503   0.3798549  )
         6           Zn  tau(   6) = (  -0.2500000   0.7216878   0.0004807  )
         7           O   tau(   7) = (  -0.0000000   0.5773503   0.6674531  )
         8           O   tau(   8) = (  -0.2500000   0.7216878   0.2880789  )
         9           Zn  tau(   9) = (   0.7500000   0.1443376   0.3798549  )
        10           Zn  tau(  10) = (   0.5000000   0.2886751   0.0004807  )
        11           O   tau(  11) = (   0.7500000   0.1443376   0.6674531  )
        12           O   tau(  12) = (   0.5000000   0.2886751   0.2880789  )
        13           Zn  tau(  13) = (   0.5000000   0.5773503   0.3798549  )
        14           Zn  tau(  14) = (   0.2500000   0.7216878   0.0004807  )
        15           O   tau(  15) = (   0.5000000   0.5773503   0.6674531  )
        16           O   tau(  16) = (   0.2500000   0.7216878   0.2880789  )

   Crystallographic axes

     site n.     atom                  positions (cryst. coord.)
         1           Zn  tau(   1) = (  0.3333333  0.1666667  0.5006336  )
         2           Zn  tau(   2) = (  0.1666667  0.3333333  0.0006336  )
         3           O   tau(   3) = (  0.3333333  0.1666667  0.8796764  )
         4           O   tau(   4) = (  0.1666667  0.3333333  0.3796764  )
         5           Zn  tau(   5) = (  0.3333333  0.6666667  0.5006336  )
         6           Zn  tau(   6) = (  0.1666667  0.8333333  0.0006336  )
         7           O   tau(   7) = (  0.3333333  0.6666667  0.8796764  )
         8           O   tau(   8) = (  0.1666667  0.8333333  0.3796764  )
         9           Zn  tau(   9) = (  0.8333333  0.1666667  0.5006336  )
        10           Zn  tau(  10) = (  0.6666667  0.3333333  0.0006336  )
        11           O   tau(  11) = (  0.8333333  0.1666667  0.8796764  )
        12           O   tau(  12) = (  0.6666667  0.3333333  0.3796764  )
        13           Zn  tau(  13) = (  0.8333333  0.6666667  0.5006336  )
        14           Zn  tau(  14) = (  0.6666667  0.8333333  0.0006336  )
        15           O   tau(  15) = (  0.8333333  0.6666667  0.8796764  )
        16           O   tau(  16) = (  0.6666667  0.8333333  0.3796764  )

     number of k points=    34
                       cart. coord. in units 2pi/alat
        k(    1) = (   0.0000000   0.0000000   0.0000000), wk =   0.0092593
        k(    2) = (   0.0000000   0.0000000   0.2196600), wk =   0.0185185
        k(    3) = (   0.0000000   0.0000000   0.4393200), wk =   0.0185185
        k(    4) = (   0.0000000   0.0000000  -0.6589799), wk =   0.0092593
        k(    5) = (   0.0000000   0.1924501   0.0000000), wk =   0.0555556
        k(    6) = (   0.0000000   0.1924501   0.2196600), wk =   0.0555556
        k(    7) = (   0.0000000   0.1924501   0.4393200), wk =   0.0555556
        k(    8) = (   0.0000000   0.1924501  -0.6589799), wk =   0.0555556
        k(    9) = (   0.0000000   0.3849002   0.0000000), wk =   0.0555556
        k(   10) = (   0.0000000   0.3849002   0.2196600), wk =   0.0555556
        k(   11) = (   0.0000000   0.3849002   0.4393200), wk =   0.0555556
        k(   12) = (   0.0000000   0.3849002  -0.6589799), wk =   0.0555556
        k(   13) = (   0.0000000  -0.5773503   0.0000000), wk =   0.0277778
        k(   14) = (   0.0000000  -0.5773503   0.2196600), wk =   0.0555556
        k(   15) = (   0.0000000  -0.5773503   0.4393200), wk =   0.0555556
        k(   16) = (   0.0000000  -0.5773503  -0.6589799), wk =   0.0277778
        k(   17) = (   0.1666667   0.2886751   0.0000000), wk =   0.0555556
        k(   18) = (   0.1666667   0.2886751   0.2196600), wk =   0.1111111
        k(   19) = (   0.1666667   0.2886751   0.4393200), wk =   0.1111111
        k(   20) = (   0.1666667   0.2886751  -0.6589799), wk =   0.0555556
        k(   21) = (   0.1666667   0.4811252   0.0000000), wk =   0.1111111
        k(   22) = (   0.1666667   0.4811252   0.2196600), wk =   0.1111111
        k(   23) = (   0.1666667   0.4811252   0.4393200), wk =   0.1111111
        k(   24) = (   0.1666667   0.4811252  -0.6589799), wk =   0.1111111
        k(   25) = (   0.3333333   0.5773503   0.0000000), wk =   0.0185185
        k(   26) = (   0.3333333   0.5773503   0.2196600), wk =   0.0370370
        k(   27) = (   0.3333333   0.5773503   0.4393200), wk =   0.0370370
        k(   28) = (   0.3333333   0.5773503  -0.6589799), wk =   0.0185185
        k(   29) = (   0.0000000  -0.1924501   0.2196600), wk =   0.0555556
        k(   30) = (   0.0000000  -0.1924501   0.4393200), wk =   0.0555556
        k(   31) = (   0.0000000  -0.3849002   0.2196600), wk =   0.0555556
        k(   32) = (   0.0000000  -0.3849002   0.4393200), wk =   0.0555556
        k(   33) = (  -0.1666667  -0.4811252   0.2196600), wk =   0.1111111
        k(   34) = (  -0.1666667  -0.4811252   0.4393200), wk =   0.1111111

                       cryst. coord.
        k(    1) = (   0.0000000   0.0000000   0.0000000), wk =   0.0092593
        k(    2) = (   0.0000000   0.0000000   0.1666667), wk =   0.0185185
        k(    3) = (   0.0000000   0.0000000   0.3333333), wk =   0.0185185
        k(    4) = (   0.0000000   0.0000000  -0.5000000), wk =   0.0092593
        k(    5) = (   0.0000000   0.1666667   0.0000000), wk =   0.0555556
        k(    6) = (   0.0000000   0.1666667   0.1666667), wk =   0.0555556
        k(    7) = (   0.0000000   0.1666667   0.3333333), wk =   0.0555556
        k(    8) = (   0.0000000   0.1666667  -0.5000000), wk =   0.0555556
        k(    9) = (   0.0000000   0.3333333   0.0000000), wk =   0.0555556
        k(   10) = (   0.0000000   0.3333333   0.1666667), wk =   0.0555556
        k(   11) = (   0.0000000   0.3333333   0.3333333), wk =   0.0555556
        k(   12) = (   0.0000000   0.3333333  -0.5000000), wk =   0.0555556
        k(   13) = (   0.0000000  -0.5000000   0.0000000), wk =   0.0277778
        k(   14) = (   0.0000000  -0.5000000   0.1666667), wk =   0.0555556
        k(   15) = (   0.0000000  -0.5000000   0.3333333), wk =   0.0555556
        k(   16) = (   0.0000000  -0.5000000  -0.5000000), wk =   0.0277778
[...]
     1.0000   1.0000   1.0000   1.0000   1.0000   1.0000   1.0000   1.0000
     1.0000   1.0000   1.0000   1.0000   1.0000   1.0000   1.0000   1.0000
     1.0000   1.0000   1.0000   1.0000   1.0000   1.0000   1.0000   1.0000
     1.0000   1.0000   1.0000   1.0000   1.0000   1.0000   1.0000   1.0000
     1.0000   1.0000   1.0000   1.0000   1.0000   1.0000   1.0000   1.0000
     1.0000   1.0000   1.0000   1.0000   1.0000   1.0000   1.0000   1.0000
     1.0000   1.0000   1.0000   1.0000   1.0000   1.0000   1.0000   1.0000
     1.0000   1.0000   1.0000   1.0000   1.0000   1.0000   1.0000   1.0000

[...]

          k = 0.0000-0.3849 0.4393 (  6552 PWs)   bands (ev):

[...]

          k =-0.1667-0.4811 0.2197 (  6539 PWs)   bands (ev):

[...]

          k =-0.1667-0.4811 0.4393 (  6553 PWs)   bands (ev):

    -9.1146  -8.9338  -8.7914  -8.6642  -8.5698  -8.5553  -8.5078  -8.4608
     2.6249   2.6632   2.7188   2.7197   2.7400   2.7647   2.8679   2.9087
     3.3786   3.4377   3.4751   3.5133   3.5214   3.5623   3.5673   3.5846
     3.6101   3.6874   3.7102   3.8312   3.8388   3.9538   4.0755   4.1113
     4.9823   5.0233   5.0244   5.0249   5.0668   5.0891   5.1078   5.1639
     5.2537   5.2653   5.3002   5.3018   5.3421   5.4071   5.4681   5.6089
     5.8449   6.1034   6.2582   6.4209   6.5553   6.7741   6.8174   7.1040
     7.3200   7.4946   7.6306   7.6404   7.6911   7.8880   7.9078   8.1066
     8.3207   8.3208   8.5472   8.7401   8.9039   9.0196   9.0524   9.1592

     occupation numbers
     1.0000   1.0000   1.0000   1.0000   1.0000   1.0000   1.0000   1.0000
     1.0000   1.0000   1.0000   1.0000   1.0000   1.0000   1.0000   1.0000
     1.0000   1.0000   1.0000   1.0000   1.0000   1.0000   1.0000   1.0000
     1.0000   1.0000   1.0000   1.0000   1.0000   1.0000   1.0000   1.0000
     1.0000   1.0000   1.0000   1.0000   1.0000   1.0000   1.0000   1.0000
     1.0000   1.0000   1.0000   1.0000   1.0000   1.0000   1.0000   1.0000
     1.0000   1.0000   1.0000   1.0000   1.0000   1.0000   1.0000   1.0000
     1.0000   1.0000   1.0000   1.0000   1.0000   1.0000   1.0000   1.0000
     1.0000   1.0000   1.0000   1.0000   1.0000   1.0000   1.0000   1.0000

     highest occupied level (ev):     9.8321

!    total energy              =   -1446.24999980 Ry
     estimated scf accuracy    <          9.4E-09 Ry

     The total energy is the sum of the following terms:
     one-electron contribution =    -533.83271322 Ry
     hartree contribution      =     444.30285930 Ry
     xc contribution           =    -439.89883965 Ry
     ewald contribution        =    -916.82130623 Ry

     convergence has been achieved in  23 iterations

     Forces acting on atoms (cartesian axes, Ry/au):

     atom    1 type  1   force =     0.00000246    0.00000142   -0.05414330
     atom    2 type  1   force =    -0.00000000    0.00000307   -0.05413946
     atom    3 type  2   force =     0.00000001    0.00000001    0.05414122
     atom    4 type  2   force =    -0.00000000   -0.00000021    0.05414148
     atom    5 type  1   force =     0.00000000    0.00000000   -0.05414251
     atom    6 type  1   force =     0.00000266   -0.00000153   -0.05413946
     atom    7 type  2   force =     0.00000000    0.00000000    0.05414118
     atom    8 type  2   force =    -0.00000018    0.00000011    0.05414148
     atom    9 type  1   force =    -0.00000246    0.00000142   -0.05414330
     atom   10 type  1   force =     0.00000000    0.00000000   -0.05413919
     atom   11 type  2   force =    -0.00000001    0.00000001    0.05414122
     atom   12 type  2   force =     0.00000000    0.00000000    0.05414070
     atom   13 type  1   force =     0.00000000   -0.00000284   -0.05414330
     atom   14 type  1   force =    -0.00000266   -0.00000153   -0.05413946
     atom   15 type  2   force =     0.00000000   -0.00000001    0.05414122
     atom   16 type  2   force =     0.00000018    0.00000011    0.05414148
     The non-local contrib.  to forces
     atom    1 type  1   force =     0.00000204    0.00000118   -0.20204668
     atom    2 type  1   force =     0.00000000    0.00000339   -0.20204415
     atom    3 type  2   force =    -0.00000044   -0.00000026   -0.12862519
     atom    4 type  2   force =     0.00000000   -0.00000244   -0.12862504
     atom    5 type  1   force =     0.00000000   -0.00000000   -0.20204553
     atom    6 type  1   force =     0.00000293   -0.00000169   -0.20204415
     atom    7 type  2   force =     0.00000000    0.00000000   -0.12862379
     atom    8 type  2   force =    -0.00000211    0.00000122   -0.12862504
     atom    9 type  1   force =    -0.00000204    0.00000118   -0.20204668
     atom   10 type  1   force =     0.00000000    0.00000000   -0.20204420
     atom   11 type  2   force =     0.00000044   -0.00000026   -0.12862519
     atom   12 type  2   force =     0.00000000    0.00000000   -0.12862537
     atom   13 type  1   force =     0.00000000   -0.00000236   -0.20204668
     atom   14 type  1   force =    -0.00000293   -0.00000169   -0.20204415
     atom   15 type  2   force =     0.00000000    0.00000051   -0.12862519
     atom   16 type  2   force =     0.00000211    0.00000122   -0.12862504
     The ionic contribution  to forces
     atom    1 type  1   force =     0.00000001    0.00000001   -1.36942184
     atom    2 type  1   force =     0.00000002    0.00000001   -1.36942183
     atom    3 type  2   force =     0.00000001    0.00000001    1.36942184
     atom    4 type  2   force =     0.00000001    0.00000000    1.36942183
     atom    5 type  1   force =     0.00000001    0.00000001   -1.36942184
     atom    6 type  1   force =     0.00000002    0.00000001   -1.36942183
     atom    7 type  2   force =     0.00000001    0.00000001    1.36942184
     atom    8 type  2   force =     0.00000001    0.00000000    1.36942183
     atom    9 type  1   force =    -0.00000002   -0.00000001   -1.36942183
     atom   10 type  1   force =    -0.00000001   -0.00000001   -1.36942184
     atom   11 type  2   force =    -0.00000001   -0.00000000    1.36942183
     atom   12 type  2   force =    -0.00000001   -0.00000001    1.36942184
     atom   13 type  1   force =    -0.00000002   -0.00000001   -1.36942183
     atom   14 type  1   force =    -0.00000001   -0.00000001   -1.36942184
     atom   15 type  2   force =    -0.00000001   -0.00000000    1.36942183
     atom   16 type  2   force =    -0.00000001   -0.00000001    1.36942184
     The local contribution  to forces
     atom    1 type  1   force =    -0.00000410   -0.00000227    1.49923774
     atom    2 type  1   force =     0.00000008   -0.00000840    1.49922865
     atom    3 type  2   force =    -0.00000058   -0.00000031   -1.18743645
     atom    4 type  2   force =     0.00000002   -0.00000182   -1.18743663
     atom    5 type  1   force =    -0.00000000    0.00000009    1.49923255
     atom    6 type  1   force =    -0.00000724    0.00000427    1.49922865
     atom    7 type  2   force =    -0.00000000    0.00000002   -1.18743705
     atom    8 type  2   force =    -0.00000156    0.00000093   -1.18743663
     atom    9 type  1   force =     0.00000393   -0.00000227    1.49923774
     atom   10 type  1   force =    -0.00000008    0.00000005    1.49922707
     atom   11 type  2   force =     0.00000053   -0.00000031   -1.18743645
     atom   12 type  2   force =    -0.00000002    0.00000001   -1.18743638
     atom   13 type  1   force =    -0.00000016    0.00000482    1.49923774
     atom   14 type  1   force =     0.00000724    0.00000427    1.49922865
     atom   15 type  2   force =    -0.00000004    0.00000069   -1.18743645
     atom   16 type  2   force =     0.00000156    0.00000093   -1.18743663
     The core correction contribution to forces
     atom    1 type  1   force =    -0.00000035   -0.00000019    0.01808847
     atom    2 type  1   force =     0.00000001   -0.00000022    0.01808870
     atom    3 type  2   force =    -0.00000004   -0.00000003    0.00077919
     atom    4 type  2   force =    -0.00000000   -0.00000003    0.00077919
     atom    5 type  1   force =    -0.00000000    0.00000001    0.01808860
     atom    6 type  1   force =    -0.00000018    0.00000012    0.01808870
     atom    7 type  2   force =     0.00000000   -0.00000000    0.00077916
     atom    8 type  2   force =    -0.00000003    0.00000002    0.00077919
     atom    9 type  1   force =     0.00000033   -0.00000019    0.01808847
     atom   10 type  1   force =    -0.00000001    0.00000001    0.01808874
     atom   11 type  2   force =     0.00000004   -0.00000003    0.00077919
     atom   12 type  2   force =     0.00000000   -0.00000000    0.00077918
     atom   13 type  1   force =    -0.00000002    0.00000042    0.01808847
     atom   14 type  1   force =     0.00000018    0.00000012    0.01808870
     atom   15 type  2   force =     0.00000000    0.00000005    0.00077919
     atom   16 type  2   force =     0.00000003    0.00000002    0.00077919
     The Hubbard contrib.    to forces
     atom    1 type  1   force =     0.00000000    0.00000000    0.00000000
     atom    2 type  1   force =     0.00000000    0.00000000    0.00000000
     atom    3 type  2   force =     0.00000000    0.00000000    0.00000000
     atom    4 type  2   force =     0.00000000    0.00000000    0.00000000
     atom    5 type  1   force =     0.00000000    0.00000000    0.00000000
     atom    6 type  1   force =     0.00000000    0.00000000    0.00000000
     atom    7 type  2   force =     0.00000000    0.00000000    0.00000000
     atom    8 type  2   force =     0.00000000    0.00000000    0.00000000
     atom    9 type  1   force =     0.00000000    0.00000000    0.00000000
     atom   10 type  1   force =     0.00000000    0.00000000    0.00000000
     atom   11 type  2   force =     0.00000000    0.00000000    0.00000000
     atom   12 type  2   force =     0.00000000    0.00000000    0.00000000
     atom   13 type  1   force =     0.00000000    0.00000000    0.00000000
     atom   14 type  1   force =     0.00000000    0.00000000    0.00000000
     atom   15 type  2   force =     0.00000000    0.00000000    0.00000000
     atom   16 type  2   force =     0.00000000    0.00000000    0.00000000
     The SCF correction term to forces
     atom    1 type  1   force =     0.00000481    0.00000278   -0.00000110
     atom    2 type  1   force =     0.00000000    0.00000829    0.00000908
     atom    3 type  2   force =     0.00000106    0.00000061    0.00000174
     atom    4 type  2   force =     0.00000000    0.00000407    0.00000203
     atom    5 type  1   force =     0.00000000    0.00000000    0.00000362
     atom    6 type  1   force =     0.00000718   -0.00000414    0.00000908
     atom    7 type  2   force =     0.00000000    0.00000000    0.00000093
     atom    8 type  2   force =     0.00000353   -0.00000204    0.00000203
     atom    9 type  1   force =    -0.00000481    0.00000278   -0.00000110
     atom   10 type  1   force =    -0.00000000    0.00000000    0.00001093
     atom   11 type  2   force =    -0.00000106    0.00000061    0.00000174
     atom   12 type  2   force =    -0.00000000   -0.00000000    0.00000134
     atom   13 type  1   force =    -0.00000000   -0.00000556   -0.00000110
     atom   14 type  1   force =    -0.00000718   -0.00000414    0.00000908
     atom   15 type  2   force =    -0.00000000   -0.00000122    0.00000174
     atom   16 type  2   force =    -0.00000353   -0.00000204    0.00000203

     Total force =     0.216565     Total SCF correction =     0.000028

     General routines

     Parallel routines

   This run was terminated on:  10: 6:38  24Aug2025

   JOB DONE.
Note: The following floating-point exceptions are signalling: IEEE_INVALID_FLAG
Note: The following floating-point exceptions are signalling: IEEE_INVALID_FLAG
Note: The following floating-point exceptions are signalling: IEEE_INVALID_FLAG
Note: The following floating-point exceptions are signalling: IEEE_INVALID_FLAG
Note: The following floating-point exceptions are signalling: IEEE_INVALID_FLAG
Note: The following floating-point exceptions are signalling: IEEE_INVALID_FLAG
Note: The following floating-point exceptions are signalling: IEEE_INVALID_FLAG
Note: The following floating-point exceptions are signalling: IEEE_INVALID_FLAG
Note: The following floating-point exceptions are signalling: IEEE_INVALID_FLAG
Note: The following floating-point exceptions are signalling: IEEE_INVALID_FLAG
Note: The following floating-point exceptions are signalling: IEEE_INVALID_FLAG
Note: The following floating-point exceptions are signalling: IEEE_INVALID_FLAG
Note: The following floating-point exceptions are signalling: IEEE_INVALID_FLAG
Note: The following floating-point exceptions are signalling: IEEE_INVALID_FLAG
Note: The following floating-point exceptions are signalling: IEEE_INVALID_FLAG
Note: The following floating-point exceptions are signalling: IEEE_INVALID_FLAG
Note: The following floating-point exceptions are signalling: IEEE_INVALID_FLAG
Note: The following floating-point exceptions are signalling: IEEE_INVALID_FLAG
Note: The following floating-point exceptions are signalling: IEEE_INVALID_FLAG
Note: The following floating-point exceptions are signalling: IEEE_INVALID_FLAG
Note: The following floating-point exceptions are signalling: IEEE_INVALID_FLAG
Note: The following floating-point exceptions are signalling: IEEE_INVALID_FLAG
Note: The following floating-point exceptions are signalling: IEEE_INVALID_FLAG
Note: The following floating-point exceptions are signalling: IEEE_INVALID_FLAG
Note: The following floating-point exceptions are signalling: IEEE_INVALID_FLAG
Note: The following floating-point exceptions are signalling: IEEE_INVALID_FLAG
Note: The following floating-point exceptions are signalling: IEEE_INVALID_FLAG
Note: The following floating-point exceptions are signalling: IEEE_INVALID_FLAG
Note: The following floating-point exceptions are signalling: IEEE_INVALID_FLAG
Note: The following floating-point exceptions are signalling: IEEE_INVALID_FLAG
Note: The following floating-point exceptions are signalling: IEEE_INVALID_FLAG
Note: The following floating-point exceptions are signalling: IEEE_INVALID_FLAG
Note: The following floating-point exceptions are signalling: IEEE_INVALID_FLAG
Note: The following floating-point exceptions are signalling: IEEE_INVALID_FLAG
Note: The following floating-point exceptions are signalling: IEEE_INVALID_FLAG
Note: The following floating-point exceptions are signalling: IEEE_INVALID_FLAG
Note: The following floating-point exceptions are signalling: IEEE_INVALID_FLAG
Note: The following floating-point exceptions are signalling: IEEE_INVALID_FLAG
Note: The following floating-point exceptions are signalling: IEEE_INVALID_FLAG
Note: The following floating-point exceptions are signalling: IEEE_INVALID_FLAG
Note: The following floating-point exceptions are signalling: IEEE_INVALID_FLAG
Note: The following floating-point exceptions are signalling: IEEE_INVALID_FLAG
Note: The following floating-point exceptions are signalling: IEEE_INVALID_FLAG
Note: The following floating-point exceptions are signalling: IEEE_INVALID_FLAG
Note: The following floating-point exceptions are signalling: IEEE_INVALID_FLAG
Note: The following floating-point exceptions are signalling: IEEE_INVALID_FLAG
Note: The following floating-point exceptions are signalling: IEEE_INVALID_FLAG
Note: The following floating-point exceptions are signalling: IEEE_INVALID_FLAG
Note: The following floating-point exceptions are signalling: IEEE_INVALID_FLAG
Note: The following floating-point exceptions are signalling: IEEE_INVALID_FLAG
Note: The following floating-point exceptions are signalling: IEEE_INVALID_FLAG
Note: The following floating-point exceptions are signalling: IEEE_INVALID_FLAG
Note: The following floating-point exceptions are signalling: IEEE_INVALID_FLAG
Note: The following floating-point exceptions are signalling: IEEE_INVALID_FLAG
Note: The following floating-point exceptions are signalling: IEEE_INVALID_FLAG
Note: The following floating-point exceptions are signalling: IEEE_INVALID_FLAG
Note: The following floating-point exceptions are signalling: IEEE_INVALID_FLAG
Note: The following floating-point exceptions are signalling: IEEE_INVALID_FLAG
Note: The following floating-point exceptions are signalling: IEEE_INVALID_FLAG
Note: The following floating-point exceptions are signalling: IEEE_INVALID_FLAG
Note: The following floating-point exceptions are signalling: IEEE_INVALID_FLAG
Note: The following floating-point exceptions are signalling: IEEE_INVALID_FLAG
Note: The following floating-point exceptions are signalling: IEEE_INVALID_FLAG
Note: The following floating-point exceptions are signalling: IEEE_INVALID_FLAG