     Program PWSCF v.7.2 starts on 23Aug2025 at 14:57:53

     Reading input from /home/jvc/QEspresso7.2/ZnO_database/scripts/cell221.in/ZnO-2.94-1.52-221.in
Warning: card &CELL ignored
Warning: card / ignored
Warning: card &FCP ignored
Warning: card / ignored
Warning: card &RISM ignored
Warning: card / ignored

     Current dimensions of program PWSCF are:
     Max number of different atomic species (ntypx) = 10
     Max number of k-points (npk) =  40000
     Max angular momentum in pseudopotentials (lmaxx) =  4
     file Zn.upf: wavefunction(s)  3D renormalized
     Found identity + ( -0.0000 -0.5000  0.0000) symmetry
     This is a supercell, fractional translations are disabled
     Message from routine setup:
     using ibrav=0 with symmetry is DISCOURAGED, use correct ibrav instead

     K-points division:     npool     =       8
     band groups division:  nbgrp     =       4
     Subspace diagonalization in iterative solution of the eigenvalue problem:
     a serial algorithm will be used

     Using Slab Decomposition

     bravais-lattice index     =            0
     lattice parameter (alat)  =      11.1219  a.u.
     unit-cell volume          =     904.0027 (a.u.)^3
     number of atoms/cell      =           16
     number of atomic types    =            2
     number of electrons       =       144.00
     number of Kohn-Sham states=           72
     kinetic-energy cutoff     =      50.0000  Ry
     charge density cutoff     =     400.0000  Ry
     scf convergence threshold =      1.0E-08
     mixing beta               =       0.3000
     number of iterations used =            8  plain     mixing
     Exchange-correlation= PBE
                           (   1   4   3   4   0   0   0)

     celldm(1)=  11.121937  celldm(2)=   0.000000  celldm(3)=   0.000000
     celldm(4)=   0.000000  celldm(5)=   0.000000  celldm(6)=   0.000000

     crystal axes: (cart. coord. in units of alat)
               a(1) = (   1.000000   0.000000   0.000000 )
               a(2) = (  -0.500000   0.866025   0.000000 )
               a(3) = (   0.000000   0.000000   0.758748 )

     reciprocal axes: (cart. coord. in units 2 pi/alat)
               b(1) = (  1.000000  0.577350 -0.000000 )
               b(2) = (  0.000000  1.154701  0.000000 )
               b(3) = (  0.000000 -0.000000  1.317960 )

     PseudoPot. # 1 for Zn read from file:
     /home/jvc/QEspresso7.2/ZnO_database/pseudos/Zn.upf
     MD5 check sum: 7f56cabf9682ed8c977c2f7d0c5985c5
     Pseudo is Ultrasoft + core correction, Zval = 12.0
     Generated using &quot;atomic&quot; code by A. Dal Corso  v.6.2.2
     Using radial grid of 1201 points,  6 beta functions with:
                l(1) =   0
                l(2) =   0
                l(3) =   1
                l(4) =   1
                l(5) =   2
                l(6) =   2
     Q(r) pseudized with 0 coefficients

     PseudoPot. # 2 for O  read from file:
     /home/jvc/QEspresso7.2/ZnO_database/pseudos/O.upf
     MD5 check sum: 91400c9766925bcf19f520983a725ff0
     Pseudo is Ultrasoft + core correction, Zval =  6.0
     Generated using &quot;atomic&quot; code by A. Dal Corso  v.6.3MaX
     Using radial grid of 1095 points,  4 beta functions with:
                l(1) =   0
                l(2) =   0
                l(3) =   1
                l(4) =   1
     Q(r) pseudized with 0 coefficients

     atomic species   valence    mass     pseudopotential
        Zn            12.00    65.38000     Zn( 1.00)
        O              6.00    15.99900     O ( 1.00)

      6 Sym. Ops. (no inversion) found

                                    s                        frac. trans.

      isym =  1     identity

 cryst.   s( 1) = (     1          0          0      )
                  (     0          1          0      )
                  (     0          0          1      )

 cart.    s( 1) = (  1.0000000  0.0000000  0.0000000 )
                  (  0.0000000  1.0000000  0.0000000 )
                  (  0.0000000  0.0000000  1.0000000 )

      isym =  2     120 deg rotation - cryst. axis [0,0,1]

[...]

      isym =  3     120 deg rotation - cryst. axis [0,0,-1]

[...]

      isym =  4     inv. 180 deg rotation - cart. axis [1,0,0]

[...]

      isym =  5     inv. 180 deg rotation - cryst. axis [0,1,0]

[...]

      isym =  6     inv. 180 deg rotation - cryst. axis [1,1,0]

 cryst.   s( 6) = (     0         -1          0      )
                  (    -1          0          0      )
                  (     0          0          1      )

 cart.    s( 6) = (  0.5000000 -0.8660254  0.0000000 )
                  ( -0.8660254 -0.5000000  0.0000000 )
                  (  0.0000000  0.0000000  1.0000000 )

   Cartesian axes

     site n.     atom                  positions (alat units)
         1           Zn  tau(   1) = (   0.2500000   0.1443376   0.3798549  )
         2           Zn  tau(   2) = (  -0.0000000   0.2886751   0.0004807  )
         3           O   tau(   3) = (   0.2500000   0.1443376   0.6674531  )
         4           O   tau(   4) = (  -0.0000000   0.2886751   0.2880789  )
         5           Zn  tau(   5) = (   0.0000000   0.5773503   0.3798549  )
         6           Zn  tau(   6) = (  -0.2500000   0.7216878   0.0004807  )
         7           O   tau(   7) = (   0.0000000   0.5773503   0.6674531  )
         8           O   tau(   8) = (  -0.2500000   0.7216878   0.2880789  )
         9           Zn  tau(   9) = (   0.7500000   0.1443376   0.3798549  )
        10           Zn  tau(  10) = (   0.5000000   0.2886751   0.0004807  )
        11           O   tau(  11) = (   0.7500000   0.1443376   0.6674531  )
        12           O   tau(  12) = (   0.5000000   0.2886751   0.2880789  )
        13           Zn  tau(  13) = (   0.5000000   0.5773503   0.3798549  )
        14           Zn  tau(  14) = (   0.2500000   0.7216878   0.0004807  )
        15           O   tau(  15) = (   0.5000000   0.5773503   0.6674531  )
        16           O   tau(  16) = (   0.2500000   0.7216878   0.2880789  )

   Crystallographic axes

     site n.     atom                  positions (cryst. coord.)
         1           Zn  tau(   1) = (  0.3333333  0.1666667  0.5006336  )
         2           Zn  tau(   2) = (  0.1666667  0.3333333  0.0006336  )
         3           O   tau(   3) = (  0.3333333  0.1666667  0.8796764  )
         4           O   tau(   4) = (  0.1666667  0.3333333  0.3796764  )
         5           Zn  tau(   5) = (  0.3333333  0.6666667  0.5006336  )
         6           Zn  tau(   6) = (  0.1666667  0.8333333  0.0006336  )
         7           O   tau(   7) = (  0.3333333  0.6666667  0.8796764  )
         8           O   tau(   8) = (  0.1666667  0.8333333  0.3796764  )
         9           Zn  tau(   9) = (  0.8333333  0.1666667  0.5006336  )
        10           Zn  tau(  10) = (  0.6666667  0.3333333  0.0006336  )
        11           O   tau(  11) = (  0.8333333  0.1666667  0.8796764  )
        12           O   tau(  12) = (  0.6666667  0.3333333  0.3796764  )
        13           Zn  tau(  13) = (  0.8333333  0.6666667  0.5006336  )
        14           Zn  tau(  14) = (  0.6666667  0.8333333  0.0006336  )
        15           O   tau(  15) = (  0.8333333  0.6666667  0.8796764  )
        16           O   tau(  16) = (  0.6666667  0.8333333  0.3796764  )

     number of k points=    34
                       cart. coord. in units 2pi/alat
        k(    1) = (   0.0000000   0.0000000   0.0000000), wk =   0.0092593
        k(    2) = (   0.0000000   0.0000000   0.2196600), wk =   0.0185185
        k(    3) = (   0.0000000   0.0000000   0.4393200), wk =   0.0185185
        k(    4) = (   0.0000000   0.0000000  -0.6589799), wk =   0.0092593
        k(    5) = (   0.0000000   0.1924501   0.0000000), wk =   0.0555556
        k(    6) = (   0.0000000   0.1924501   0.2196600), wk =   0.0555556
        k(    7) = (   0.0000000   0.1924501   0.4393200), wk =   0.0555556
        k(    8) = (   0.0000000   0.1924501  -0.6589799), wk =   0.0555556
        k(    9) = (   0.0000000   0.3849002   0.0000000), wk =   0.0555556
        k(   10) = (   0.0000000   0.3849002   0.2196600), wk =   0.0555556
        k(   11) = (   0.0000000   0.3849002   0.4393200), wk =   0.0555556
        k(   12) = (   0.0000000   0.3849002  -0.6589799), wk =   0.0555556
        k(   13) = (   0.0000000  -0.5773503   0.0000000), wk =   0.0277778
        k(   14) = (   0.0000000  -0.5773503   0.2196600), wk =   0.0555556
        k(   15) = (   0.0000000  -0.5773503   0.4393200), wk =   0.0555556
        k(   16) = (   0.0000000  -0.5773503  -0.6589799), wk =   0.0277778
        k(   17) = (   0.1666667   0.2886751   0.0000000), wk =   0.0555556
        k(   18) = (   0.1666667   0.2886751   0.2196600), wk =   0.1111111
        k(   19) = (   0.1666667   0.2886751   0.4393200), wk =   0.1111111
        k(   20) = (   0.1666667   0.2886751  -0.6589799), wk =   0.0555556
        k(   21) = (   0.1666667   0.4811252   0.0000000), wk =   0.1111111
        k(   22) = (   0.1666667   0.4811252   0.2196600), wk =   0.1111111
        k(   23) = (   0.1666667   0.4811252   0.4393200), wk =   0.1111111
        k(   24) = (   0.1666667   0.4811252  -0.6589799), wk =   0.1111111
        k(   25) = (   0.3333333   0.5773503   0.0000000), wk =   0.0185185
        k(   26) = (   0.3333333   0.5773503   0.2196600), wk =   0.0370370
        k(   27) = (   0.3333333   0.5773503   0.4393200), wk =   0.0370370
        k(   28) = (   0.3333333   0.5773503  -0.6589799), wk =   0.0185185
        k(   29) = (   0.0000000  -0.1924501   0.2196600), wk =   0.0555556
        k(   30) = (   0.0000000  -0.1924501   0.4393200), wk =   0.0555556
        k(   31) = (   0.0000000  -0.3849002   0.2196600), wk =   0.0555556
        k(   32) = (   0.0000000  -0.3849002   0.4393200), wk =   0.0555556
        k(   33) = (  -0.1666667  -0.4811252   0.2196600), wk =   0.1111111
        k(   34) = (  -0.1666667  -0.4811252   0.4393200), wk =   0.1111111

                       cryst. coord.
        k(    1) = (   0.0000000   0.0000000   0.0000000), wk =   0.0092593
        k(    2) = (   0.0000000   0.0000000   0.1666667), wk =   0.0185185
        k(    3) = (   0.0000000   0.0000000   0.3333333), wk =   0.0185185
        k(    4) = (   0.0000000   0.0000000  -0.5000000), wk =   0.0092593
        k(    5) = (   0.0000000   0.1666667   0.0000000), wk =   0.0555556
        k(    6) = (   0.0000000   0.1666667   0.1666667), wk =   0.0555556
        k(    7) = (   0.0000000   0.1666667   0.3333333), wk =   0.0555556
        k(    8) = (   0.0000000   0.1666667  -0.5000000), wk =   0.0555556
        k(    9) = (   0.0000000   0.3333333   0.0000000), wk =   0.0555556
        k(   10) = (   0.0000000   0.3333333   0.1666667), wk =   0.0555556
        k(   11) = (   0.0000000   0.3333333   0.3333333), wk =   0.0555556
        k(   12) = (   0.0000000   0.3333333  -0.5000000), wk =   0.0555556
        k(   13) = (   0.0000000  -0.5000000   0.0000000), wk =   0.0277778
        k(   14) = (   0.0000000  -0.5000000   0.1666667), wk =   0.0555556
        k(   15) = (   0.0000000  -0.5000000   0.3333333), wk =   0.0555556
[...]
        k(   23) = (   0.1666667   0.3333333   0.3333333), wk =   0.1111111
        k(   24) = (   0.1666667   0.3333333  -0.5000000), wk =   0.1111111
        k(   25) = (   0.3333333   0.3333333   0.0000000), wk =   0.0185185
        k(   26) = (   0.3333333   0.3333333   0.1666667), wk =   0.0370370
        k(   27) = (   0.3333333   0.3333333   0.3333333), wk =   0.0370370
        k(   28) = (   0.3333333   0.3333333  -0.5000000), wk =   0.0185185
        k(   29) = (   0.0000000  -0.1666667   0.1666667), wk =   0.0555556
        k(   30) = (   0.0000000  -0.1666667   0.3333333), wk =   0.0555556
        k(   31) = (   0.0000000  -0.3333333   0.1666667), wk =   0.0555556
        k(   32) = (   0.0000000  -0.3333333   0.3333333), wk =   0.0555556
        k(   33) = (  -0.1666667  -0.3333333   0.1666667), wk =   0.1111111
        k(   34) = (  -0.1666667  -0.3333333   0.3333333), wk =   0.1111111

     Initial potential from superposition of free atoms

     starting charge     143.9702, renormalised to     144.0000
     Starting wfcs are  104 randomized atomic wfcs

     Self-consistent Calculation

     iteration #  1     ecut=    50.00 Ry     beta= 0.30
     Davidson diagonalization with overlap

     ethr =  1.00E-02,  avg # of iterations =  2.6

     total energy              =   -1444.77135731 Ry
     estimated scf accuracy    <       2.83019050 Ry

[...]

     total energy              =   -1445.26987688 Ry
     estimated scf accuracy    <       0.00000007 Ry

     iteration # 19     ecut=    50.00 Ry     beta= 0.30
     Davidson diagonalization with overlap

     ethr =  5.19E-11,  avg # of iterations =  5.4

     End of self-consistent calculation

          k = 0.0000 0.0000 0.0000 (  5419 PWs)   bands (ev):

    -7.9678  -6.6829  -6.6829  -6.6829  -6.3982  -6.1992  -6.1992  -6.1992
     4.8451   4.8451   4.8451   4.8636   4.8636   4.8636   4.9063   5.5477
     5.5477   5.6396   5.9158   5.9158   5.9158   5.9213   5.9213   6.0365
     6.0365   6.0365   6.6316   6.6316   6.6316   6.8935   6.8935   6.8935
     7.9390   7.9390   8.0116   8.0116   8.0116   8.3426   8.3426   8.3426
     8.4710   8.4710   8.5898   8.5898   8.5898   8.6430   8.6430   8.6430
     8.8489   8.8489   8.8489   8.9378   9.3893   9.3893   9.3893   9.8748
     9.8748   9.8748   9.8982   9.8982   9.8982  11.9849  11.9849  11.9849
    12.2087  12.2087  12.4251  12.4251  12.4251  13.6343  13.7006  13.7006

     occupation numbers
     1.0000   1.0000   1.0000   1.0000   1.0000   1.0000   1.0000   1.0000
     1.0000   1.0000   1.0000   1.0000   1.0000   1.0000   1.0000   1.0000
     1.0000   1.0000   1.0000   1.0000   1.0000   1.0000   1.0000   1.0000
     1.0000   1.0000   1.0000   1.0000   1.0000   1.0000   1.0000   1.0000
     1.0000   1.0000   1.0000   1.0000   1.0000   1.0000   1.0000   1.0000
     1.0000   1.0000   1.0000   1.0000   1.0000   1.0000   1.0000   1.0000
     1.0000   1.0000   1.0000   1.0000   1.0000   1.0000   1.0000   1.0000
     1.0000   1.0000   1.0000   1.0000   1.0000   1.0000   1.0000   1.0000
     1.0000   1.0000   1.0000   1.0000   1.0000   1.0000   1.0000   1.0000

[...]

          k = 0.0000-0.3849 0.4393 (  5396 PWs)   bands (ev):

[...]

          k =-0.1667-0.4811 0.2197 (  5390 PWs)   bands (ev):

[...]

          k =-0.1667-0.4811 0.4393 (  5389 PWs)   bands (ev):

    -7.2124  -6.9523  -6.7464  -6.5741  -6.4346  -6.4041  -6.3424  -6.2699
     4.5790   4.6142   4.6802   4.6835   4.6851   4.8012   4.8641   4.8926
     5.5613   5.7328   5.7481   5.7773   5.7940   5.8098   5.8407   5.8850
     5.9095   6.0595   6.0802   6.2523   6.2527   6.4093   6.5842   6.6230
     7.9792   8.0481   8.0500   8.0596   8.1369   8.1594   8.1987   8.2867
     8.4212   8.4383   8.4791   8.4869   8.5269   8.6050   8.6901   8.8660
     9.1278   9.3743   9.5959   9.6858  10.0123  10.2244  10.3779  10.5868
    10.6314  10.7470  10.9504  11.0639  11.1513  11.2624  11.5083  11.5308
    11.8194  11.8216  12.0466  12.3200  12.4982  12.6544  12.7145  12.8267

     occupation numbers
     1.0000   1.0000   1.0000   1.0000   1.0000   1.0000   1.0000   1.0000
     1.0000   1.0000   1.0000   1.0000   1.0000   1.0000   1.0000   1.0000
     1.0000   1.0000   1.0000   1.0000   1.0000   1.0000   1.0000   1.0000
     1.0000   1.0000   1.0000   1.0000   1.0000   1.0000   1.0000   1.0000
     1.0000   1.0000   1.0000   1.0000   1.0000   1.0000   1.0000   1.0000
     1.0000   1.0000   1.0000   1.0000   1.0000   1.0000   1.0000   1.0000
     1.0000   1.0000   1.0000   1.0000   1.0000   1.0000   1.0000   1.0000
     1.0000   1.0000   1.0000   1.0000   1.0000   1.0000   1.0000   1.0000
     1.0000   1.0000   1.0000   1.0000   1.0000   1.0000   1.0000   1.0000

     highest occupied level (ev):    13.7006

!    total energy              =   -1445.26987691 Ry
     estimated scf accuracy    <          1.3E-09 Ry

     The total energy is the sum of the following terms:
     one-electron contribution =    -437.94297548 Ry
     hartree contribution      =     412.74393870 Ry
     xc contribution           =    -442.12811349 Ry
     ewald contribution        =    -977.94272664 Ry

     convergence has been achieved in  19 iterations

     Forces acting on atoms (cartesian axes, Ry/au):

     atom    1 type  1   force =    -0.00000459   -0.00000265   -0.10229482
     atom    2 type  1   force =     0.00000000   -0.00000525   -0.10228807
     atom    3 type  2   force =    -0.00000242   -0.00000139    0.10229233
     atom    4 type  2   force =     0.00000000   -0.00000191    0.10229156
     atom    5 type  1   force =     0.00000000   -0.00000000   -0.10229277
     atom    6 type  1   force =    -0.00000455    0.00000262   -0.10228807
     atom    7 type  2   force =     0.00000000    0.00000000    0.10229017
     atom    8 type  2   force =    -0.00000166    0.00000096    0.10229156
     atom    9 type  1   force =     0.00000459   -0.00000265   -0.10229482
     atom   10 type  1   force =     0.00000000    0.00000000   -0.10229029
     atom   11 type  2   force =     0.00000242   -0.00000139    0.10229233
     atom   12 type  2   force =     0.00000000    0.00000000    0.10228988
     atom   13 type  1   force =    -0.00000000    0.00000530   -0.10229482
     atom   14 type  1   force =     0.00000455    0.00000262   -0.10228807
     atom   15 type  2   force =     0.00000000    0.00000279    0.10229233
     atom   16 type  2   force =     0.00000166    0.00000096    0.10229156
     The non-local contrib.  to forces
     atom    1 type  1   force =    -0.00000112   -0.00000064   -0.22282402
     atom    2 type  1   force =     0.00000000   -0.00000147   -0.22282216
     atom    3 type  2   force =    -0.00000120   -0.00000069   -0.11658432
     atom    4 type  2   force =     0.00000000   -0.00000036   -0.11658479
     atom    5 type  1   force =     0.00000000   -0.00000000   -0.22282394
     atom    6 type  1   force =    -0.00000128    0.00000074   -0.22282216
     atom    7 type  2   force =     0.00000000    0.00000000   -0.11658630
     atom    8 type  2   force =    -0.00000031    0.00000018   -0.11658479
     atom    9 type  1   force =     0.00000112   -0.00000064   -0.22282402
     atom   10 type  1   force =     0.00000000    0.00000000   -0.22282333
     atom   11 type  2   force =     0.00000120   -0.00000069   -0.11658432
     atom   12 type  2   force =     0.00000000    0.00000000   -0.11658661
     atom   13 type  1   force =     0.00000000    0.00000129   -0.22282402
     atom   14 type  1   force =     0.00000128    0.00000074   -0.22282216
     atom   15 type  2   force =     0.00000000    0.00000138   -0.11658432
     atom   16 type  2   force =     0.00000031    0.00000018   -0.11658479
     The ionic contribution  to forces
     atom    1 type  1   force =    -0.00000001    0.00000001   -1.55809773
     atom    2 type  1   force =     0.00000001    0.00000001   -1.55809773
     atom    3 type  2   force =    -0.00000001    0.00000001    1.55809773
     atom    4 type  2   force =     0.00000000    0.00000000    1.55809773
     atom    5 type  1   force =     0.00000000   -0.00000000   -1.55809773
     atom    6 type  1   force =    -0.00000000   -0.00000002   -1.55809773
     atom    7 type  2   force =     0.00000000    0.00000000    1.55809773
     atom    8 type  2   force =    -0.00000000   -0.00000001    1.55809773
     atom    9 type  1   force =    -0.00000001    0.00000001   -1.55809773
     atom   10 type  1   force =     0.00000001    0.00000001   -1.55809773
     atom   11 type  2   force =    -0.00000001    0.00000001    1.55809773
     atom   12 type  2   force =     0.00000000    0.00000000    1.55809773
     atom   13 type  1   force =     0.00000000   -0.00000000   -1.55809773
     atom   14 type  1   force =    -0.00000000   -0.00000002   -1.55809773
     atom   15 type  2   force =     0.00000000    0.00000000    1.55809773
     atom   16 type  2   force =    -0.00000000   -0.00000001    1.55809773
     The local contribution  to forces
     atom    1 type  1   force =     0.00000532    0.00000316    1.65464782
     atom    2 type  1   force =     0.00000007    0.00000471    1.65463927
     atom    3 type  2   force =     0.00000333    0.00000195   -1.33970437
     atom    4 type  2   force =     0.00000002    0.00000300   -1.33970231
     atom    5 type  1   force =     0.00000000    0.00000009    1.65464798
     atom    6 type  1   force =     0.00000404   -0.00000242    1.65463927
     atom    7 type  2   force =     0.00000000    0.00000002   -1.33970295
     atom    8 type  2   force =     0.00000259   -0.00000152   -1.33970231
     atom    9 type  1   force =    -0.00000532    0.00000316    1.65464782
     atom   10 type  1   force =     0.00000007    0.00000004    1.65464377
     atom   11 type  2   force =    -0.00000333    0.00000195   -1.33970437
     atom   12 type  2   force =     0.00000002    0.00000001   -1.33970235
     atom   13 type  1   force =     0.00000000   -0.00000606    1.65464782
     atom   14 type  1   force =    -0.00000404   -0.00000242    1.65463927
     atom   15 type  2   force =     0.00000000   -0.00000382   -1.33970437
     atom   16 type  2   force =    -0.00000259   -0.00000152   -1.33970231
     The core correction contribution to forces
     atom    1 type  1   force =    -0.00000005   -0.00000002    0.02398892
     atom    2 type  1   force =     0.00000001   -0.00000001    0.02398901
     atom    3 type  2   force =     0.00000002    0.00000001    0.00047762
     atom    4 type  2   force =    -0.00000000    0.00000001    0.00047762
     atom    5 type  1   force =    -0.00000000    0.00000001    0.02398882
     atom    6 type  1   force =    -0.00000001   -0.00000001    0.02398901
     atom    7 type  2   force =    -0.00000000   -0.00000000    0.00047764
     atom    8 type  2   force =     0.00000001   -0.00000000    0.00047762
     atom    9 type  1   force =     0.00000005   -0.00000002    0.02398892
     atom   10 type  1   force =     0.00000001    0.00000001    0.02398899
     atom   11 type  2   force =    -0.00000002    0.00000001    0.00047762
     atom   12 type  2   force =    -0.00000000   -0.00000000    0.00047764
     atom   13 type  1   force =    -0.00000000    0.00000007    0.02398892
     atom   14 type  1   force =     0.00000001   -0.00000001    0.02398901
     atom   15 type  2   force =    -0.00000000   -0.00000002    0.00047762
     atom   16 type  2   force =    -0.00000001   -0.00000000    0.00047762
     The Hubbard contrib.    to forces
     atom    1 type  1   force =     0.00000000    0.00000000    0.00000000
     atom    2 type  1   force =     0.00000000    0.00000000    0.00000000
     atom    3 type  2   force =     0.00000000    0.00000000    0.00000000
     atom    4 type  2   force =     0.00000000    0.00000000    0.00000000
     atom    5 type  1   force =     0.00000000    0.00000000    0.00000000
     atom    6 type  1   force =     0.00000000    0.00000000    0.00000000
     atom    7 type  2   force =     0.00000000    0.00000000    0.00000000
     atom    8 type  2   force =     0.00000000    0.00000000    0.00000000
     atom    9 type  1   force =     0.00000000    0.00000000    0.00000000
     atom   10 type  1   force =     0.00000000    0.00000000    0.00000000
     atom   11 type  2   force =     0.00000000    0.00000000    0.00000000
     atom   12 type  2   force =     0.00000000    0.00000000    0.00000000
     atom   13 type  1   force =     0.00000000    0.00000000    0.00000000
     atom   14 type  1   force =     0.00000000    0.00000000    0.00000000
     atom   15 type  2   force =     0.00000000    0.00000000    0.00000000
     atom   16 type  2   force =     0.00000000    0.00000000    0.00000000
     The SCF correction term to forces
     atom    1 type  1   force =    -0.00000875   -0.00000505   -0.00000692
     atom    2 type  1   force =    -0.00000000   -0.00000849    0.00000642
     atom    3 type  2   force =    -0.00000457   -0.00000264    0.00000856
     atom    4 type  2   force =    -0.00000000   -0.00000457    0.00000621
     atom    5 type  1   force =    -0.00000000   -0.00000000   -0.00000502
     atom    6 type  1   force =    -0.00000735    0.00000424    0.00000642
     atom    7 type  2   force =    -0.00000000   -0.00000000    0.00000694
     atom    8 type  2   force =    -0.00000395    0.00000228    0.00000621
     atom    9 type  1   force =     0.00000875   -0.00000505   -0.00000692
     atom   10 type  1   force =    -0.00000000   -0.00000000    0.00000091
     atom   11 type  2   force =     0.00000457   -0.00000264    0.00000856
     atom   12 type  2   force =    -0.00000000   -0.00000000    0.00000636
     atom   13 type  1   force =    -0.00000000    0.00001010   -0.00000692
     atom   14 type  1   force =     0.00000735    0.00000424    0.00000642
     atom   15 type  2   force =    -0.00000000    0.00000528    0.00000856
     atom   16 type  2   force =     0.00000395    0.00000228    0.00000621

     Total force =     0.409166     Total SCF correction =     0.000037

     General routines

     Parallel routines

   This run was terminated on:  15: 0:57  23Aug2025

   JOB DONE.
Note: The following floating-point exceptions are signalling: IEEE_INVALID_FLAG
Note: The following floating-point exceptions are signalling: IEEE_INVALID_FLAG
Note: The following floating-point exceptions are signalling: IEEE_INVALID_FLAG
Note: The following floating-point exceptions are signalling: IEEE_INVALID_FLAG
Note: The following floating-point exceptions are signalling: IEEE_INVALID_FLAG
Note: The following floating-point exceptions are signalling: IEEE_INVALID_FLAG
Note: The following floating-point exceptions are signalling: IEEE_INVALID_FLAG
Note: The following floating-point exceptions are signalling: IEEE_INVALID_FLAG
Note: The following floating-point exceptions are signalling: IEEE_INVALID_FLAG
Note: The following floating-point exceptions are signalling: IEEE_INVALID_FLAG
Note: The following floating-point exceptions are signalling: IEEE_INVALID_FLAG
Note: The following floating-point exceptions are signalling: IEEE_INVALID_FLAG
Note: The following floating-point exceptions are signalling: IEEE_INVALID_FLAG
Note: The following floating-point exceptions are signalling: IEEE_INVALID_FLAG
Note: The following floating-point exceptions are signalling: IEEE_INVALID_FLAG
Note: The following floating-point exceptions are signalling: IEEE_INVALID_FLAG
Note: The following floating-point exceptions are signalling: IEEE_INVALID_FLAG
Note: The following floating-point exceptions are signalling: IEEE_INVALID_FLAG
Note: The following floating-point exceptions are signalling: IEEE_INVALID_FLAG
Note: The following floating-point exceptions are signalling: IEEE_INVALID_FLAG
Note: The following floating-point exceptions are signalling: IEEE_INVALID_FLAG
Note: The following floating-point exceptions are signalling: IEEE_INVALID_FLAG
Note: The following floating-point exceptions are signalling: IEEE_INVALID_FLAG
Note: The following floating-point exceptions are signalling: IEEE_INVALID_FLAG
Note: The following floating-point exceptions are signalling: IEEE_INVALID_FLAG
Note: The following floating-point exceptions are signalling: IEEE_INVALID_FLAG
Note: The following floating-point exceptions are signalling: IEEE_INVALID_FLAG
Note: The following floating-point exceptions are signalling: IEEE_INVALID_FLAG
Note: The following floating-point exceptions are signalling: IEEE_INVALID_FLAG
Note: The following floating-point exceptions are signalling: IEEE_INVALID_FLAG
Note: The following floating-point exceptions are signalling: IEEE_INVALID_FLAG
Note: The following floating-point exceptions are signalling: IEEE_INVALID_FLAG