     Program PWSCF v.7.2 starts on 24Aug2025 at  1: 5: 2

     Reading input from /home/jvc/QEspresso7.2/ZnO_database/scripts/cell221.in/ZnO-3.47-1.74-221.in
Warning: card &CELL ignored
Warning: card / ignored
Warning: card &FCP ignored
Warning: card / ignored
Warning: card &RISM ignored
Warning: card / ignored

     Current dimensions of program PWSCF are:
     Max number of different atomic species (ntypx) = 10
     Max number of k-points (npk) =  40000
     Max angular momentum in pseudopotentials (lmaxx) =  4
     file Zn.upf: wavefunction(s)  3D renormalized
     Found identity + ( -0.0000  0.5000  0.0000) symmetry
     This is a supercell, fractional translations are disabled
     Message from routine setup:
     using ibrav=0 with symmetry is DISCOURAGED, use correct ibrav instead

     K-points division:     npool     =       8
     band groups division:  nbgrp     =       4
     Subspace diagonalization in iterative solution of the eigenvalue problem:
     a serial algorithm will be used

     Using Slab Decomposition

     bravais-lattice index     =            0
     lattice parameter (alat)  =      13.0992  a.u.
     unit-cell volume          =    1696.8979 (a.u.)^3
     number of atoms/cell      =           16
     number of atomic types    =            2
     number of electrons       =       144.00
     number of Kohn-Sham states=           72
     kinetic-energy cutoff     =      50.0000  Ry
     charge density cutoff     =     400.0000  Ry
     scf convergence threshold =      1.0E-08
     mixing beta               =       0.3000
     number of iterations used =            8  plain     mixing
     Exchange-correlation= PBE
                           (   1   4   3   4   0   0   0)

     celldm(1)=  13.099170  celldm(2)=   0.000000  celldm(3)=   0.000000
     celldm(4)=   0.000000  celldm(5)=   0.000000  celldm(6)=   0.000000

     crystal axes: (cart. coord. in units of alat)
               a(1) = (   1.000000   0.000000   0.000000 )
               a(2) = (  -0.500000   0.866025   0.000000 )
               a(3) = (   0.000000   0.000000   0.871754 )

     reciprocal axes: (cart. coord. in units 2 pi/alat)
               b(1) = (  1.000000  0.577350 -0.000000 )
               b(2) = (  0.000000  1.154701  0.000000 )
               b(3) = (  0.000000 -0.000000  1.147113 )

     PseudoPot. # 1 for Zn read from file:
     /home/jvc/QEspresso7.2/ZnO_database/pseudos/Zn.upf
     MD5 check sum: 7f56cabf9682ed8c977c2f7d0c5985c5
     Pseudo is Ultrasoft + core correction, Zval = 12.0
     Generated using &quot;atomic&quot; code by A. Dal Corso  v.6.2.2
     Using radial grid of 1201 points,  6 beta functions with:
                l(1) =   0
                l(2) =   0
                l(3) =   1
                l(4) =   1
                l(5) =   2
                l(6) =   2
     Q(r) pseudized with 0 coefficients

     PseudoPot. # 2 for O  read from file:
     /home/jvc/QEspresso7.2/ZnO_database/pseudos/O.upf
     MD5 check sum: 91400c9766925bcf19f520983a725ff0
     Pseudo is Ultrasoft + core correction, Zval =  6.0
     Generated using &quot;atomic&quot; code by A. Dal Corso  v.6.3MaX
     Using radial grid of 1095 points,  4 beta functions with:
                l(1) =   0
                l(2) =   0
                l(3) =   1
                l(4) =   1
     Q(r) pseudized with 0 coefficients

     atomic species   valence    mass     pseudopotential
        Zn            12.00    65.38000     Zn( 1.00)
        O              6.00    15.99900     O ( 1.00)

      6 Sym. Ops. (no inversion) found

                                    s                        frac. trans.

      isym =  1     identity

 cryst.   s( 1) = (     1          0          0      )
                  (     0          1          0      )
                  (     0          0          1      )

 cart.    s( 1) = (  1.0000000  0.0000000  0.0000000 )
                  (  0.0000000  1.0000000  0.0000000 )
                  (  0.0000000  0.0000000  1.0000000 )

      isym =  2     120 deg rotation - cryst. axis [0,0,1]

[...]

      isym =  3     120 deg rotation - cryst. axis [0,0,-1]

[...]

      isym =  4     inv. 180 deg rotation - cart. axis [1,0,0]

[...]

      isym =  5     inv. 180 deg rotation - cryst. axis [0,1,0]

[...]

      isym =  6     inv. 180 deg rotation - cryst. axis [1,1,0]

 cryst.   s( 6) = (     0         -1          0      )
                  (    -1          0          0      )
                  (     0          0          1      )

 cart.    s( 6) = (  0.5000000 -0.8660254  0.0000000 )
                  ( -0.8660254 -0.5000000  0.0000000 )
                  (  0.0000000  0.0000000  1.0000000 )

   Cartesian axes

     site n.     atom                  positions (alat units)
         1           Zn  tau(   1) = (   0.2500000   0.1443376   0.4364291  )
         2           Zn  tau(   2) = (  -0.0000000   0.2886751   0.0005523  )
         3           O   tau(   3) = (   0.2500000   0.1443376   0.7668610  )
         4           O   tau(   4) = (  -0.0000000   0.2886751   0.3309842  )
         5           Zn  tau(   5) = (   0.0000000   0.5773503   0.4364291  )
         6           Zn  tau(   6) = (  -0.2500000   0.7216878   0.0005523  )
         7           O   tau(   7) = (   0.0000000   0.5773503   0.7668610  )
         8           O   tau(   8) = (  -0.2500000   0.7216878   0.3309842  )
         9           Zn  tau(   9) = (   0.7500000   0.1443376   0.4364291  )
        10           Zn  tau(  10) = (   0.5000000   0.2886751   0.0005523  )
        11           O   tau(  11) = (   0.7500000   0.1443376   0.7668610  )
        12           O   tau(  12) = (   0.5000000   0.2886751   0.3309842  )
        13           Zn  tau(  13) = (   0.5000000   0.5773503   0.4364291  )
        14           Zn  tau(  14) = (   0.2500000   0.7216878   0.0005523  )
        15           O   tau(  15) = (   0.5000000   0.5773503   0.7668610  )
        16           O   tau(  16) = (   0.2500000   0.7216878   0.3309842  )

   Crystallographic axes

     site n.     atom                  positions (cryst. coord.)
         1           Zn  tau(   1) = (  0.3333333  0.1666667  0.5006336  )
         2           Zn  tau(   2) = (  0.1666667  0.3333333  0.0006336  )
         3           O   tau(   3) = (  0.3333333  0.1666667  0.8796764  )
         4           O   tau(   4) = (  0.1666667  0.3333333  0.3796764  )
         5           Zn  tau(   5) = (  0.3333333  0.6666667  0.5006336  )
         6           Zn  tau(   6) = (  0.1666667  0.8333333  0.0006336  )
         7           O   tau(   7) = (  0.3333333  0.6666667  0.8796764  )
         8           O   tau(   8) = (  0.1666667  0.8333333  0.3796764  )
         9           Zn  tau(   9) = (  0.8333333  0.1666667  0.5006336  )
        10           Zn  tau(  10) = (  0.6666667  0.3333333  0.0006336  )
        11           O   tau(  11) = (  0.8333333  0.1666667  0.8796764  )
        12           O   tau(  12) = (  0.6666667  0.3333333  0.3796764  )
        13           Zn  tau(  13) = (  0.8333333  0.6666667  0.5006336  )
        14           Zn  tau(  14) = (  0.6666667  0.8333333  0.0006336  )
        15           O   tau(  15) = (  0.8333333  0.6666667  0.8796764  )
        16           O   tau(  16) = (  0.6666667  0.8333333  0.3796764  )

     number of k points=    34
                       cart. coord. in units 2pi/alat
        k(    1) = (   0.0000000   0.0000000   0.0000000), wk =   0.0092593
        k(    2) = (   0.0000000   0.0000000   0.1911855), wk =   0.0185185
        k(    3) = (   0.0000000   0.0000000   0.3823711), wk =   0.0185185
        k(    4) = (   0.0000000   0.0000000  -0.5735566), wk =   0.0092593
        k(    5) = (   0.0000000   0.1924501   0.0000000), wk =   0.0555556
        k(    6) = (   0.0000000   0.1924501   0.1911855), wk =   0.0555556
        k(    7) = (   0.0000000   0.1924501   0.3823711), wk =   0.0555556
        k(    8) = (   0.0000000   0.1924501  -0.5735566), wk =   0.0555556
        k(    9) = (   0.0000000   0.3849002   0.0000000), wk =   0.0555556
        k(   10) = (   0.0000000   0.3849002   0.1911855), wk =   0.0555556
        k(   11) = (   0.0000000   0.3849002   0.3823711), wk =   0.0555556
        k(   12) = (   0.0000000   0.3849002  -0.5735566), wk =   0.0555556
        k(   13) = (   0.0000000  -0.5773503   0.0000000), wk =   0.0277778
        k(   14) = (   0.0000000  -0.5773503   0.1911855), wk =   0.0555556
        k(   15) = (   0.0000000  -0.5773503   0.3823711), wk =   0.0555556
        k(   16) = (   0.0000000  -0.5773503  -0.5735566), wk =   0.0277778
        k(   17) = (   0.1666667   0.2886751   0.0000000), wk =   0.0555556
        k(   18) = (   0.1666667   0.2886751   0.1911855), wk =   0.1111111
        k(   19) = (   0.1666667   0.2886751   0.3823711), wk =   0.1111111
        k(   20) = (   0.1666667   0.2886751  -0.5735566), wk =   0.0555556
        k(   21) = (   0.1666667   0.4811252   0.0000000), wk =   0.1111111
        k(   22) = (   0.1666667   0.4811252   0.1911855), wk =   0.1111111
        k(   23) = (   0.1666667   0.4811252   0.3823711), wk =   0.1111111
        k(   24) = (   0.1666667   0.4811252  -0.5735566), wk =   0.1111111
        k(   25) = (   0.3333333   0.5773503   0.0000000), wk =   0.0185185
        k(   26) = (   0.3333333   0.5773503   0.1911855), wk =   0.0370370
        k(   27) = (   0.3333333   0.5773503   0.3823711), wk =   0.0370370
        k(   28) = (   0.3333333   0.5773503  -0.5735566), wk =   0.0185185
        k(   29) = (   0.0000000  -0.1924501   0.1911855), wk =   0.0555556
        k(   30) = (   0.0000000  -0.1924501   0.3823711), wk =   0.0555556
        k(   31) = (   0.0000000  -0.3849002   0.1911855), wk =   0.0555556
        k(   32) = (   0.0000000  -0.3849002   0.3823711), wk =   0.0555556
        k(   33) = (  -0.1666667  -0.4811252   0.1911855), wk =   0.1111111
        k(   34) = (  -0.1666667  -0.4811252   0.3823711), wk =   0.1111111

                       cryst. coord.
        k(    1) = (   0.0000000   0.0000000   0.0000000), wk =   0.0092593
        k(    2) = (   0.0000000   0.0000000   0.1666667), wk =   0.0185185
        k(    3) = (   0.0000000   0.0000000   0.3333333), wk =   0.0185185
        k(    4) = (   0.0000000   0.0000000  -0.5000000), wk =   0.0092593
        k(    5) = (   0.0000000   0.1666667   0.0000000), wk =   0.0555556
        k(    6) = (   0.0000000   0.1666667   0.1666667), wk =   0.0555556
        k(    7) = (   0.0000000   0.1666667   0.3333333), wk =   0.0555556
        k(    8) = (   0.0000000   0.1666667  -0.5000000), wk =   0.0555556
        k(    9) = (   0.0000000   0.3333333   0.0000000), wk =   0.0555556
        k(   10) = (   0.0000000   0.3333333   0.1666667), wk =   0.0555556
        k(   11) = (   0.0000000   0.3333333   0.3333333), wk =   0.0555556
        k(   12) = (   0.0000000   0.3333333  -0.5000000), wk =   0.0555556
        k(   13) = (   0.0000000  -0.5000000   0.0000000), wk =   0.0277778
        k(   14) = (   0.0000000  -0.5000000   0.1666667), wk =   0.0555556
        k(   15) = (   0.0000000  -0.5000000   0.3333333), wk =   0.0555556
[...]
        k(   27) = (   0.3333333   0.3333333   0.3333333), wk =   0.0370370
        k(   28) = (   0.3333333   0.3333333  -0.5000000), wk =   0.0185185
        k(   29) = (   0.0000000  -0.1666667   0.1666667), wk =   0.0555556
        k(   30) = (   0.0000000  -0.1666667   0.3333333), wk =   0.0555556
        k(   31) = (   0.0000000  -0.3333333   0.1666667), wk =   0.0555556
        k(   32) = (   0.0000000  -0.3333333   0.3333333), wk =   0.0555556
        k(   33) = (  -0.1666667  -0.3333333   0.1666667), wk =   0.1111111
        k(   34) = (  -0.1666667  -0.3333333   0.3333333), wk =   0.1111111

     Check: negative core charge=   -0.000002

     Initial potential from superposition of free atoms

     starting charge     143.9702, renormalised to     144.0000
     Starting wfcs are  104 randomized atomic wfcs

     Self-consistent Calculation

     iteration #  1     ecut=    50.00 Ry     beta= 0.30
     Davidson diagonalization with overlap

     ethr =  1.00E-02,  avg # of iterations =  1.6

     total energy              =   -1445.44764212 Ry
     estimated scf accuracy    <       3.32684401 Ry

[...]

     c_bands:  1 eigenvalues not converged
     ethr =  4.75E-08,  avg # of iterations =  7.3

[...]

     c_bands:  1 eigenvalues not converged
     c_bands:  1 eigenvalues not converged
     c_bands:  2 eigenvalues not converged
     ethr =  4.75E-08,  avg # of iterations = 16.2

[...]

     total energy              =   -1446.25277871 Ry
     estimated scf accuracy    <       0.00000008 Ry

     iteration # 44     ecut=    50.00 Ry     beta= 0.30
     Davidson diagonalization with overlap

     ethr =  1.12E-11,  avg # of iterations =  7.2

     End of self-consistent calculation

          k = 0.0000 0.0000 0.0000 ( 10147 PWs)   bands (ev):

   -12.6030 -12.2939 -12.2166 -12.2166 -12.2166 -12.1231 -12.1231 -12.1231
    -1.1686  -1.1686  -1.1568  -1.1568  -1.1568  -1.1279  -1.0838  -1.0838
    -1.0011  -1.0011  -1.0011  -0.9674  -0.9674  -0.9674  -0.7729  -0.7729
    -0.7729  -0.7656  -0.7656  -0.7656  -0.6834  -0.6271  -0.6271  -0.6271
    -0.6005  -0.6005  -0.5214  -0.5214  -0.5065  -0.5065  -0.5065  -0.4852
    -0.4852  -0.4852  -0.4834  -0.4834  -0.4834  -0.4351  -0.4351  -0.4351
     0.1848   0.4094   0.4094   0.4094   0.8641   0.8641   0.8641   1.7926
     1.7926   1.7926   2.4534   2.4534   2.4534   2.8542   2.8542   2.8542
     3.1612   3.1612   3.1612   3.3818   3.3818   3.5562   3.7716   3.7716

     occupation numbers
     1.0000   1.0000   1.0000   1.0000   1.0000   1.0000   1.0000   1.0000
     1.0000   1.0000   1.0000   1.0000   1.0000   1.0000   1.0000   1.0000
     1.0000   1.0000   1.0000   1.0000   1.0000   1.0000   1.0000   1.0000
     1.0000   1.0000   1.0000   1.0000   1.0000   1.0000   1.0000   1.0000
     1.0000   1.0000   1.0000   1.0000   1.0000   1.0000   1.0000   1.0000
     1.0000   1.0000   1.0000   1.0000   1.0000   1.0000   1.0000   1.0000
     1.0000   1.0000   1.0000   1.0000   1.0000   1.0000   1.0000   1.0000
     1.0000   1.0000   1.0000   1.0000   1.0000   1.0000   1.0000   1.0000
     1.0000   1.0000   1.0000   1.0000   1.0000   1.0000   1.0000   1.0000

[...]

          k = 0.0000-0.3849 0.3824 ( 10133 PWs)   bands (ev):

[...]

          k =-0.1667-0.4811 0.1912 ( 10127 PWs)   bands (ev):

[...]

          k =-0.1667-0.4811 0.3824 ( 10139 PWs)   bands (ev):

   -12.3990 -12.3163 -12.2764 -12.2532 -12.2182 -12.1774 -12.1564 -12.1313
    -1.1893  -1.1764  -1.1182  -1.1098  -1.1075  -1.0717  -1.0693  -1.0610
    -1.0310  -1.0102  -0.9704  -0.9637  -0.9569  -0.9444  -0.9107  -0.8976
    -0.8922  -0.8916  -0.8472  -0.8471  -0.8386  -0.8300  -0.7094  -0.6915
    -0.5965  -0.5956  -0.5872  -0.5746  -0.5737  -0.5557  -0.5533  -0.5351
    -0.5334  -0.5241  -0.5083  -0.4986  -0.4828  -0.4447  -0.3920  -0.3499
     0.6355   0.7504   0.8893   1.0122   1.0788   1.1400   1.3941   1.7244
     1.8132   2.2458   2.2698   2.2738   2.4473   2.5548   2.6082   2.8265
     2.8297   2.8663   3.0280   3.0431   3.0634   3.1634   3.1669   3.3556

     occupation numbers
     1.0000   1.0000   1.0000   1.0000   1.0000   1.0000   1.0000   1.0000
     1.0000   1.0000   1.0000   1.0000   1.0000   1.0000   1.0000   1.0000
     1.0000   1.0000   1.0000   1.0000   1.0000   1.0000   1.0000   1.0000
     1.0000   1.0000   1.0000   1.0000   1.0000   1.0000   1.0000   1.0000
     1.0000   1.0000   1.0000   1.0000   1.0000   1.0000   1.0000   1.0000
     1.0000   1.0000   1.0000   1.0000   1.0000   1.0000   1.0000   1.0000
     1.0000   1.0000   1.0000   1.0000   1.0000   1.0000   1.0000   1.0000
     1.0000   1.0000   1.0000   1.0000   1.0000   1.0000   1.0000   1.0000
     1.0000   1.0000   1.0000   1.0000   1.0000   1.0000   1.0000   1.0000

     highest occupied level (ev):     3.7716

!    total energy              =   -1446.25277869 Ry
     estimated scf accuracy    <          3.9E-09 Ry

     The total energy is the sum of the following terms:
     one-electron contribution =    -731.35405187 Ry
     hartree contribution      =     514.59848048 Ry
     xc contribution           =    -436.40731391 Ry
     ewald contribution        =    -793.08989339 Ry

     convergence has been achieved in  44 iterations

     Forces acting on atoms (cartesian axes, Ry/au):

     atom    1 type  1   force =    -0.00000270   -0.00000156   -0.00806367
     atom    2 type  1   force =     0.00000000    0.00000804   -0.00805780
     atom    3 type  2   force =    -0.00000012   -0.00000007    0.00805903
     atom    4 type  2   force =     0.00000000   -0.00000058    0.00805933
     atom    5 type  1   force =     0.00000000    0.00000000   -0.00805400
     atom    6 type  1   force =     0.00000697   -0.00000402   -0.00805780
     atom    7 type  2   force =     0.00000000    0.00000000    0.00806001
     atom    8 type  2   force =    -0.00000050    0.00000029    0.00805933
     atom    9 type  1   force =     0.00000270   -0.00000156   -0.00806367
     atom   10 type  1   force =     0.00000000    0.00000000   -0.00805642
     atom   11 type  2   force =     0.00000012   -0.00000007    0.00805903
     atom   12 type  2   force =     0.00000000   -0.00000000    0.00805978
     atom   13 type  1   force =     0.00000000    0.00000312   -0.00806367
     atom   14 type  1   force =    -0.00000697   -0.00000402   -0.00805780
     atom   15 type  2   force =    -0.00000000    0.00000013    0.00805903
     atom   16 type  2   force =     0.00000050    0.00000029    0.00805933
     The non-local contrib.  to forces
     atom    1 type  1   force =     0.00000102    0.00000059    0.18038038
     atom    2 type  1   force =     0.00000000    0.00000600    0.18037925
     atom    3 type  2   force =    -0.00000002   -0.00000001    0.20728153
     atom    4 type  2   force =     0.00000000   -0.00000279    0.20728417
     atom    5 type  1   force =     0.00000000    0.00000000    0.18038583
     atom    6 type  1   force =     0.00000520   -0.00000300    0.18037925
     atom    7 type  2   force =     0.00000000   -0.00000000    0.20728521
     atom    8 type  2   force =    -0.00000242    0.00000140    0.20728417
     atom    9 type  1   force =    -0.00000102    0.00000059    0.18038038
     atom   10 type  1   force =     0.00000000    0.00000000    0.18038286
     atom   11 type  2   force =     0.00000002   -0.00000001    0.20728153
     atom   12 type  2   force =     0.00000000   -0.00000000    0.20728520
     atom   13 type  1   force =     0.00000000   -0.00000118    0.18038038
     atom   14 type  1   force =    -0.00000520   -0.00000300    0.18037925
     atom   15 type  2   force =     0.00000000    0.00000002    0.20728153
     atom   16 type  2   force =     0.00000242    0.00000140    0.20728417
     The ionic contribution  to forces
     atom    1 type  1   force =    -0.00000000    0.00000001    1.40004232
     atom    2 type  1   force =     0.00000002   -0.00000000    1.40004232
     atom    3 type  2   force =    -0.00000000    0.00000001   -1.40004232
     atom    4 type  2   force =     0.00000001   -0.00000000   -1.40004232
     atom    5 type  1   force =    -0.00000001    0.00000000    1.40004232
     atom    6 type  1   force =     0.00000001    0.00000000    1.40004232
     atom    7 type  2   force =    -0.00000001    0.00000000   -1.40004232
     atom    8 type  2   force =     0.00000001   -0.00000000   -1.40004232
     atom    9 type  1   force =    -0.00000000   -0.00000000    1.40004232
     atom   10 type  1   force =    -0.00000001   -0.00000000    1.40004232
     atom   11 type  2   force =    -0.00000000   -0.00000000   -1.40004232
     atom   12 type  2   force =    -0.00000000   -0.00000000   -1.40004232
     atom   13 type  1   force =    -0.00000001    0.00000000    1.40004232
     atom   14 type  1   force =     0.00000001   -0.00000001    1.40004232
     atom   15 type  2   force =    -0.00000001    0.00000000   -1.40004232
     atom   16 type  2   force =     0.00000001   -0.00000000   -1.40004232
     The local contribution  to forces
     atom    1 type  1   force =    -0.00000119   -0.00000048   -1.57800947
     atom    2 type  1   force =     0.00000009   -0.00001837   -1.57801215
     atom    3 type  2   force =    -0.00000101   -0.00000053    1.20271897
     atom    4 type  2   force =     0.00000002    0.00000510    1.20272050
     atom    5 type  1   force =    -0.00000018    0.00000011   -1.57802629
     atom    6 type  1   force =    -0.00001586    0.00000926   -1.57801215
     atom    7 type  2   force =    -0.00000005    0.00000003    1.20272096
     atom    8 type  2   force =     0.00000443   -0.00000253    1.20272050
     atom    9 type  1   force =     0.00000082   -0.00000048   -1.57800947
     atom   10 type  1   force =    -0.00000009    0.00000005   -1.57802014
     atom   11 type  2   force =     0.00000091   -0.00000053    1.20271897
     atom   12 type  2   force =    -0.00000002    0.00000001    1.20272078
     atom   13 type  1   force =    -0.00000018    0.00000127   -1.57800947
     atom   14 type  1   force =     0.00001604    0.00000926   -1.57801215
     atom   15 type  2   force =    -0.00000005    0.00000114    1.20271897
     atom   16 type  2   force =    -0.00000438   -0.00000253    1.20272050
     The core correction contribution to forces
     atom    1 type  1   force =     0.00000004    0.00000005   -0.01047038
     atom    2 type  1   force =     0.00000001    0.00000044   -0.01046899
     atom    3 type  2   force =     0.00000000    0.00000000   -0.00190606
     atom    4 type  2   force =    -0.00000000    0.00000005   -0.00190602
     atom    5 type  1   force =    -0.00000002    0.00000001   -0.01046996
     atom    6 type  1   force =     0.00000039   -0.00000021   -0.01046899
     atom    7 type  2   force =     0.00000000   -0.00000000   -0.00190610
     atom    8 type  2   force =     0.00000005   -0.00000003   -0.00190602
     atom    9 type  1   force =    -0.00000009    0.00000005   -0.01047038
     atom   10 type  1   force =    -0.00000001    0.00000001   -0.01046881
     atom   11 type  2   force =    -0.00000000    0.00000000   -0.00190606
     atom   12 type  2   force =     0.00000000   -0.00000000   -0.00190604
     atom   13 type  1   force =    -0.00000002   -0.00000006   -0.01047038
     atom   14 type  1   force =    -0.00000037   -0.00000021   -0.01046899
     atom   15 type  2   force =     0.00000000   -0.00000000   -0.00190606
     atom   16 type  2   force =    -0.00000005   -0.00000003   -0.00190602
     The Hubbard contrib.    to forces
     atom    1 type  1   force =     0.00000000    0.00000000    0.00000000
     atom    2 type  1   force =     0.00000000    0.00000000    0.00000000
     atom    3 type  2   force =     0.00000000    0.00000000    0.00000000
     atom    4 type  2   force =     0.00000000    0.00000000    0.00000000
     atom    5 type  1   force =     0.00000000    0.00000000    0.00000000
     atom    6 type  1   force =     0.00000000    0.00000000    0.00000000
     atom    7 type  2   force =     0.00000000    0.00000000    0.00000000
     atom    8 type  2   force =     0.00000000    0.00000000    0.00000000
     atom    9 type  1   force =     0.00000000    0.00000000    0.00000000
     atom   10 type  1   force =     0.00000000    0.00000000    0.00000000
     atom   11 type  2   force =     0.00000000    0.00000000    0.00000000
     atom   12 type  2   force =     0.00000000    0.00000000    0.00000000
     atom   13 type  1   force =     0.00000000    0.00000000    0.00000000
     atom   14 type  1   force =     0.00000000    0.00000000    0.00000000
     atom   15 type  2   force =     0.00000000    0.00000000    0.00000000
     atom   16 type  2   force =     0.00000000    0.00000000    0.00000000
     The SCF correction term to forces
     atom    1 type  1   force =    -0.00000278   -0.00000161   -0.00000813
     atom    2 type  1   force =    -0.00000000    0.00002003    0.00000017
     atom    3 type  2   force =     0.00000087    0.00000050    0.00000531
     atom    4 type  2   force =    -0.00000000   -0.00000293    0.00000139
     atom    5 type  1   force =     0.00000000   -0.00000000    0.00001250
     atom    6 type  1   force =     0.00001734   -0.00001001    0.00000017
     atom    7 type  2   force =     0.00000000   -0.00000000    0.00000066
     atom    8 type  2   force =    -0.00000254    0.00000147    0.00000139
     atom    9 type  1   force =     0.00000278   -0.00000161   -0.00000813
     atom   10 type  1   force =     0.00000000   -0.00000000    0.00000575
     atom   11 type  2   force =    -0.00000087    0.00000050    0.00000531
     atom   12 type  2   force =     0.00000000   -0.00000000    0.00000056
     atom   13 type  1   force =     0.00000000    0.00000321   -0.00000813
     atom   14 type  1   force =    -0.00001734   -0.00001001    0.00000017
     atom   15 type  2   force =     0.00000000   -0.00000100    0.00000531
     atom   16 type  2   force =     0.00000254    0.00000147    0.00000139

     Total force =     0.032237     Total SCF correction =     0.000042

     General routines

     Parallel routines

   This run was terminated on:   1:16:14  24Aug2025

   JOB DONE.
Note: The following floating-point exceptions are signalling: IEEE_INVALID_FLAG
Note: The following floating-point exceptions are signalling: IEEE_INVALID_FLAG
Note: The following floating-point exceptions are signalling: IEEE_INVALID_FLAG
Note: The following floating-point exceptions are signalling: IEEE_INVALID_FLAG
Note: The following floating-point exceptions are signalling: IEEE_INVALID_FLAG
Note: The following floating-point exceptions are signalling: IEEE_INVALID_FLAG
Note: The following floating-point exceptions are signalling: IEEE_INVALID_FLAG
Note: The following floating-point exceptions are signalling: IEEE_INVALID_FLAG
Note: The following floating-point exceptions are signalling: IEEE_INVALID_FLAG
Note: The following floating-point exceptions are signalling: IEEE_INVALID_FLAG
Note: The following floating-point exceptions are signalling: IEEE_INVALID_FLAG
Note: The following floating-point exceptions are signalling: IEEE_INVALID_FLAG
Note: The following floating-point exceptions are signalling: IEEE_INVALID_FLAG
Note: The following floating-point exceptions are signalling: IEEE_INVALID_FLAG
Note: The following floating-point exceptions are signalling: IEEE_INVALID_FLAG
Note: The following floating-point exceptions are signalling: IEEE_INVALID_FLAG
Note: The following floating-point exceptions are signalling: IEEE_INVALID_FLAG
Note: The following floating-point exceptions are signalling: IEEE_INVALID_FLAG
Note: The following floating-point exceptions are signalling: IEEE_INVALID_FLAG
Note: The following floating-point exceptions are signalling: IEEE_INVALID_FLAG
Note: The following floating-point exceptions are signalling: IEEE_INVALID_FLAG
Note: The following floating-point exceptions are signalling: IEEE_INVALID_FLAG
Note: The following floating-point exceptions are signalling: IEEE_INVALID_FLAG
Note: The following floating-point exceptions are signalling: IEEE_INVALID_FLAG
Note: The following floating-point exceptions are signalling: IEEE_INVALID_FLAG
Note: The following floating-point exceptions are signalling: IEEE_INVALID_FLAG
Note: The following floating-point exceptions are signalling: IEEE_INVALID_FLAG
Note: The following floating-point exceptions are signalling: IEEE_INVALID_FLAG
Note: The following floating-point exceptions are signalling: IEEE_INVALID_FLAG
Note: The following floating-point exceptions are signalling: IEEE_INVALID_FLAG
Note: The following floating-point exceptions are signalling: IEEE_INVALID_FLAG
Note: The following floating-point exceptions are signalling: IEEE_INVALID_FLAG