     Program PWSCF v.7.2 starts on 24Aug2025 at 10: 9:32

     Reading input from ZnO-3.47-1.61-221.in
Warning: card &CELL ignored
Warning: card / ignored
Warning: card &FCP ignored
Warning: card / ignored
Warning: card &RISM ignored
Warning: card / ignored

     Current dimensions of program PWSCF are:
     Max number of different atomic species (ntypx) = 10
     Max number of k-points (npk) =  40000
     Max angular momentum in pseudopotentials (lmaxx) =  4
     file Zn.upf: wavefunction(s)  3D renormalized
     Found identity + ( -0.0000  0.5000  0.0000) symmetry
     This is a supercell, fractional translations are disabled
     Message from routine setup:
     using ibrav=0 with symmetry is DISCOURAGED, use correct ibrav instead

     K-points division:     npool     =      16
     band groups division:  nbgrp     =       4
     Subspace diagonalization in iterative solution of the eigenvalue problem:
     a serial algorithm will be used

     Using Slab Decomposition

     bravais-lattice index     =            0
     lattice parameter (alat)  =      13.0992  a.u.
     unit-cell volume          =    1571.2018 (a.u.)^3
     number of atoms/cell      =           16
     number of atomic types    =            2
     number of electrons       =       144.00
     number of Kohn-Sham states=           72
     kinetic-energy cutoff     =      50.0000  Ry
     charge density cutoff     =     400.0000  Ry
     scf convergence threshold =      1.0E-08
     mixing beta               =       0.3000
     number of iterations used =            8  plain     mixing
     Exchange-correlation= PBE
                           (   1   4   3   4   0   0   0)

     celldm(1)=  13.099170  celldm(2)=   0.000000  celldm(3)=   0.000000
     celldm(4)=   0.000000  celldm(5)=   0.000000  celldm(6)=   0.000000

     crystal axes: (cart. coord. in units of alat)
               a(1) = (   1.000000   0.000000   0.000000 )
               a(2) = (  -0.500000   0.866025   0.000000 )
               a(3) = (   0.000000   0.000000   0.807179 )

     reciprocal axes: (cart. coord. in units 2 pi/alat)
               b(1) = (  1.000000  0.577350 -0.000000 )
               b(2) = (  0.000000  1.154701  0.000000 )
               b(3) = (  0.000000 -0.000000  1.238882 )

     PseudoPot. # 1 for Zn read from file:
     /home/jvc/QEspresso7.2/ZnO_database/pseudos/Zn.upf
     MD5 check sum: 7f56cabf9682ed8c977c2f7d0c5985c5
     Pseudo is Ultrasoft + core correction, Zval = 12.0
     Generated using &quot;atomic&quot; code by A. Dal Corso  v.6.2.2
     Using radial grid of 1201 points,  6 beta functions with:
                l(1) =   0
                l(2) =   0
                l(3) =   1
                l(4) =   1
                l(5) =   2
                l(6) =   2
     Q(r) pseudized with 0 coefficients

     PseudoPot. # 2 for O  read from file:
     /home/jvc/QEspresso7.2/ZnO_database/pseudos/O.upf
     MD5 check sum: 91400c9766925bcf19f520983a725ff0
     Pseudo is Ultrasoft + core correction, Zval =  6.0
     Generated using &quot;atomic&quot; code by A. Dal Corso  v.6.3MaX
     Using radial grid of 1095 points,  4 beta functions with:
                l(1) =   0
                l(2) =   0
                l(3) =   1
                l(4) =   1
     Q(r) pseudized with 0 coefficients

     atomic species   valence    mass     pseudopotential
        Zn            12.00    65.38000     Zn( 1.00)
        O              6.00    15.99900     O ( 1.00)

      6 Sym. Ops. (no inversion) found

                                    s                        frac. trans.

      isym =  1     identity

 cryst.   s( 1) = (     1          0          0      )
                  (     0          1          0      )
                  (     0          0          1      )

 cart.    s( 1) = (  1.0000000  0.0000000  0.0000000 )
                  (  0.0000000  1.0000000  0.0000000 )
                  (  0.0000000  0.0000000  1.0000000 )

      isym =  2     120 deg rotation - cryst. axis [0,0,1]

[...]

      isym =  3     120 deg rotation - cryst. axis [0,0,-1]

[...]

      isym =  4     inv. 180 deg rotation - cart. axis [1,0,0]

[...]

      isym =  5     inv. 180 deg rotation - cryst. axis [0,1,0]

[...]

      isym =  6     inv. 180 deg rotation - cryst. axis [1,1,0]

 cryst.   s( 6) = (     0         -1          0      )
                  (    -1          0          0      )
                  (     0          0          1      )

 cart.    s( 6) = (  0.5000000 -0.8660254  0.0000000 )
                  ( -0.8660254 -0.5000000  0.0000000 )
                  (  0.0000000  0.0000000  1.0000000 )

   Cartesian axes

     site n.     atom                  positions (alat units)
         1           Zn  tau(   1) = (   0.2500000   0.1443376   0.4041010  )
         2           Zn  tau(   2) = (  -0.0000000   0.2886751   0.0005114  )
         3           O   tau(   3) = (   0.2500000   0.1443376   0.7100565  )
         4           O   tau(   4) = (  -0.0000000   0.2886751   0.3064669  )
         5           Zn  tau(   5) = (   0.0000000   0.5773503   0.4041010  )
         6           Zn  tau(   6) = (  -0.2500000   0.7216878   0.0005114  )
         7           O   tau(   7) = (   0.0000000   0.5773503   0.7100565  )
         8           O   tau(   8) = (  -0.2500000   0.7216878   0.3064669  )
         9           Zn  tau(   9) = (   0.7500000   0.1443376   0.4041010  )
        10           Zn  tau(  10) = (   0.5000000   0.2886751   0.0005114  )
        11           O   tau(  11) = (   0.7500000   0.1443376   0.7100565  )
        12           O   tau(  12) = (   0.5000000   0.2886751   0.3064669  )
        13           Zn  tau(  13) = (   0.5000000   0.5773503   0.4041010  )
        14           Zn  tau(  14) = (   0.2500000   0.7216878   0.0005114  )
        15           O   tau(  15) = (   0.5000000   0.5773503   0.7100565  )
        16           O   tau(  16) = (   0.2500000   0.7216878   0.3064669  )

   Crystallographic axes

     site n.     atom                  positions (cryst. coord.)
         1           Zn  tau(   1) = (  0.3333333  0.1666667  0.5006336  )
         2           Zn  tau(   2) = (  0.1666667  0.3333333  0.0006336  )
         3           O   tau(   3) = (  0.3333333  0.1666667  0.8796764  )
         4           O   tau(   4) = (  0.1666667  0.3333333  0.3796764  )
         5           Zn  tau(   5) = (  0.3333333  0.6666667  0.5006336  )
         6           Zn  tau(   6) = (  0.1666667  0.8333333  0.0006336  )
         7           O   tau(   7) = (  0.3333333  0.6666667  0.8796764  )
         8           O   tau(   8) = (  0.1666667  0.8333333  0.3796764  )
         9           Zn  tau(   9) = (  0.8333333  0.1666667  0.5006336  )
        10           Zn  tau(  10) = (  0.6666667  0.3333333  0.0006336  )
        11           O   tau(  11) = (  0.8333333  0.1666667  0.8796764  )
        12           O   tau(  12) = (  0.6666667  0.3333333  0.3796764  )
        13           Zn  tau(  13) = (  0.8333333  0.6666667  0.5006336  )
        14           Zn  tau(  14) = (  0.6666667  0.8333333  0.0006336  )
        15           O   tau(  15) = (  0.8333333  0.6666667  0.8796764  )
        16           O   tau(  16) = (  0.6666667  0.8333333  0.3796764  )

     number of k points=    34
                       cart. coord. in units 2pi/alat
        k(    1) = (   0.0000000   0.0000000   0.0000000), wk =   0.0092593
        k(    2) = (   0.0000000   0.0000000   0.2064804), wk =   0.0185185
        k(    3) = (   0.0000000   0.0000000   0.4129608), wk =   0.0185185
        k(    4) = (   0.0000000   0.0000000  -0.6194412), wk =   0.0092593
        k(    5) = (   0.0000000   0.1924501   0.0000000), wk =   0.0555556
        k(    6) = (   0.0000000   0.1924501   0.2064804), wk =   0.0555556
        k(    7) = (   0.0000000   0.1924501   0.4129608), wk =   0.0555556
        k(    8) = (   0.0000000   0.1924501  -0.6194412), wk =   0.0555556
        k(    9) = (   0.0000000   0.3849002   0.0000000), wk =   0.0555556
        k(   10) = (   0.0000000   0.3849002   0.2064804), wk =   0.0555556
        k(   11) = (   0.0000000   0.3849002   0.4129608), wk =   0.0555556
        k(   12) = (   0.0000000   0.3849002  -0.6194412), wk =   0.0555556
        k(   13) = (   0.0000000  -0.5773503   0.0000000), wk =   0.0277778
        k(   14) = (   0.0000000  -0.5773503   0.2064804), wk =   0.0555556
        k(   15) = (   0.0000000  -0.5773503   0.4129608), wk =   0.0555556
        k(   16) = (   0.0000000  -0.5773503  -0.6194412), wk =   0.0277778
        k(   17) = (   0.1666667   0.2886751   0.0000000), wk =   0.0555556
        k(   18) = (   0.1666667   0.2886751   0.2064804), wk =   0.1111111
        k(   19) = (   0.1666667   0.2886751   0.4129608), wk =   0.1111111
        k(   20) = (   0.1666667   0.2886751  -0.6194412), wk =   0.0555556
        k(   21) = (   0.1666667   0.4811252   0.0000000), wk =   0.1111111
        k(   22) = (   0.1666667   0.4811252   0.2064804), wk =   0.1111111
        k(   23) = (   0.1666667   0.4811252   0.4129608), wk =   0.1111111
        k(   24) = (   0.1666667   0.4811252  -0.6194412), wk =   0.1111111
        k(   25) = (   0.3333333   0.5773503   0.0000000), wk =   0.0185185
        k(   26) = (   0.3333333   0.5773503   0.2064804), wk =   0.0370370
        k(   27) = (   0.3333333   0.5773503   0.4129608), wk =   0.0370370
        k(   28) = (   0.3333333   0.5773503  -0.6194412), wk =   0.0185185
        k(   29) = (   0.0000000  -0.1924501   0.2064804), wk =   0.0555556
        k(   30) = (   0.0000000  -0.1924501   0.4129608), wk =   0.0555556
        k(   31) = (   0.0000000  -0.3849002   0.2064804), wk =   0.0555556
        k(   32) = (   0.0000000  -0.3849002   0.4129608), wk =   0.0555556
        k(   33) = (  -0.1666667  -0.4811252   0.2064804), wk =   0.1111111
        k(   34) = (  -0.1666667  -0.4811252   0.4129608), wk =   0.1111111

                       cryst. coord.
        k(    1) = (   0.0000000   0.0000000   0.0000000), wk =   0.0092593
        k(    2) = (   0.0000000   0.0000000   0.1666667), wk =   0.0185185
        k(    3) = (   0.0000000   0.0000000   0.3333333), wk =   0.0185185
        k(    4) = (   0.0000000   0.0000000  -0.5000000), wk =   0.0092593
        k(    5) = (   0.0000000   0.1666667   0.0000000), wk =   0.0555556
        k(    6) = (   0.0000000   0.1666667   0.1666667), wk =   0.0555556
        k(    7) = (   0.0000000   0.1666667   0.3333333), wk =   0.0555556
        k(    8) = (   0.0000000   0.1666667  -0.5000000), wk =   0.0555556
        k(    9) = (   0.0000000   0.3333333   0.0000000), wk =   0.0555556
        k(   10) = (   0.0000000   0.3333333   0.1666667), wk =   0.0555556
        k(   11) = (   0.0000000   0.3333333   0.3333333), wk =   0.0555556
        k(   12) = (   0.0000000   0.3333333  -0.5000000), wk =   0.0555556
        k(   13) = (   0.0000000  -0.5000000   0.0000000), wk =   0.0277778
        k(   14) = (   0.0000000  -0.5000000   0.1666667), wk =   0.0555556
        k(   15) = (   0.0000000  -0.5000000   0.3333333), wk =   0.0555556
        k(   16) = (   0.0000000  -0.5000000  -0.5000000), wk =   0.0277778
[...]
     1.0000   1.0000   1.0000   1.0000   1.0000   1.0000   1.0000   1.0000
     1.0000   1.0000   1.0000   1.0000   1.0000   1.0000   1.0000   1.0000
     1.0000   1.0000   1.0000   1.0000   1.0000   1.0000   1.0000   1.0000
     1.0000   1.0000   1.0000   1.0000   1.0000   1.0000   1.0000   1.0000
     1.0000   1.0000   1.0000   1.0000   1.0000   1.0000   1.0000   1.0000
     1.0000   1.0000   1.0000   1.0000   1.0000   1.0000   1.0000   1.0000
     1.0000   1.0000   1.0000   1.0000   1.0000   1.0000   1.0000   1.0000

[...]

          k = 0.0000-0.3849 0.4130 (  9384 PWs)   bands (ev):

[...]

          k =-0.1667-0.4811 0.2065 (  9378 PWs)   bands (ev):

[...]

          k =-0.1667-0.4811 0.4130 (  9381 PWs)   bands (ev):

   -11.8789 -11.7897 -11.7208 -11.6966 -11.6434 -11.6108 -11.6073 -11.5729
    -0.4972  -0.4950  -0.4313  -0.3953  -0.3929  -0.3677  -0.3368  -0.2906
    -0.2638  -0.2608  -0.2353  -0.1950  -0.1946  -0.1792  -0.1702  -0.1602
    -0.1254  -0.1014  -0.0880  -0.0720  -0.0283  -0.0236   0.0834   0.1092
     0.2959   0.3006   0.3047   0.3068   0.3121   0.3309   0.3314   0.3566
     0.3780   0.3857   0.4077   0.4140   0.4424   0.4825   0.5208   0.5758
     1.2983   1.4549   1.5669   1.7166   1.8356   1.8973   2.1687   2.2985
     2.6127   2.9882   3.0153   3.0398   3.1149   3.2884   3.3947   3.4556
     3.5819   3.6928   3.7224   3.8819   3.8996   3.9683   4.0436   4.1159

     occupation numbers
     1.0000   1.0000   1.0000   1.0000   1.0000   1.0000   1.0000   1.0000
     1.0000   1.0000   1.0000   1.0000   1.0000   1.0000   1.0000   1.0000
     1.0000   1.0000   1.0000   1.0000   1.0000   1.0000   1.0000   1.0000
     1.0000   1.0000   1.0000   1.0000   1.0000   1.0000   1.0000   1.0000
     1.0000   1.0000   1.0000   1.0000   1.0000   1.0000   1.0000   1.0000
     1.0000   1.0000   1.0000   1.0000   1.0000   1.0000   1.0000   1.0000
     1.0000   1.0000   1.0000   1.0000   1.0000   1.0000   1.0000   1.0000
     1.0000   1.0000   1.0000   1.0000   1.0000   1.0000   1.0000   1.0000
     1.0000   1.0000   1.0000   1.0000   1.0000   1.0000   1.0000   1.0000

     highest occupied level (ev):     4.5805

!    total energy              =   -1446.40888329 Ry
     estimated scf accuracy    <          2.8E-09 Ry

     The total energy is the sum of the following terms:
     one-electron contribution =    -696.48592199 Ry
     hartree contribution      =     501.50455575 Ry
     xc contribution           =    -436.88559305 Ry
     ewald contribution        =    -814.54192400 Ry

     convergence has been achieved in  40 iterations

     Forces acting on atoms (cartesian axes, Ry/au):

     atom    1 type  1   force =    -0.00000051   -0.00000030   -0.00011324
     atom    2 type  1   force =     0.00000000    0.00000149   -0.00011379
     atom    3 type  2   force =    -0.00000073   -0.00000042    0.00011442
     atom    4 type  2   force =     0.00000000    0.00000089    0.00011294
     atom    5 type  1   force =     0.00000000    0.00000000   -0.00011255
     atom    6 type  1   force =     0.00000129   -0.00000075   -0.00011379
     atom    7 type  2   force =     0.00000000    0.00000000    0.00011410
     atom    8 type  2   force =     0.00000077   -0.00000045    0.00011294
     atom    9 type  1   force =     0.00000051   -0.00000030   -0.00011324
     atom   10 type  1   force =     0.00000000    0.00000000   -0.00011542
     atom   11 type  2   force =     0.00000073   -0.00000042    0.00011442
     atom   12 type  2   force =     0.00000000    0.00000000    0.00011290
     atom   13 type  1   force =     0.00000000    0.00000059   -0.00011324
     atom   14 type  1   force =    -0.00000129   -0.00000075   -0.00011379
     atom   15 type  2   force =     0.00000000    0.00000085    0.00011442
     atom   16 type  2   force =    -0.00000077   -0.00000045    0.00011294
     The non-local contrib.  to forces
     atom    1 type  1   force =    -0.00000142   -0.00000082   -0.00450889
     atom    2 type  1   force =     0.00000000    0.00000220   -0.00450987
     atom    3 type  2   force =     0.00000037    0.00000022    0.00627485
     atom    4 type  2   force =     0.00000000   -0.00000066    0.00627576
     atom    5 type  1   force =     0.00000000    0.00000000   -0.00450745
     atom    6 type  1   force =     0.00000190   -0.00000110   -0.00450987
     atom    7 type  2   force =     0.00000000    0.00000000    0.00627590
     atom    8 type  2   force =    -0.00000057    0.00000033    0.00627576
     atom    9 type  1   force =     0.00000142   -0.00000082   -0.00450889
     atom   10 type  1   force =     0.00000000   -0.00000000   -0.00451103
     atom   11 type  2   force =    -0.00000037    0.00000022    0.00627485
     atom   12 type  2   force =     0.00000000   -0.00000000    0.00627406
     atom   13 type  1   force =     0.00000000    0.00000163   -0.00450889
     atom   14 type  1   force =    -0.00000190   -0.00000110   -0.00450987
     atom   15 type  2   force =     0.00000000   -0.00000043    0.00627485
     atom   16 type  2   force =     0.00000057    0.00000033    0.00627576
     The ionic contribution  to forces
     atom    1 type  1   force =    -0.00000001    0.00000001    0.05581774
     atom    2 type  1   force =     0.00000002   -0.00000000    0.05581775
     atom    3 type  2   force =    -0.00000000    0.00000001   -0.05581774
     atom    4 type  2   force =     0.00000001   -0.00000000   -0.05581775
     atom    5 type  1   force =    -0.00000001    0.00000000    0.05581775
     atom    6 type  1   force =     0.00000001    0.00000000    0.05581775
     atom    7 type  2   force =    -0.00000001    0.00000000   -0.05581775
     atom    8 type  2   force =     0.00000001   -0.00000000   -0.05581775
     atom    9 type  1   force =    -0.00000001   -0.00000000    0.05581775
     atom   10 type  1   force =    -0.00000001   -0.00000000    0.05581775
     atom   11 type  2   force =    -0.00000000   -0.00000000   -0.05581775
     atom   12 type  2   force =    -0.00000000   -0.00000000   -0.05581775
     atom   13 type  1   force =    -0.00000001    0.00000000    0.05581775
     atom   14 type  1   force =     0.00000001   -0.00000001    0.05581775
     atom   15 type  2   force =    -0.00000001    0.00000000   -0.05581775
     atom   16 type  2   force =     0.00000001   -0.00000000   -0.05581775
     The local contribution  to forces
     atom    1 type  1   force =     0.00000175    0.00000122   -0.05173612
     atom    2 type  1   force =     0.00000009   -0.00000401   -0.05173418
     atom    3 type  2   force =    -0.00000221   -0.00000122    0.04972561
     atom    4 type  2   force =     0.00000002    0.00000169    0.04972199
     atom    5 type  1   force =    -0.00000018    0.00000011   -0.05173835
     atom    6 type  1   force =    -0.00000343    0.00000209   -0.05173418
     atom    7 type  2   force =    -0.00000005    0.00000003    0.04972379
     atom    8 type  2   force =     0.00000147   -0.00000082    0.04972199
     atom    9 type  1   force =    -0.00000211    0.00000122   -0.05173612
     atom   10 type  1   force =    -0.00000009    0.00000005   -0.05173207
     atom   11 type  2   force =     0.00000211   -0.00000122    0.04972561
     atom   12 type  2   force =    -0.00000002    0.00000001    0.04972412
     atom   13 type  1   force =    -0.00000018   -0.00000212   -0.05173612
     atom   14 type  1   force =     0.00000361    0.00000209   -0.05173418
     atom   15 type  2   force =    -0.00000005    0.00000252    0.04972561
     atom   16 type  2   force =    -0.00000143   -0.00000082    0.04972199
     The core correction contribution to forces
     atom    1 type  1   force =    -0.00000003    0.00000001    0.00031370
     atom    2 type  1   force =     0.00000001    0.00000004    0.00031367
     atom    3 type  2   force =    -0.00000001   -0.00000001   -0.00006929
     atom    4 type  2   force =    -0.00000000    0.00000001   -0.00006931
     atom    5 type  1   force =    -0.00000002    0.00000001    0.00031373
     atom    6 type  1   force =     0.00000004   -0.00000001    0.00031367
     atom    7 type  2   force =     0.00000000   -0.00000000   -0.00006931
     atom    8 type  2   force =     0.00000001   -0.00000001   -0.00006931
     atom    9 type  1   force =    -0.00000002    0.00000001    0.00031370
     atom   10 type  1   force =    -0.00000001    0.00000001    0.00031369
     atom   11 type  2   force =     0.00000001   -0.00000001   -0.00006929
     atom   12 type  2   force =     0.00000000   -0.00000000   -0.00006928
     atom   13 type  1   force =    -0.00000002    0.00000002    0.00031370
     atom   14 type  1   force =    -0.00000002   -0.00000001    0.00031367
     atom   15 type  2   force =     0.00000000    0.00000001   -0.00006929
     atom   16 type  2   force =    -0.00000001   -0.00000001   -0.00006931
     The Hubbard contrib.    to forces
     atom    1 type  1   force =     0.00000000    0.00000000    0.00000000
     atom    2 type  1   force =     0.00000000    0.00000000    0.00000000
     atom    3 type  2   force =     0.00000000    0.00000000    0.00000000
     atom    4 type  2   force =     0.00000000    0.00000000    0.00000000
     atom    5 type  1   force =     0.00000000    0.00000000    0.00000000
     atom    6 type  1   force =     0.00000000    0.00000000    0.00000000
     atom    7 type  2   force =     0.00000000    0.00000000    0.00000000
     atom    8 type  2   force =     0.00000000    0.00000000    0.00000000
     atom    9 type  1   force =     0.00000000    0.00000000    0.00000000
     atom   10 type  1   force =     0.00000000    0.00000000    0.00000000
     atom   11 type  2   force =     0.00000000    0.00000000    0.00000000
     atom   12 type  2   force =     0.00000000    0.00000000    0.00000000
     atom   13 type  1   force =     0.00000000    0.00000000    0.00000000
     atom   14 type  1   force =     0.00000000    0.00000000    0.00000000
     atom   15 type  2   force =     0.00000000    0.00000000    0.00000000
     atom   16 type  2   force =     0.00000000    0.00000000    0.00000000
     The SCF correction term to forces
     atom    1 type  1   force =    -0.00000102   -0.00000059   -0.00000026
     atom    2 type  1   force =     0.00000000    0.00000333   -0.00000173
     atom    3 type  2   force =     0.00000107    0.00000061    0.00000041
     atom    4 type  2   force =     0.00000000   -0.00000013    0.00000166
     atom    5 type  1   force =    -0.00000000    0.00000000    0.00000119
     atom    6 type  1   force =     0.00000288   -0.00000166   -0.00000173
     atom    7 type  2   force =    -0.00000000    0.00000000    0.00000087
     atom    8 type  2   force =    -0.00000012    0.00000007    0.00000166
     atom    9 type  1   force =     0.00000102   -0.00000059   -0.00000026
     atom   10 type  1   force =    -0.00000000    0.00000000   -0.00000434
     atom   11 type  2   force =    -0.00000107    0.00000061    0.00000041
     atom   12 type  2   force =    -0.00000000   -0.00000000    0.00000116
     atom   13 type  1   force =    -0.00000000    0.00000117   -0.00000026
     atom   14 type  1   force =    -0.00000288   -0.00000166   -0.00000173
     atom   15 type  2   force =    -0.00000000   -0.00000123    0.00000041
     atom   16 type  2   force =     0.00000012    0.00000007    0.00000166

     Total force =     0.000455     Total SCF correction =     0.000009

     General routines

     Parallel routines

   This run was terminated on:  10:21:19  24Aug2025

   JOB DONE.
Note: The following floating-point exceptions are signalling: IEEE_INVALID_FLAG
Note: The following floating-point exceptions are signalling: IEEE_INVALID_FLAG
Note: The following floating-point exceptions are signalling: IEEE_INVALID_FLAG
Note: The following floating-point exceptions are signalling: IEEE_INVALID_FLAG
Note: The following floating-point exceptions are signalling: IEEE_INVALID_FLAG
Note: The following floating-point exceptions are signalling: IEEE_INVALID_FLAG
Note: The following floating-point exceptions are signalling: IEEE_INVALID_FLAG
Note: The following floating-point exceptions are signalling: IEEE_INVALID_FLAG
Note: The following floating-point exceptions are signalling: IEEE_INVALID_FLAG
Note: The following floating-point exceptions are signalling: IEEE_INVALID_FLAG
Note: The following floating-point exceptions are signalling: IEEE_INVALID_FLAG
Note: The following floating-point exceptions are signalling: IEEE_INVALID_FLAG
Note: The following floating-point exceptions are signalling: IEEE_INVALID_FLAG
Note: The following floating-point exceptions are signalling: IEEE_INVALID_FLAG
Note: The following floating-point exceptions are signalling: IEEE_INVALID_FLAG
Note: The following floating-point exceptions are signalling: IEEE_INVALID_FLAG
Note: The following floating-point exceptions are signalling: IEEE_INVALID_FLAG
Note: The following floating-point exceptions are signalling: IEEE_INVALID_FLAG IEEE_DENORMAL
Note: The following floating-point exceptions are signalling: IEEE_INVALID_FLAG
Note: The following floating-point exceptions are signalling: IEEE_INVALID_FLAG
Note: The following floating-point exceptions are signalling: IEEE_INVALID_FLAG
Note: The following floating-point exceptions are signalling: IEEE_INVALID_FLAG
Note: The following floating-point exceptions are signalling: IEEE_INVALID_FLAG
Note: The following floating-point exceptions are signalling: IEEE_INVALID_FLAG
Note: The following floating-point exceptions are signalling: IEEE_INVALID_FLAG
Note: The following floating-point exceptions are signalling: IEEE_INVALID_FLAG
Note: The following floating-point exceptions are signalling: IEEE_INVALID_FLAG
Note: The following floating-point exceptions are signalling: IEEE_INVALID_FLAG
Note: The following floating-point exceptions are signalling: IEEE_INVALID_FLAG
Note: The following floating-point exceptions are signalling: IEEE_INVALID_FLAG
Note: The following floating-point exceptions are signalling: IEEE_INVALID_FLAG IEEE_DENORMAL
Note: The following floating-point exceptions are signalling: IEEE_INVALID_FLAG IEEE_DENORMAL
Note: The following floating-point exceptions are signalling: IEEE_INVALID_FLAG
Note: The following floating-point exceptions are signalling: IEEE_INVALID_FLAG
Note: The following floating-point exceptions are signalling: IEEE_INVALID_FLAG
Note: The following floating-point exceptions are signalling: IEEE_INVALID_FLAG
Note: The following floating-point exceptions are signalling: IEEE_INVALID_FLAG
Note: The following floating-point exceptions are signalling: IEEE_INVALID_FLAG
Note: The following floating-point exceptions are signalling: IEEE_INVALID_FLAG
Note: The following floating-point exceptions are signalling: IEEE_INVALID_FLAG
Note: The following floating-point exceptions are signalling: IEEE_INVALID_FLAG
Note: The following floating-point exceptions are signalling: IEEE_INVALID_FLAG
Note: The following floating-point exceptions are signalling: IEEE_INVALID_FLAG
Note: The following floating-point exceptions are signalling: IEEE_INVALID_FLAG
Note: The following floating-point exceptions are signalling: IEEE_INVALID_FLAG
Note: The following floating-point exceptions are signalling: IEEE_INVALID_FLAG IEEE_DENORMAL
Note: The following floating-point exceptions are signalling: IEEE_INVALID_FLAG
Note: The following floating-point exceptions are signalling: IEEE_INVALID_FLAG IEEE_DENORMAL
Note: The following floating-point exceptions are signalling: IEEE_INVALID_FLAG
Note: The following floating-point exceptions are signalling: IEEE_INVALID_FLAG
Note: The following floating-point exceptions are signalling: IEEE_INVALID_FLAG
Note: The following floating-point exceptions are signalling: IEEE_INVALID_FLAG
Note: The following floating-point exceptions are signalling: IEEE_INVALID_FLAG
Note: The following floating-point exceptions are signalling: IEEE_INVALID_FLAG
Note: The following floating-point exceptions are signalling: IEEE_INVALID_FLAG
Note: The following floating-point exceptions are signalling: IEEE_INVALID_FLAG
Note: The following floating-point exceptions are signalling: IEEE_INVALID_FLAG
Note: The following floating-point exceptions are signalling: IEEE_INVALID_FLAG
Note: The following floating-point exceptions are signalling: IEEE_INVALID_FLAG IEEE_DENORMAL
Note: The following floating-point exceptions are signalling: IEEE_INVALID_FLAG
Note: The following floating-point exceptions are signalling: IEEE_INVALID_FLAG
Note: The following floating-point exceptions are signalling: IEEE_INVALID_FLAG
Note: The following floating-point exceptions are signalling: IEEE_INVALID_FLAG
Note: The following floating-point exceptions are signalling: IEEE_INVALID_FLAG