     Program PWSCF v.7.2 starts on 24Aug2025 at  2:20:33

     Reading input from /home/jvc/QEspresso7.2/ZnO_database/scripts/cell221.in/ZnO-3.53-1.61-221.in
Warning: card &CELL ignored
Warning: card / ignored
Warning: card &FCP ignored
Warning: card / ignored
Warning: card &RISM ignored
Warning: card / ignored

     Current dimensions of program PWSCF are:
     Max number of different atomic species (ntypx) = 10
     Max number of k-points (npk) =  40000
     Max angular momentum in pseudopotentials (lmaxx) =  4
     file Zn.upf: wavefunction(s)  3D renormalized
     Found identity + (  0.0000 -0.5000  0.0000) symmetry
     This is a supercell, fractional translations are disabled
     Message from routine setup:
     using ibrav=0 with symmetry is DISCOURAGED, use correct ibrav instead

     K-points division:     npool     =       8
     band groups division:  nbgrp     =       4
     Subspace diagonalization in iterative solution of the eigenvalue problem:
     a serial algorithm will be used

     Using Slab Decomposition

     bravais-lattice index     =            0
     lattice parameter (alat)  =      13.3463  a.u.
     unit-cell volume          =    1661.8263 (a.u.)^3
     number of atoms/cell      =           16
     number of atomic types    =            2
     number of electrons       =       144.00
     number of Kohn-Sham states=           72
     kinetic-energy cutoff     =      50.0000  Ry
     charge density cutoff     =     400.0000  Ry
     scf convergence threshold =      1.0E-08
     mixing beta               =       0.3000
     number of iterations used =            8  plain     mixing
     Exchange-correlation= PBE
                           (   1   4   3   4   0   0   0)

     celldm(1)=  13.346325  celldm(2)=   0.000000  celldm(3)=   0.000000
     celldm(4)=   0.000000  celldm(5)=   0.000000  celldm(6)=   0.000000

     crystal axes: (cart. coord. in units of alat)
               a(1) = (   1.000000   0.000000   0.000000 )
               a(2) = (  -0.500000   0.866025   0.000000 )
               a(3) = (   0.000000   0.000000   0.807179 )

     reciprocal axes: (cart. coord. in units 2 pi/alat)
               b(1) = (  1.000000  0.577350 -0.000000 )
               b(2) = (  0.000000  1.154701  0.000000 )
               b(3) = (  0.000000 -0.000000  1.238882 )

     PseudoPot. # 1 for Zn read from file:
     /home/jvc/QEspresso7.2/ZnO_database/pseudos/Zn.upf
     MD5 check sum: 7f56cabf9682ed8c977c2f7d0c5985c5
     Pseudo is Ultrasoft + core correction, Zval = 12.0
     Generated using &quot;atomic&quot; code by A. Dal Corso  v.6.2.2
     Using radial grid of 1201 points,  6 beta functions with:
                l(1) =   0
                l(2) =   0
                l(3) =   1
                l(4) =   1
                l(5) =   2
                l(6) =   2
     Q(r) pseudized with 0 coefficients

     PseudoPot. # 2 for O  read from file:
     /home/jvc/QEspresso7.2/ZnO_database/pseudos/O.upf
     MD5 check sum: 91400c9766925bcf19f520983a725ff0
     Pseudo is Ultrasoft + core correction, Zval =  6.0
     Generated using &quot;atomic&quot; code by A. Dal Corso  v.6.3MaX
     Using radial grid of 1095 points,  4 beta functions with:
                l(1) =   0
                l(2) =   0
                l(3) =   1
                l(4) =   1
     Q(r) pseudized with 0 coefficients

     atomic species   valence    mass     pseudopotential
        Zn            12.00    65.38000     Zn( 1.00)
        O              6.00    15.99900     O ( 1.00)

      6 Sym. Ops. (no inversion) found

                                    s                        frac. trans.

      isym =  1     identity

 cryst.   s( 1) = (     1          0          0      )
                  (     0          1          0      )
                  (     0          0          1      )

 cart.    s( 1) = (  1.0000000  0.0000000  0.0000000 )
                  (  0.0000000  1.0000000  0.0000000 )
                  (  0.0000000  0.0000000  1.0000000 )

      isym =  2     120 deg rotation - cryst. axis [0,0,1]

[...]

      isym =  3     120 deg rotation - cryst. axis [0,0,-1]

[...]

      isym =  4     inv. 180 deg rotation - cart. axis [1,0,0]

[...]

      isym =  5     inv. 180 deg rotation - cryst. axis [0,1,0]

[...]

      isym =  6     inv. 180 deg rotation - cryst. axis [1,1,0]

 cryst.   s( 6) = (     0         -1          0      )
                  (    -1          0          0      )
                  (     0          0          1      )

 cart.    s( 6) = (  0.5000000 -0.8660254  0.0000000 )
                  ( -0.8660254 -0.5000000  0.0000000 )
                  (  0.0000000  0.0000000  1.0000000 )

   Cartesian axes

     site n.     atom                  positions (alat units)
         1           Zn  tau(   1) = (   0.2500000   0.1443376   0.4041010  )
         2           Zn  tau(   2) = (  -0.0000000   0.2886751   0.0005114  )
         3           O   tau(   3) = (   0.2500000   0.1443376   0.7100565  )
         4           O   tau(   4) = (  -0.0000000   0.2886751   0.3064669  )
         5           Zn  tau(   5) = (  -0.0000000   0.5773503   0.4041010  )
         6           Zn  tau(   6) = (  -0.2500000   0.7216878   0.0005114  )
         7           O   tau(   7) = (  -0.0000000   0.5773503   0.7100565  )
         8           O   tau(   8) = (  -0.2500000   0.7216878   0.3064669  )
         9           Zn  tau(   9) = (   0.7500000   0.1443376   0.4041010  )
        10           Zn  tau(  10) = (   0.5000000   0.2886751   0.0005114  )
        11           O   tau(  11) = (   0.7500000   0.1443376   0.7100565  )
        12           O   tau(  12) = (   0.5000000   0.2886751   0.3064669  )
        13           Zn  tau(  13) = (   0.5000000   0.5773503   0.4041010  )
        14           Zn  tau(  14) = (   0.2500000   0.7216878   0.0005114  )
        15           O   tau(  15) = (   0.5000000   0.5773503   0.7100565  )
        16           O   tau(  16) = (   0.2500000   0.7216878   0.3064669  )

   Crystallographic axes

     site n.     atom                  positions (cryst. coord.)
         1           Zn  tau(   1) = (  0.3333333  0.1666667  0.5006336  )
         2           Zn  tau(   2) = (  0.1666667  0.3333333  0.0006336  )
         3           O   tau(   3) = (  0.3333333  0.1666667  0.8796764  )
         4           O   tau(   4) = (  0.1666667  0.3333333  0.3796764  )
         5           Zn  tau(   5) = (  0.3333333  0.6666667  0.5006336  )
         6           Zn  tau(   6) = (  0.1666667  0.8333333  0.0006336  )
         7           O   tau(   7) = (  0.3333333  0.6666667  0.8796764  )
         8           O   tau(   8) = (  0.1666667  0.8333333  0.3796764  )
         9           Zn  tau(   9) = (  0.8333333  0.1666667  0.5006336  )
        10           Zn  tau(  10) = (  0.6666667  0.3333333  0.0006336  )
        11           O   tau(  11) = (  0.8333333  0.1666667  0.8796764  )
        12           O   tau(  12) = (  0.6666667  0.3333333  0.3796764  )
        13           Zn  tau(  13) = (  0.8333333  0.6666667  0.5006336  )
        14           Zn  tau(  14) = (  0.6666667  0.8333333  0.0006336  )
        15           O   tau(  15) = (  0.8333333  0.6666667  0.8796764  )
        16           O   tau(  16) = (  0.6666667  0.8333333  0.3796764  )

     number of k points=    34
                       cart. coord. in units 2pi/alat
        k(    1) = (   0.0000000   0.0000000   0.0000000), wk =   0.0092593
        k(    2) = (   0.0000000   0.0000000   0.2064804), wk =   0.0185185
        k(    3) = (   0.0000000   0.0000000   0.4129608), wk =   0.0185185
        k(    4) = (   0.0000000   0.0000000  -0.6194412), wk =   0.0092593
        k(    5) = (   0.0000000   0.1924501   0.0000000), wk =   0.0555556
        k(    6) = (   0.0000000   0.1924501   0.2064804), wk =   0.0555556
        k(    7) = (   0.0000000   0.1924501   0.4129608), wk =   0.0555556
        k(    8) = (   0.0000000   0.1924501  -0.6194412), wk =   0.0555556
        k(    9) = (   0.0000000   0.3849002   0.0000000), wk =   0.0555556
        k(   10) = (   0.0000000   0.3849002   0.2064804), wk =   0.0555556
        k(   11) = (   0.0000000   0.3849002   0.4129608), wk =   0.0555556
        k(   12) = (   0.0000000   0.3849002  -0.6194412), wk =   0.0555556
        k(   13) = (   0.0000000  -0.5773503   0.0000000), wk =   0.0277778
        k(   14) = (   0.0000000  -0.5773503   0.2064804), wk =   0.0555556
        k(   15) = (   0.0000000  -0.5773503   0.4129608), wk =   0.0555556
        k(   16) = (   0.0000000  -0.5773503  -0.6194412), wk =   0.0277778
        k(   17) = (   0.1666667   0.2886751   0.0000000), wk =   0.0555556
        k(   18) = (   0.1666667   0.2886751   0.2064804), wk =   0.1111111
        k(   19) = (   0.1666667   0.2886751   0.4129608), wk =   0.1111111
        k(   20) = (   0.1666667   0.2886751  -0.6194412), wk =   0.0555556
        k(   21) = (   0.1666667   0.4811252   0.0000000), wk =   0.1111111
        k(   22) = (   0.1666667   0.4811252   0.2064804), wk =   0.1111111
        k(   23) = (   0.1666667   0.4811252   0.4129608), wk =   0.1111111
        k(   24) = (   0.1666667   0.4811252  -0.6194412), wk =   0.1111111
        k(   25) = (   0.3333333   0.5773503   0.0000000), wk =   0.0185185
        k(   26) = (   0.3333333   0.5773503   0.2064804), wk =   0.0370370
        k(   27) = (   0.3333333   0.5773503   0.4129608), wk =   0.0370370
        k(   28) = (   0.3333333   0.5773503  -0.6194412), wk =   0.0185185
        k(   29) = (   0.0000000  -0.1924501   0.2064804), wk =   0.0555556
        k(   30) = (   0.0000000  -0.1924501   0.4129608), wk =   0.0555556
        k(   31) = (   0.0000000  -0.3849002   0.2064804), wk =   0.0555556
        k(   32) = (   0.0000000  -0.3849002   0.4129608), wk =   0.0555556
        k(   33) = (  -0.1666667  -0.4811252   0.2064804), wk =   0.1111111
        k(   34) = (  -0.1666667  -0.4811252   0.4129608), wk =   0.1111111

                       cryst. coord.
        k(    1) = (   0.0000000   0.0000000   0.0000000), wk =   0.0092593
        k(    2) = (   0.0000000   0.0000000   0.1666667), wk =   0.0185185
        k(    3) = (   0.0000000   0.0000000   0.3333333), wk =   0.0185185
        k(    4) = (   0.0000000   0.0000000  -0.5000000), wk =   0.0092593
        k(    5) = (   0.0000000   0.1666667   0.0000000), wk =   0.0555556
        k(    6) = (   0.0000000   0.1666667   0.1666667), wk =   0.0555556
        k(    7) = (   0.0000000   0.1666667   0.3333333), wk =   0.0555556
        k(    8) = (   0.0000000   0.1666667  -0.5000000), wk =   0.0555556
        k(    9) = (   0.0000000   0.3333333   0.0000000), wk =   0.0555556
        k(   10) = (   0.0000000   0.3333333   0.1666667), wk =   0.0555556
        k(   11) = (   0.0000000   0.3333333   0.3333333), wk =   0.0555556
        k(   12) = (   0.0000000   0.3333333  -0.5000000), wk =   0.0555556
        k(   13) = (   0.0000000  -0.5000000   0.0000000), wk =   0.0277778
        k(   14) = (   0.0000000  -0.5000000   0.1666667), wk =   0.0555556
        k(   15) = (   0.0000000  -0.5000000   0.3333333), wk =   0.0555556
[...]
        k(   28) = (   0.3333333   0.3333333  -0.5000000), wk =   0.0185185
        k(   29) = (   0.0000000  -0.1666667   0.1666667), wk =   0.0555556
        k(   30) = (   0.0000000  -0.1666667   0.3333333), wk =   0.0555556
        k(   31) = (   0.0000000  -0.3333333   0.1666667), wk =   0.0555556
        k(   32) = (   0.0000000  -0.3333333   0.3333333), wk =   0.0555556
        k(   33) = (  -0.1666667  -0.3333333   0.1666667), wk =   0.1111111
        k(   34) = (  -0.1666667  -0.3333333   0.3333333), wk =   0.1111111

     Check: negative core charge=   -0.000002

     Initial potential from superposition of free atoms

     starting charge     143.9702, renormalised to     144.0000
     Starting wfcs are  104 randomized atomic wfcs

     Self-consistent Calculation

     iteration #  1     ecut=    50.00 Ry     beta= 0.30
     Davidson diagonalization with overlap

     ethr =  1.00E-02,  avg # of iterations =  1.7

     total energy              =   -1445.53385812 Ry
     estimated scf accuracy    <       3.22974067 Ry

[...]

     c_bands:  2 eigenvalues not converged
     c_bands:  1 eigenvalues not converged
     c_bands:  2 eigenvalues not converged
     ethr =  3.72E-09,  avg # of iterations = 18.2

[...]

     c_bands:  1 eigenvalues not converged
     c_bands:  1 eigenvalues not converged
     ethr =  3.72E-09,  avg # of iterations = 14.8

[...]

     total energy              =   -1446.30897753 Ry
     estimated scf accuracy    <       0.00000005 Ry

     iteration # 41     ecut=    50.00 Ry     beta= 0.30
     Davidson diagonalization with overlap

     ethr =  3.69E-11,  avg # of iterations =  3.9

     End of self-consistent calculation

          k = 0.0000 0.0000 0.0000 (  9925 PWs)   bands (ev):

   -12.4614 -12.0805 -12.0804 -12.0804 -12.0626 -11.9573 -11.9573 -11.9573
    -0.9469  -0.9469  -0.9469  -0.9358  -0.9358  -0.9190  -0.8213  -0.8213
    -0.7892  -0.7892  -0.7892  -0.6878  -0.6878  -0.6878  -0.5664  -0.5663
    -0.5663  -0.4877  -0.4877  -0.4877  -0.4246  -0.4246  -0.4246  -0.3749
    -0.3749  -0.3229  -0.2805  -0.2805  -0.2805  -0.2797  -0.2797  -0.2797
    -0.2617  -0.2617  -0.2365  -0.2365  -0.2365  -0.1924  -0.1924  -0.1924
     0.2569   0.6337   0.6337   0.6338   1.1571   1.1571   1.1571   1.8892
     1.8893   1.8893   2.4596   2.4596   2.4597   3.0533   3.0533   3.0533
     3.3988   3.3988   3.3989   3.4133   3.4133   3.9179   3.9440   3.9440

     occupation numbers
     1.0000   1.0000   1.0000   1.0000   1.0000   1.0000   1.0000   1.0000
     1.0000   1.0000   1.0000   1.0000   1.0000   1.0000   1.0000   1.0000
     1.0000   1.0000   1.0000   1.0000   1.0000   1.0000   1.0000   1.0000
     1.0000   1.0000   1.0000   1.0000   1.0000   1.0000   1.0000   1.0000
     1.0000   1.0000   1.0000   1.0000   1.0000   1.0000   1.0000   1.0000
     1.0000   1.0000   1.0000   1.0000   1.0000   1.0000   1.0000   1.0000
     1.0000   1.0000   1.0000   1.0000   1.0000   1.0000   1.0000   1.0000
     1.0000   1.0000   1.0000   1.0000   1.0000   1.0000   1.0000   1.0000
     1.0000   1.0000   1.0000   1.0000   1.0000   1.0000   1.0000   1.0000

[...]

          k = 0.0000-0.3849 0.4130 (  9929 PWs)   bands (ev):

[...]

          k =-0.1667-0.4811 0.2065 (  9917 PWs)   bands (ev):

[...]

          k =-0.1667-0.4811 0.4130 (  9927 PWs)   bands (ev):

   -12.2442 -12.1666 -12.1066 -12.0854 -12.0391 -12.0109 -12.0078 -11.9779
    -0.9844  -0.9780  -0.9197  -0.8948  -0.8925  -0.8693  -0.8548  -0.8350
    -0.8062  -0.7874  -0.7855  -0.7438  -0.7372  -0.7361  -0.7212  -0.7023
    -0.6786  -0.6641  -0.6504  -0.6362  -0.6052  -0.5891  -0.5043  -0.4817
    -0.3489  -0.3435  -0.3384  -0.3376  -0.3359  -0.3188  -0.3176  -0.2967
    -0.2790  -0.2721  -0.2521  -0.2450  -0.2188  -0.1837  -0.1494  -0.1065
     0.8150   0.9504   1.0355   1.1664   1.2781   1.3316   1.5874   1.8428
     2.0046   2.4807   2.5037   2.5240   2.6071   2.7502   2.8639   2.9164
     3.0244   3.1412   3.1584   3.3036   3.3285   3.3890   3.4556   3.5193

     occupation numbers
     1.0000   1.0000   1.0000   1.0000   1.0000   1.0000   1.0000   1.0000
     1.0000   1.0000   1.0000   1.0000   1.0000   1.0000   1.0000   1.0000
     1.0000   1.0000   1.0000   1.0000   1.0000   1.0000   1.0000   1.0000
     1.0000   1.0000   1.0000   1.0000   1.0000   1.0000   1.0000   1.0000
     1.0000   1.0000   1.0000   1.0000   1.0000   1.0000   1.0000   1.0000
     1.0000   1.0000   1.0000   1.0000   1.0000   1.0000   1.0000   1.0000
     1.0000   1.0000   1.0000   1.0000   1.0000   1.0000   1.0000   1.0000
     1.0000   1.0000   1.0000   1.0000   1.0000   1.0000   1.0000   1.0000
     1.0000   1.0000   1.0000   1.0000   1.0000   1.0000   1.0000   1.0000

     highest occupied level (ev):     3.9440

!    total energy              =   -1446.30897752 Ry
     estimated scf accuracy    <          9.8E-09 Ry

     The total energy is the sum of the following terms:
     one-electron contribution =    -720.86140765 Ry
     hartree contribution      =     510.53089854 Ry
     xc contribution           =    -436.52065412 Ry
     ewald contribution        =    -799.45781430 Ry

     convergence has been achieved in  41 iterations

     Forces acting on atoms (cartesian axes, Ry/au):

     atom    1 type  1   force =     0.00000334    0.00000193   -0.00010819
     atom    2 type  1   force =     0.00000000    0.00000291   -0.00011171
     atom    3 type  2   force =     0.00000121    0.00000070    0.00010763
     atom    4 type  2   force =    -0.00000000   -0.00000415    0.00011080
     atom    5 type  1   force =     0.00000000    0.00000000   -0.00010429
     atom    6 type  1   force =     0.00000252   -0.00000146   -0.00011171
     atom    7 type  2   force =     0.00000000    0.00000000    0.00010906
     atom    8 type  2   force =    -0.00000360    0.00000208    0.00011080
     atom    9 type  1   force =    -0.00000334    0.00000193   -0.00010819
     atom   10 type  1   force =    -0.00000000   -0.00000000   -0.00011067
     atom   11 type  2   force =    -0.00000121    0.00000070    0.00010763
     atom   12 type  2   force =     0.00000000    0.00000000    0.00011032
     atom   13 type  1   force =     0.00000000   -0.00000385   -0.00010819
     atom   14 type  1   force =    -0.00000252   -0.00000146   -0.00011171
     atom   15 type  2   force =    -0.00000000   -0.00000139    0.00010763
     atom   16 type  2   force =     0.00000360    0.00000208    0.00011080
     The non-local contrib.  to forces
     atom    1 type  1   force =     0.00000571    0.00000330   -0.00455010
     atom    2 type  1   force =     0.00000000    0.00000277   -0.00454739
     atom    3 type  2   force =    -0.00000140   -0.00000081    0.00631350
     atom    4 type  2   force =     0.00000000   -0.00000400    0.00631482
     atom    5 type  1   force =     0.00000000    0.00000000   -0.00454907
     atom    6 type  1   force =     0.00000240   -0.00000138   -0.00454739
     atom    7 type  2   force =     0.00000000    0.00000000    0.00631243
     atom    8 type  2   force =    -0.00000347    0.00000200    0.00631482
     atom    9 type  1   force =    -0.00000571    0.00000330   -0.00455010
     atom   10 type  1   force =     0.00000000    0.00000000   -0.00454160
     atom   11 type  2   force =     0.00000140   -0.00000081    0.00631350
     atom   12 type  2   force =     0.00000000   -0.00000000    0.00631498
     atom   13 type  1   force =     0.00000000   -0.00000659   -0.00455010
     atom   14 type  1   force =    -0.00000240   -0.00000138   -0.00454739
     atom   15 type  2   force =     0.00000000    0.00000161    0.00631350
     atom   16 type  2   force =     0.00000347    0.00000200    0.00631482
     The ionic contribution  to forces
     atom    1 type  1   force =    -0.00000000    0.00000001    0.05376956
     atom    2 type  1   force =     0.00000000    0.00000001    0.05376956
     atom    3 type  2   force =    -0.00000000    0.00000000   -0.05376956
     atom    4 type  2   force =     0.00000000    0.00000000   -0.05376956
     atom    5 type  1   force =     0.00000000   -0.00000001    0.05376956
     atom    6 type  1   force =    -0.00000000   -0.00000000    0.05376957
     atom    7 type  2   force =     0.00000000   -0.00000001   -0.05376956
     atom    8 type  2   force =    -0.00000000   -0.00000000   -0.05376957
     atom    9 type  1   force =    -0.00000000    0.00000001    0.05376956
     atom   10 type  1   force =     0.00000000    0.00000001    0.05376956
     atom   11 type  2   force =    -0.00000000    0.00000000   -0.05376956
     atom   12 type  2   force =     0.00000000    0.00000000   -0.05376956
     atom   13 type  1   force =     0.00000000   -0.00000001    0.05376956
     atom   14 type  1   force =    -0.00000000   -0.00000000    0.05376957
     atom   15 type  2   force =     0.00000000   -0.00000001   -0.05376956
     atom   16 type  2   force =    -0.00000000   -0.00000000   -0.05376957
     The local contribution  to forces
     atom    1 type  1   force =    -0.00001367   -0.00000778   -0.04961281
     atom    2 type  1   force =     0.00000009   -0.00000793   -0.04961752
     atom    3 type  2   force =     0.00000288    0.00000169    0.04763337
     atom    4 type  2   force =     0.00000002   -0.00000033    0.04763768
     atom    5 type  1   force =     0.00000009   -0.00000005   -0.04961989
     atom    6 type  1   force =    -0.00000682    0.00000404   -0.04961752
     atom    7 type  2   force =     0.00000002   -0.00000001    0.04763719
     atom    8 type  2   force =    -0.00000027    0.00000018    0.04763768
     atom    9 type  1   force =     0.00001367   -0.00000778   -0.04961281
     atom   10 type  1   force =     0.00000009    0.00000005   -0.04963137
     atom   11 type  2   force =    -0.00000288    0.00000169    0.04763337
     atom   12 type  2   force =     0.00000002    0.00000001    0.04763672
     atom   13 type  1   force =     0.00000009    0.00001573   -0.04961281
     atom   14 type  1   force =     0.00000700    0.00000404   -0.04961752
     atom   15 type  2   force =     0.00000002   -0.00000334    0.04763337
     atom   16 type  2   force =     0.00000032    0.00000018    0.04763768
     The core correction contribution to forces
     atom    1 type  1   force =     0.00000031    0.00000019    0.00028473
     atom    2 type  1   force =     0.00000001    0.00000023    0.00028497
     atom    3 type  2   force =     0.00000003    0.00000002   -0.00007173
     atom    4 type  2   force =    -0.00000000    0.00000006   -0.00007174
     atom    5 type  1   force =     0.00000001   -0.00000001    0.00028510
     atom    6 type  1   force =     0.00000021   -0.00000010    0.00028497
     atom    7 type  2   force =    -0.00000000    0.00000000   -0.00007171
     atom    8 type  2   force =     0.00000005   -0.00000003   -0.00007174
     atom    9 type  1   force =    -0.00000031    0.00000019    0.00028473
     atom   10 type  1   force =     0.00000001    0.00000001    0.00028542
     atom   11 type  2   force =    -0.00000003    0.00000002   -0.00007173
     atom   12 type  2   force =    -0.00000000   -0.00000000   -0.00007174
     atom   13 type  1   force =     0.00000001   -0.00000036    0.00028473
     atom   14 type  1   force =    -0.00000018   -0.00000010    0.00028497
     atom   15 type  2   force =    -0.00000000   -0.00000004   -0.00007173
     atom   16 type  2   force =    -0.00000005   -0.00000003   -0.00007174
     The Hubbard contrib.    to forces
     atom    1 type  1   force =     0.00000000    0.00000000    0.00000000
     atom    2 type  1   force =     0.00000000    0.00000000    0.00000000
     atom    3 type  2   force =     0.00000000    0.00000000    0.00000000
     atom    4 type  2   force =     0.00000000    0.00000000    0.00000000
     atom    5 type  1   force =     0.00000000    0.00000000    0.00000000
     atom    6 type  1   force =     0.00000000    0.00000000    0.00000000
     atom    7 type  2   force =     0.00000000    0.00000000    0.00000000
     atom    8 type  2   force =     0.00000000    0.00000000    0.00000000
     atom    9 type  1   force =     0.00000000    0.00000000    0.00000000
     atom   10 type  1   force =     0.00000000    0.00000000    0.00000000
     atom   11 type  2   force =     0.00000000    0.00000000    0.00000000
     atom   12 type  2   force =     0.00000000    0.00000000    0.00000000
     atom   13 type  1   force =     0.00000000    0.00000000    0.00000000
     atom   14 type  1   force =     0.00000000    0.00000000    0.00000000
     atom   15 type  2   force =     0.00000000    0.00000000    0.00000000
     atom   16 type  2   force =     0.00000000    0.00000000    0.00000000
     The SCF correction term to forces
     atom    1 type  1   force =     0.00001093    0.00000631   -0.00000007
     atom    2 type  1   force =    -0.00000000    0.00000790   -0.00000182
     atom    3 type  2   force =    -0.00000033   -0.00000019    0.00000157
     atom    4 type  2   force =    -0.00000000    0.00000013   -0.00000089
     atom    5 type  1   force =    -0.00000000    0.00000000    0.00000950
     atom    6 type  1   force =     0.00000684   -0.00000395   -0.00000182
     atom    7 type  2   force =    -0.00000000    0.00000000    0.00000023
     atom    8 type  2   force =     0.00000011   -0.00000007   -0.00000089
     atom    9 type  1   force =    -0.00001093    0.00000631   -0.00000007
     atom   10 type  1   force =    -0.00000000   -0.00000000    0.00000682
     atom   11 type  2   force =     0.00000033   -0.00000019    0.00000157
     atom   12 type  2   force =    -0.00000000   -0.00000000   -0.00000058
     atom   13 type  1   force =    -0.00000000   -0.00001262   -0.00000007
     atom   14 type  1   force =    -0.00000684   -0.00000395   -0.00000182
     atom   15 type  2   force =    -0.00000000    0.00000038    0.00000157
     atom   16 type  2   force =    -0.00000011   -0.00000007   -0.00000089

     Total force =     0.000438     Total SCF correction =     0.000029

     General routines

     Parallel routines

   This run was terminated on:   2:34: 1  24Aug2025

   JOB DONE.
Note: The following floating-point exceptions are signalling: IEEE_INVALID_FLAG
Note: The following floating-point exceptions are signalling: IEEE_INVALID_FLAG
Note: The following floating-point exceptions are signalling: IEEE_INVALID_FLAG
Note: The following floating-point exceptions are signalling: IEEE_INVALID_FLAG
Note: The following floating-point exceptions are signalling: IEEE_INVALID_FLAG
Note: The following floating-point exceptions are signalling: IEEE_INVALID_FLAG
Note: The following floating-point exceptions are signalling: IEEE_INVALID_FLAG
Note: The following floating-point exceptions are signalling: IEEE_INVALID_FLAG
Note: The following floating-point exceptions are signalling: IEEE_INVALID_FLAG
Note: The following floating-point exceptions are signalling: IEEE_INVALID_FLAG
Note: The following floating-point exceptions are signalling: IEEE_INVALID_FLAG
Note: The following floating-point exceptions are signalling: IEEE_INVALID_FLAG
Note: The following floating-point exceptions are signalling: IEEE_INVALID_FLAG
Note: The following floating-point exceptions are signalling: IEEE_INVALID_FLAG
Note: The following floating-point exceptions are signalling: IEEE_INVALID_FLAG
Note: The following floating-point exceptions are signalling: IEEE_INVALID_FLAG
Note: The following floating-point exceptions are signalling: IEEE_INVALID_FLAG
Note: The following floating-point exceptions are signalling: IEEE_INVALID_FLAG
Note: The following floating-point exceptions are signalling: IEEE_INVALID_FLAG
Note: The following floating-point exceptions are signalling: IEEE_INVALID_FLAG IEEE_DENORMAL
Note: The following floating-point exceptions are signalling: IEEE_INVALID_FLAG
Note: The following floating-point exceptions are signalling: IEEE_INVALID_FLAG
Note: The following floating-point exceptions are signalling: IEEE_INVALID_FLAG IEEE_DENORMAL
Note: The following floating-point exceptions are signalling: IEEE_INVALID_FLAG
Note: The following floating-point exceptions are signalling: IEEE_INVALID_FLAG
Note: The following floating-point exceptions are signalling: IEEE_INVALID_FLAG
Note: The following floating-point exceptions are signalling: IEEE_INVALID_FLAG
Note: The following floating-point exceptions are signalling: IEEE_INVALID_FLAG
Note: The following floating-point exceptions are signalling: IEEE_INVALID_FLAG
Note: The following floating-point exceptions are signalling: IEEE_INVALID_FLAG
Note: The following floating-point exceptions are signalling: IEEE_INVALID_FLAG
Note: The following floating-point exceptions are signalling: IEEE_INVALID_FLAG