     Program PWSCF v.7.2 starts on 24Aug2025 at  3:24:20

     Reading input from /home/jvc/QEspresso7.2/ZnO_database/scripts/cell221.in/ZnO-3.60-1.49-221.in
Warning: card &CELL ignored
Warning: card / ignored
Warning: card &FCP ignored
Warning: card / ignored
Warning: card &RISM ignored
Warning: card / ignored

     Current dimensions of program PWSCF are:
     Max number of different atomic species (ntypx) = 10
     Max number of k-points (npk) =  40000
     Max angular momentum in pseudopotentials (lmaxx) =  4
     file Zn.upf: wavefunction(s)  3D renormalized
     Found identity + (  0.0000 -0.5000  0.0000) symmetry
     This is a supercell, fractional translations are disabled
     Message from routine setup:
     using ibrav=0 with symmetry is DISCOURAGED, use correct ibrav instead

     K-points division:     npool     =       8
     band groups division:  nbgrp     =       4
     Subspace diagonalization in iterative solution of the eigenvalue problem:
     a serial algorithm will be used

     Using Slab Decomposition

     bravais-lattice index     =            0
     lattice parameter (alat)  =      13.5935  a.u.
     unit-cell volume          =    1615.4006 (a.u.)^3
     number of atoms/cell      =           16
     number of atomic types    =            2
     number of electrons       =       144.00
     number of Kohn-Sham states=           72
     kinetic-energy cutoff     =      50.0000  Ry
     charge density cutoff     =     400.0000  Ry
     scf convergence threshold =      1.0E-08
     mixing beta               =       0.3000
     number of iterations used =            8  plain     mixing
     Exchange-correlation= PBE
                           (   1   4   3   4   0   0   0)

     celldm(1)=  13.593479  celldm(2)=   0.000000  celldm(3)=   0.000000
     celldm(4)=   0.000000  celldm(5)=   0.000000  celldm(6)=   0.000000

     crystal axes: (cart. coord. in units of alat)
               a(1) = (   1.000000   0.000000   0.000000 )
               a(2) = (  -0.500000   0.866025   0.000000 )
               a(3) = (   0.000000   0.000000   0.742605 )

     reciprocal axes: (cart. coord. in units 2 pi/alat)
               b(1) = (  1.000000  0.577350 -0.000000 )
               b(2) = (  0.000000  1.154701  0.000000 )
               b(3) = (  0.000000 -0.000000  1.346611 )

     PseudoPot. # 1 for Zn read from file:
     /home/jvc/QEspresso7.2/ZnO_database/pseudos/Zn.upf
     MD5 check sum: 7f56cabf9682ed8c977c2f7d0c5985c5
     Pseudo is Ultrasoft + core correction, Zval = 12.0
     Generated using &quot;atomic&quot; code by A. Dal Corso  v.6.2.2
     Using radial grid of 1201 points,  6 beta functions with:
                l(1) =   0
                l(2) =   0
                l(3) =   1
                l(4) =   1
                l(5) =   2
                l(6) =   2
     Q(r) pseudized with 0 coefficients

     PseudoPot. # 2 for O  read from file:
     /home/jvc/QEspresso7.2/ZnO_database/pseudos/O.upf
     MD5 check sum: 91400c9766925bcf19f520983a725ff0
     Pseudo is Ultrasoft + core correction, Zval =  6.0
     Generated using &quot;atomic&quot; code by A. Dal Corso  v.6.3MaX
     Using radial grid of 1095 points,  4 beta functions with:
                l(1) =   0
                l(2) =   0
                l(3) =   1
                l(4) =   1
     Q(r) pseudized with 0 coefficients

     atomic species   valence    mass     pseudopotential
        Zn            12.00    65.38000     Zn( 1.00)
        O              6.00    15.99900     O ( 1.00)

      6 Sym. Ops. (no inversion) found

                                    s                        frac. trans.

      isym =  1     identity

 cryst.   s( 1) = (     1          0          0      )
                  (     0          1          0      )
                  (     0          0          1      )

 cart.    s( 1) = (  1.0000000  0.0000000  0.0000000 )
                  (  0.0000000  1.0000000  0.0000000 )
                  (  0.0000000  0.0000000  1.0000000 )

      isym =  2     120 deg rotation - cryst. axis [0,0,1]

[...]

      isym =  3     120 deg rotation - cryst. axis [0,0,-1]

[...]

      isym =  4     inv. 180 deg rotation - cart. axis [1,0,0]

[...]

      isym =  5     inv. 180 deg rotation - cryst. axis [0,1,0]

[...]

      isym =  6     inv. 180 deg rotation - cryst. axis [1,1,0]

 cryst.   s( 6) = (     0         -1          0      )
                  (    -1          0          0      )
                  (     0          0          1      )

 cart.    s( 6) = (  0.5000000 -0.8660254  0.0000000 )
                  ( -0.8660254 -0.5000000  0.0000000 )
                  (  0.0000000  0.0000000  1.0000000 )

   Cartesian axes

     site n.     atom                  positions (alat units)
         1           Zn  tau(   1) = (   0.2500000   0.1443376   0.3717729  )
         2           Zn  tau(   2) = (  -0.0000000   0.2886751   0.0004705  )
         3           O   tau(   3) = (   0.2500000   0.1443376   0.6532520  )
         4           O   tau(   4) = (  -0.0000000   0.2886751   0.2819495  )
         5           Zn  tau(   5) = (  -0.0000000   0.5773503   0.3717729  )
         6           Zn  tau(   6) = (  -0.2500000   0.7216878   0.0004705  )
         7           O   tau(   7) = (  -0.0000000   0.5773503   0.6532520  )
         8           O   tau(   8) = (  -0.2500000   0.7216878   0.2819495  )
         9           Zn  tau(   9) = (   0.7500000   0.1443376   0.3717729  )
        10           Zn  tau(  10) = (   0.5000000   0.2886751   0.0004705  )
        11           O   tau(  11) = (   0.7500000   0.1443376   0.6532520  )
        12           O   tau(  12) = (   0.5000000   0.2886751   0.2819495  )
        13           Zn  tau(  13) = (   0.5000000   0.5773503   0.3717729  )
        14           Zn  tau(  14) = (   0.2500000   0.7216878   0.0004705  )
        15           O   tau(  15) = (   0.5000000   0.5773503   0.6532520  )
        16           O   tau(  16) = (   0.2500000   0.7216878   0.2819495  )

   Crystallographic axes

     site n.     atom                  positions (cryst. coord.)
         1           Zn  tau(   1) = (  0.3333333  0.1666667  0.5006336  )
         2           Zn  tau(   2) = (  0.1666667  0.3333333  0.0006336  )
         3           O   tau(   3) = (  0.3333333  0.1666667  0.8796764  )
         4           O   tau(   4) = (  0.1666667  0.3333333  0.3796764  )
         5           Zn  tau(   5) = (  0.3333333  0.6666667  0.5006336  )
         6           Zn  tau(   6) = (  0.1666667  0.8333333  0.0006336  )
         7           O   tau(   7) = (  0.3333333  0.6666667  0.8796764  )
         8           O   tau(   8) = (  0.1666667  0.8333333  0.3796764  )
         9           Zn  tau(   9) = (  0.8333333  0.1666667  0.5006336  )
        10           Zn  tau(  10) = (  0.6666667  0.3333333  0.0006336  )
        11           O   tau(  11) = (  0.8333333  0.1666667  0.8796764  )
        12           O   tau(  12) = (  0.6666667  0.3333333  0.3796764  )
        13           Zn  tau(  13) = (  0.8333333  0.6666667  0.5006336  )
        14           Zn  tau(  14) = (  0.6666667  0.8333333  0.0006336  )
        15           O   tau(  15) = (  0.8333333  0.6666667  0.8796764  )
        16           O   tau(  16) = (  0.6666667  0.8333333  0.3796764  )

     number of k points=    34
                       cart. coord. in units 2pi/alat
        k(    1) = (   0.0000000   0.0000000   0.0000000), wk =   0.0092593
        k(    2) = (   0.0000000   0.0000000   0.2244352), wk =   0.0185185
        k(    3) = (   0.0000000   0.0000000   0.4488704), wk =   0.0185185
        k(    4) = (   0.0000000   0.0000000  -0.6733056), wk =   0.0092593
        k(    5) = (   0.0000000   0.1924501   0.0000000), wk =   0.0555556
        k(    6) = (   0.0000000   0.1924501   0.2244352), wk =   0.0555556
        k(    7) = (   0.0000000   0.1924501   0.4488704), wk =   0.0555556
        k(    8) = (   0.0000000   0.1924501  -0.6733056), wk =   0.0555556
        k(    9) = (   0.0000000   0.3849002   0.0000000), wk =   0.0555556
        k(   10) = (   0.0000000   0.3849002   0.2244352), wk =   0.0555556
        k(   11) = (   0.0000000   0.3849002   0.4488704), wk =   0.0555556
        k(   12) = (   0.0000000   0.3849002  -0.6733056), wk =   0.0555556
        k(   13) = (   0.0000000  -0.5773503   0.0000000), wk =   0.0277778
        k(   14) = (   0.0000000  -0.5773503   0.2244352), wk =   0.0555556
        k(   15) = (   0.0000000  -0.5773503   0.4488704), wk =   0.0555556
        k(   16) = (   0.0000000  -0.5773503  -0.6733056), wk =   0.0277778
        k(   17) = (   0.1666667   0.2886751   0.0000000), wk =   0.0555556
        k(   18) = (   0.1666667   0.2886751   0.2244352), wk =   0.1111111
        k(   19) = (   0.1666667   0.2886751   0.4488704), wk =   0.1111111
        k(   20) = (   0.1666667   0.2886751  -0.6733056), wk =   0.0555556
        k(   21) = (   0.1666667   0.4811252   0.0000000), wk =   0.1111111
        k(   22) = (   0.1666667   0.4811252   0.2244352), wk =   0.1111111
        k(   23) = (   0.1666667   0.4811252   0.4488704), wk =   0.1111111
        k(   24) = (   0.1666667   0.4811252  -0.6733056), wk =   0.1111111
        k(   25) = (   0.3333333   0.5773503   0.0000000), wk =   0.0185185
        k(   26) = (   0.3333333   0.5773503   0.2244352), wk =   0.0370370
        k(   27) = (   0.3333333   0.5773503   0.4488704), wk =   0.0370370
        k(   28) = (   0.3333333   0.5773503  -0.6733056), wk =   0.0185185
        k(   29) = (   0.0000000  -0.1924501   0.2244352), wk =   0.0555556
        k(   30) = (   0.0000000  -0.1924501   0.4488704), wk =   0.0555556
        k(   31) = (   0.0000000  -0.3849002   0.2244352), wk =   0.0555556
        k(   32) = (   0.0000000  -0.3849002   0.4488704), wk =   0.0555556
        k(   33) = (  -0.1666667  -0.4811252   0.2244352), wk =   0.1111111
        k(   34) = (  -0.1666667  -0.4811252   0.4488704), wk =   0.1111111

                       cryst. coord.
        k(    1) = (   0.0000000   0.0000000   0.0000000), wk =   0.0092593
        k(    2) = (   0.0000000   0.0000000   0.1666667), wk =   0.0185185
        k(    3) = (   0.0000000   0.0000000   0.3333333), wk =   0.0185185
        k(    4) = (   0.0000000   0.0000000  -0.5000000), wk =   0.0092593
        k(    5) = (   0.0000000   0.1666667   0.0000000), wk =   0.0555556
        k(    6) = (   0.0000000   0.1666667   0.1666667), wk =   0.0555556
        k(    7) = (   0.0000000   0.1666667   0.3333333), wk =   0.0555556
        k(    8) = (   0.0000000   0.1666667  -0.5000000), wk =   0.0555556
        k(    9) = (   0.0000000   0.3333333   0.0000000), wk =   0.0555556
        k(   10) = (   0.0000000   0.3333333   0.1666667), wk =   0.0555556
        k(   11) = (   0.0000000   0.3333333   0.3333333), wk =   0.0555556
        k(   12) = (   0.0000000   0.3333333  -0.5000000), wk =   0.0555556
        k(   13) = (   0.0000000  -0.5000000   0.0000000), wk =   0.0277778
        k(   14) = (   0.0000000  -0.5000000   0.1666667), wk =   0.0555556
        k(   15) = (   0.0000000  -0.5000000   0.3333333), wk =   0.0555556
[...]
        k(   28) = (   0.3333333   0.3333333  -0.5000000), wk =   0.0185185
        k(   29) = (   0.0000000  -0.1666667   0.1666667), wk =   0.0555556
        k(   30) = (   0.0000000  -0.1666667   0.3333333), wk =   0.0555556
        k(   31) = (   0.0000000  -0.3333333   0.1666667), wk =   0.0555556
        k(   32) = (   0.0000000  -0.3333333   0.3333333), wk =   0.0555556
        k(   33) = (  -0.1666667  -0.3333333   0.1666667), wk =   0.1111111
        k(   34) = (  -0.1666667  -0.3333333   0.3333333), wk =   0.1111111

     Check: negative core charge=   -0.000002

     Initial potential from superposition of free atoms

     starting charge     143.9702, renormalised to     144.0000
     Starting wfcs are  104 randomized atomic wfcs

     Self-consistent Calculation

     iteration #  1     ecut=    50.00 Ry     beta= 0.30
     Davidson diagonalization with overlap

     ethr =  1.00E-02,  avg # of iterations =  1.8

     total energy              =   -1445.57342956 Ry
     estimated scf accuracy    <       3.18945864 Ry

[...]

     c_bands:  1 eigenvalues not converged
     ethr =  4.29E-07,  avg # of iterations = 12.8

[...]

     c_bands:  1 eigenvalues not converged
     ethr =  4.29E-07,  avg # of iterations = 13.1

[...]

     total energy              =   -1446.33686109 Ry
     estimated scf accuracy    <       0.00000002 Ry

     iteration # 29     ecut=    50.00 Ry     beta= 0.30
     Davidson diagonalization with overlap

     ethr =  1.63E-11,  avg # of iterations =  4.9

     End of self-consistent calculation

          k = 0.0000 0.0000 0.0000 (  9635 PWs)   bands (ev):

   -12.3115 -11.9265 -11.9264 -11.9264 -11.7982 -11.7653 -11.7652 -11.7652
    -0.7017  -0.7017  -0.7017  -0.6672  -0.6451  -0.6451  -0.5282  -0.5282
    -0.5282  -0.4907  -0.4907  -0.3558  -0.3558  -0.3558  -0.3037  -0.3037
    -0.3037  -0.1849  -0.1849  -0.1849  -0.1523  -0.1523  -0.1523  -0.0809
    -0.0809  -0.0140  -0.0140  -0.0140   0.0261   0.0261   0.0261   0.0762
     0.0762   0.1054   0.1054   0.1054   0.1292   0.1292   0.1292   0.1332
     0.3623   0.9442   0.9442   0.9442   1.5554   1.5554   1.5554   2.0839
     2.0840   2.0840   2.5064   2.5064   2.5064   3.3308   3.3309   3.3309
     3.4969   3.4969   3.7554   3.7554   3.7554   4.2192   4.2192   4.2650

     occupation numbers
     1.0000   1.0000   1.0000   1.0000   1.0000   1.0000   1.0000   1.0000
     1.0000   1.0000   1.0000   1.0000   1.0000   1.0000   1.0000   1.0000
     1.0000   1.0000   1.0000   1.0000   1.0000   1.0000   1.0000   1.0000
     1.0000   1.0000   1.0000   1.0000   1.0000   1.0000   1.0000   1.0000
     1.0000   1.0000   1.0000   1.0000   1.0000   1.0000   1.0000   1.0000
     1.0000   1.0000   1.0000   1.0000   1.0000   1.0000   1.0000   1.0000
     1.0000   1.0000   1.0000   1.0000   1.0000   1.0000   1.0000   1.0000
     1.0000   1.0000   1.0000   1.0000   1.0000   1.0000   1.0000   1.0000
     1.0000   1.0000   1.0000   1.0000   1.0000   1.0000   1.0000   1.0000

[...]

          k = 0.0000-0.3849 0.4489 (  9633 PWs)   bands (ev):

[...]

          k =-0.1667-0.4811 0.2244 (  9653 PWs)   bands (ev):

[...]

          k =-0.1667-0.4811 0.4489 (  9635 PWs)   bands (ev):

   -12.0719 -11.9978 -11.9395 -11.8667 -11.8422 -11.8327 -11.8112 -11.7990
    -0.7693  -0.7688  -0.7271  -0.6609  -0.6527  -0.6508  -0.6501  -0.5987
    -0.5677  -0.5294  -0.5148  -0.5145  -0.4787  -0.4686  -0.4652  -0.4432
    -0.4386  -0.4106  -0.3661  -0.3635  -0.3045  -0.2860  -0.2430  -0.2254
    -0.0324  -0.0267  -0.0192  -0.0185  -0.0169  -0.0065  -0.0022   0.0176
     0.0595   0.0636   0.0810   0.0928   0.1175   0.1486   0.1741   0.2125
     1.0886   1.2422   1.2735   1.4102   1.5709   1.6113   1.8673   2.0347
     2.2733   2.6732   2.8706   2.8878   2.9811   3.0536   3.0740   3.2587
     3.3032   3.3285   3.5510   3.5948   3.7535   3.7710   3.8072   3.8847

     occupation numbers
     1.0000   1.0000   1.0000   1.0000   1.0000   1.0000   1.0000   1.0000
     1.0000   1.0000   1.0000   1.0000   1.0000   1.0000   1.0000   1.0000
     1.0000   1.0000   1.0000   1.0000   1.0000   1.0000   1.0000   1.0000
     1.0000   1.0000   1.0000   1.0000   1.0000   1.0000   1.0000   1.0000
     1.0000   1.0000   1.0000   1.0000   1.0000   1.0000   1.0000   1.0000
     1.0000   1.0000   1.0000   1.0000   1.0000   1.0000   1.0000   1.0000
     1.0000   1.0000   1.0000   1.0000   1.0000   1.0000   1.0000   1.0000
     1.0000   1.0000   1.0000   1.0000   1.0000   1.0000   1.0000   1.0000
     1.0000   1.0000   1.0000   1.0000   1.0000   1.0000   1.0000   1.0000

     highest occupied level (ev):     4.2650

!    total energy              =   -1446.33686109 Ry
     estimated scf accuracy    <          6.7E-09 Ry

     The total energy is the sum of the following terms:
     one-electron contribution =    -712.35583640 Ry
     hartree contribution      =     507.87000215 Ry
     xc contribution           =    -436.73727914 Ry
     ewald contribution        =    -805.11374770 Ry

     convergence has been achieved in  29 iterations

     Forces acting on atoms (cartesian axes, Ry/au):

     atom    1 type  1   force =    -0.00000776   -0.00000448   -0.00601615
     atom    2 type  1   force =     0.00000000   -0.00001906   -0.00602410
     atom    3 type  2   force =    -0.00000032   -0.00000018    0.00602226
     atom    4 type  2   force =    -0.00000000   -0.00000359    0.00602032
     atom    5 type  1   force =     0.00000000    0.00000000   -0.00602048
     atom    6 type  1   force =    -0.00001651    0.00000953   -0.00602410
     atom    7 type  2   force =     0.00000000    0.00000000    0.00602342
     atom    8 type  2   force =    -0.00000311    0.00000180    0.00602032
     atom    9 type  1   force =     0.00000776   -0.00000448   -0.00601615
     atom   10 type  1   force =     0.00000000    0.00000000   -0.00603106
     atom   11 type  2   force =     0.00000032   -0.00000018    0.00602226
     atom   12 type  2   force =     0.00000000    0.00000000    0.00602114
     atom   13 type  1   force =     0.00000000    0.00000896   -0.00601615
     atom   14 type  1   force =     0.00001651    0.00000953   -0.00602410
     atom   15 type  2   force =    -0.00000000    0.00000037    0.00602226
     atom   16 type  2   force =     0.00000311    0.00000180    0.00602032
     The non-local contrib.  to forces
     atom    1 type  1   force =    -0.00000228   -0.00000132   -0.22336973
     atom    2 type  1   force =     0.00000000   -0.00000160   -0.22337333
     atom    3 type  2   force =     0.00000121    0.00000070   -0.20032717
     atom    4 type  2   force =     0.00000000    0.00000015   -0.20032966
     atom    5 type  1   force =     0.00000000   -0.00000000   -0.22336755
     atom    6 type  1   force =    -0.00000139    0.00000080   -0.22337333
     atom    7 type  2   force =     0.00000000    0.00000000   -0.20032698
     atom    8 type  2   force =     0.00000013   -0.00000008   -0.20032966
     atom    9 type  1   force =     0.00000228   -0.00000132   -0.22336973
     atom   10 type  1   force =     0.00000000    0.00000000   -0.22337326
     atom   11 type  2   force =    -0.00000121    0.00000070   -0.20032717
     atom   12 type  2   force =     0.00000000    0.00000000   -0.20032973
     atom   13 type  1   force =     0.00000000    0.00000263   -0.22336973
     atom   14 type  1   force =     0.00000139    0.00000080   -0.22337333
     atom   15 type  2   force =     0.00000000   -0.00000139   -0.20032717
     atom   16 type  2   force =    -0.00000013   -0.00000008   -0.20032966
     The ionic contribution  to forces
     atom    1 type  1   force =     0.00000000    0.00000002   -1.44493107
     atom    2 type  1   force =     0.00000001    0.00000002   -1.44493107
     atom    3 type  2   force =    -0.00000000    0.00000001    1.44493107
     atom    4 type  2   force =     0.00000001    0.00000001    1.44493107
     atom    5 type  1   force =     0.00000001   -0.00000001   -1.44493107
     atom    6 type  1   force =    -0.00000000   -0.00000002   -1.44493107
     atom    7 type  2   force =     0.00000000   -0.00000001    1.44493107
     atom    8 type  2   force =    -0.00000000   -0.00000001    1.44493107
     atom    9 type  1   force =    -0.00000002    0.00000002   -1.44493107
     atom   10 type  1   force =     0.00000001    0.00000001   -1.44493107
     atom   11 type  2   force =    -0.00000001    0.00000001    1.44493107
     atom   12 type  2   force =     0.00000001    0.00000000    1.44493107
     atom   13 type  1   force =     0.00000001   -0.00000002   -1.44493107
     atom   14 type  1   force =    -0.00000001   -0.00000002   -1.44493107
     atom   15 type  2   force =     0.00000000   -0.00000001    1.44493107
     atom   16 type  2   force =    -0.00000001   -0.00000001    1.44493107
     The local contribution  to forces
     atom    1 type  1   force =     0.00000782    0.00000463    1.64827360
     atom    2 type  1   force =     0.00000010    0.00001468    1.64828697
     atom    3 type  2   force =     0.00000146    0.00000087   -1.24027887
     atom    4 type  2   force =     0.00000003    0.00000914   -1.24028117
     atom    5 type  1   force =     0.00000010   -0.00000006    1.64827915
     atom    6 type  1   force =     0.00001266   -0.00000742    1.64828697
     atom    7 type  2   force =     0.00000003   -0.00000001   -1.24027303
     atom    8 type  2   force =     0.00000790   -0.00000459   -1.24028117
     atom    9 type  1   force =    -0.00000801    0.00000463    1.64827360
     atom   10 type  1   force =     0.00000010    0.00000006    1.64829136
     atom   11 type  2   force =    -0.00000151    0.00000087   -1.24027887
     atom   12 type  2   force =     0.00000003    0.00000001   -1.24028030
     atom   13 type  1   force =     0.00000010   -0.00000909    1.64827360
     atom   14 type  1   force =    -0.00001266   -0.00000742    1.64828697
     atom   15 type  2   force =     0.00000003   -0.00000170   -1.24027887
     atom   16 type  2   force =    -0.00000790   -0.00000459   -1.24028117
     The core correction contribution to forces
     atom    1 type  1   force =    -0.00000003   -0.00000000    0.01399516
     atom    2 type  1   force =     0.00000001   -0.00000002    0.01399499
     atom    3 type  2   force =    -0.00000002   -0.00000001    0.00170673
     atom    4 type  2   force =    -0.00000000    0.00000002    0.00170676
     atom    5 type  1   force =     0.00000001   -0.00000001    0.01399498
     atom    6 type  1   force =    -0.00000002   -0.00000000    0.01399499
     atom    7 type  2   force =    -0.00000000    0.00000000    0.00170676
     atom    8 type  2   force =     0.00000001   -0.00000001    0.00170676
     atom    9 type  1   force =     0.00000000   -0.00000000    0.01399516
     atom   10 type  1   force =     0.00000001    0.00000001    0.01399504
     atom   11 type  2   force =     0.00000002   -0.00000001    0.00170673
     atom   12 type  2   force =    -0.00000000   -0.00000000    0.00170677
     atom   13 type  1   force =     0.00000001    0.00000003    0.01399516
     atom   14 type  1   force =     0.00000002   -0.00000000    0.01399499
     atom   15 type  2   force =    -0.00000000    0.00000002    0.00170673
     atom   16 type  2   force =    -0.00000001   -0.00000001    0.00170676
     The Hubbard contrib.    to forces
     atom    1 type  1   force =     0.00000000    0.00000000    0.00000000
     atom    2 type  1   force =     0.00000000    0.00000000    0.00000000
     atom    3 type  2   force =     0.00000000    0.00000000    0.00000000
     atom    4 type  2   force =     0.00000000    0.00000000    0.00000000
     atom    5 type  1   force =     0.00000000    0.00000000    0.00000000
     atom    6 type  1   force =     0.00000000    0.00000000    0.00000000
     atom    7 type  2   force =     0.00000000    0.00000000    0.00000000
     atom    8 type  2   force =     0.00000000    0.00000000    0.00000000
     atom    9 type  1   force =     0.00000000    0.00000000    0.00000000
     atom   10 type  1   force =     0.00000000    0.00000000    0.00000000
     atom   11 type  2   force =     0.00000000    0.00000000    0.00000000
     atom   12 type  2   force =     0.00000000    0.00000000    0.00000000
     atom   13 type  1   force =     0.00000000    0.00000000    0.00000000
     atom   14 type  1   force =     0.00000000    0.00000000    0.00000000
     atom   15 type  2   force =     0.00000000    0.00000000    0.00000000
     atom   16 type  2   force =     0.00000000    0.00000000    0.00000000
     The SCF correction term to forces
     atom    1 type  1   force =    -0.00001340   -0.00000773    0.00002020
     atom    2 type  1   force =     0.00000000   -0.00003214    0.00000264
     atom    3 type  2   force =    -0.00000300   -0.00000173   -0.00000519
     atom    4 type  2   force =     0.00000000   -0.00001291   -0.00000237
     atom    5 type  1   force =     0.00000000   -0.00000000    0.00000832
     atom    6 type  1   force =    -0.00002783    0.00001607    0.00000264
     atom    7 type  2   force =     0.00000000   -0.00000000   -0.00001009
     atom    8 type  2   force =    -0.00001118    0.00000645   -0.00000237
     atom    9 type  1   force =     0.00001340   -0.00000773    0.00002020
     atom   10 type  1   force =     0.00000000    0.00000000   -0.00000883
     atom   11 type  2   force =     0.00000300   -0.00000173   -0.00000519
     atom   12 type  2   force =     0.00000000    0.00000000   -0.00000237
     atom   13 type  1   force =     0.00000000    0.00001547    0.00002020
     atom   14 type  1   force =     0.00002783    0.00001607    0.00000264
     atom   15 type  2   force =     0.00000000    0.00000346   -0.00000519
     atom   16 type  2   force =     0.00001118    0.00000645   -0.00000237

     Total force =     0.024086     Total SCF correction =     0.000077

     General routines

     Parallel routines

   This run was terminated on:   3:33:51  24Aug2025

   JOB DONE.
Note: The following floating-point exceptions are signalling: IEEE_INVALID_FLAG IEEE_DENORMAL
Note: The following floating-point exceptions are signalling: IEEE_INVALID_FLAG IEEE_DENORMAL
Note: The following floating-point exceptions are signalling: IEEE_INVALID_FLAG
Note: The following floating-point exceptions are signalling: IEEE_INVALID_FLAG
Note: The following floating-point exceptions are signalling: IEEE_INVALID_FLAG
Note: The following floating-point exceptions are signalling: IEEE_INVALID_FLAG IEEE_DENORMAL
Note: The following floating-point exceptions are signalling: IEEE_INVALID_FLAG IEEE_DENORMAL
Note: The following floating-point exceptions are signalling: IEEE_INVALID_FLAG
Note: The following floating-point exceptions are signalling: IEEE_INVALID_FLAG IEEE_DENORMAL
Note: The following floating-point exceptions are signalling: IEEE_INVALID_FLAG
Note: The following floating-point exceptions are signalling: IEEE_INVALID_FLAG
Note: The following floating-point exceptions are signalling: IEEE_INVALID_FLAG
Note: The following floating-point exceptions are signalling: IEEE_INVALID_FLAG
Note: The following floating-point exceptions are signalling: IEEE_INVALID_FLAG
Note: The following floating-point exceptions are signalling: IEEE_INVALID_FLAG
Note: The following floating-point exceptions are signalling: IEEE_INVALID_FLAG IEEE_DENORMAL
Note: The following floating-point exceptions are signalling: IEEE_INVALID_FLAG
Note: The following floating-point exceptions are signalling: IEEE_INVALID_FLAG
Note: The following floating-point exceptions are signalling: IEEE_INVALID_FLAG
Note: The following floating-point exceptions are signalling: IEEE_INVALID_FLAG
Note: The following floating-point exceptions are signalling: IEEE_INVALID_FLAG IEEE_DENORMAL
Note: The following floating-point exceptions are signalling: IEEE_INVALID_FLAG
Note: The following floating-point exceptions are signalling: IEEE_INVALID_FLAG IEEE_DENORMAL
Note: The following floating-point exceptions are signalling: IEEE_INVALID_FLAG
Note: The following floating-point exceptions are signalling: IEEE_INVALID_FLAG
Note: The following floating-point exceptions are signalling: IEEE_INVALID_FLAG
Note: The following floating-point exceptions are signalling: IEEE_INVALID_FLAG
Note: The following floating-point exceptions are signalling: IEEE_INVALID_FLAG
Note: The following floating-point exceptions are signalling: IEEE_INVALID_FLAG
Note: The following floating-point exceptions are signalling: IEEE_INVALID_FLAG
Note: The following floating-point exceptions are signalling: IEEE_INVALID_FLAG
Note: The following floating-point exceptions are signalling: IEEE_INVALID_FLAG