     Program PWSCF v.7.2 starts on 23Aug2025 at 16: 0:30

     Reading input from /home/jvc/QEspresso7.2/ZnO_database/scripts/cell221.in/ZnO-3.01-1.65-221.in
Warning: card &CELL ignored
Warning: card / ignored
Warning: card &FCP ignored
Warning: card / ignored
Warning: card &RISM ignored
Warning: card / ignored

     Current dimensions of program PWSCF are:
     Max number of different atomic species (ntypx) = 10
     Max number of k-points (npk) =  40000
     Max angular momentum in pseudopotentials (lmaxx) =  4
     file Zn.upf: wavefunction(s)  3D renormalized
     Found identity + (  0.0000  0.5000  0.0000) symmetry
     This is a supercell, fractional translations are disabled
     Message from routine setup:
     using ibrav=0 with symmetry is DISCOURAGED, use correct ibrav instead

     K-points division:     npool     =       8
     band groups division:  nbgrp     =       4
     Subspace diagonalization in iterative solution of the eigenvalue problem:
     a serial algorithm will be used

     Using Slab Decomposition

     bravais-lattice index     =            0
     lattice parameter (alat)  =      11.3691  a.u.
     unit-cell volume          =    1047.7991 (a.u.)^3
     number of atoms/cell      =           16
     number of atomic types    =            2
     number of electrons       =       144.00
     number of Kohn-Sham states=           72
     kinetic-energy cutoff     =      50.0000  Ry
     charge density cutoff     =     400.0000  Ry
     scf convergence threshold =      1.0E-08
     mixing beta               =       0.3000
     number of iterations used =            8  plain     mixing
     Exchange-correlation= PBE
                           (   1   4   3   4   0   0   0)

     celldm(1)=  11.369091  celldm(2)=   0.000000  celldm(3)=   0.000000
     celldm(4)=   0.000000  celldm(5)=   0.000000  celldm(6)=   0.000000

     crystal axes: (cart. coord. in units of alat)
               a(1) = (   1.000000   0.000000   0.000000 )
               a(2) = (  -0.500000   0.866025   0.000000 )
               a(3) = (   0.000000   0.000000   0.823323 )

     reciprocal axes: (cart. coord. in units 2 pi/alat)
               b(1) = (  1.000000  0.577350 -0.000000 )
               b(2) = (  0.000000  1.154701  0.000000 )
               b(3) = (  0.000000 -0.000000  1.214590 )

     PseudoPot. # 1 for Zn read from file:
     /home/jvc/QEspresso7.2/ZnO_database/pseudos/Zn.upf
     MD5 check sum: 7f56cabf9682ed8c977c2f7d0c5985c5
     Pseudo is Ultrasoft + core correction, Zval = 12.0
     Generated using &quot;atomic&quot; code by A. Dal Corso  v.6.2.2
     Using radial grid of 1201 points,  6 beta functions with:
                l(1) =   0
                l(2) =   0
                l(3) =   1
                l(4) =   1
                l(5) =   2
                l(6) =   2
     Q(r) pseudized with 0 coefficients

     PseudoPot. # 2 for O  read from file:
     /home/jvc/QEspresso7.2/ZnO_database/pseudos/O.upf
     MD5 check sum: 91400c9766925bcf19f520983a725ff0
     Pseudo is Ultrasoft + core correction, Zval =  6.0
     Generated using &quot;atomic&quot; code by A. Dal Corso  v.6.3MaX
     Using radial grid of 1095 points,  4 beta functions with:
                l(1) =   0
                l(2) =   0
                l(3) =   1
                l(4) =   1
     Q(r) pseudized with 0 coefficients

     atomic species   valence    mass     pseudopotential
        Zn            12.00    65.38000     Zn( 1.00)
        O              6.00    15.99900     O ( 1.00)

      6 Sym. Ops. (no inversion) found

                                    s                        frac. trans.

      isym =  1     identity

 cryst.   s( 1) = (     1          0          0      )
                  (     0          1          0      )
                  (     0          0          1      )

 cart.    s( 1) = (  1.0000000  0.0000000  0.0000000 )
                  (  0.0000000  1.0000000  0.0000000 )
                  (  0.0000000  0.0000000  1.0000000 )

      isym =  2     120 deg rotation - cryst. axis [0,0,1]

[...]

      isym =  3     120 deg rotation - cryst. axis [0,0,-1]

[...]

      isym =  4     inv. 180 deg rotation - cart. axis [1,0,0]

[...]

      isym =  5     inv. 180 deg rotation - cryst. axis [0,1,0]

[...]

      isym =  6     inv. 180 deg rotation - cryst. axis [1,1,0]

 cryst.   s( 6) = (     0         -1          0      )
                  (    -1          0          0      )
                  (     0          0          1      )

 cart.    s( 6) = (  0.5000000 -0.8660254  0.0000000 )
                  ( -0.8660254 -0.5000000  0.0000000 )
                  (  0.0000000  0.0000000  1.0000000 )

   Cartesian axes

     site n.     atom                  positions (alat units)
         1           Zn  tau(   1) = (   0.2500000   0.1443376   0.4121830  )
         2           Zn  tau(   2) = (  -0.0000000   0.2886751   0.0005216  )
         3           O   tau(   3) = (   0.2500000   0.1443376   0.7242576  )
         4           O   tau(   4) = (  -0.0000000   0.2886751   0.3125962  )
         5           Zn  tau(   5) = (   0.0000000   0.5773503   0.4121830  )
         6           Zn  tau(   6) = (  -0.2500000   0.7216878   0.0005216  )
         7           O   tau(   7) = (   0.0000000   0.5773503   0.7242576  )
         8           O   tau(   8) = (  -0.2500000   0.7216878   0.3125962  )
         9           Zn  tau(   9) = (   0.7500000   0.1443376   0.4121830  )
        10           Zn  tau(  10) = (   0.5000000   0.2886751   0.0005216  )
        11           O   tau(  11) = (   0.7500000   0.1443376   0.7242576  )
        12           O   tau(  12) = (   0.5000000   0.2886751   0.3125962  )
        13           Zn  tau(  13) = (   0.5000000   0.5773503   0.4121830  )
        14           Zn  tau(  14) = (   0.2500000   0.7216878   0.0005216  )
        15           O   tau(  15) = (   0.5000000   0.5773503   0.7242576  )
        16           O   tau(  16) = (   0.2500000   0.7216878   0.3125962  )

   Crystallographic axes

     site n.     atom                  positions (cryst. coord.)
         1           Zn  tau(   1) = (  0.3333333  0.1666667  0.5006336  )
         2           Zn  tau(   2) = (  0.1666667  0.3333333  0.0006336  )
         3           O   tau(   3) = (  0.3333333  0.1666667  0.8796764  )
         4           O   tau(   4) = (  0.1666667  0.3333333  0.3796764  )
         5           Zn  tau(   5) = (  0.3333333  0.6666667  0.5006336  )
         6           Zn  tau(   6) = (  0.1666667  0.8333333  0.0006336  )
         7           O   tau(   7) = (  0.3333333  0.6666667  0.8796764  )
         8           O   tau(   8) = (  0.1666667  0.8333333  0.3796764  )
         9           Zn  tau(   9) = (  0.8333333  0.1666667  0.5006336  )
        10           Zn  tau(  10) = (  0.6666667  0.3333333  0.0006336  )
        11           O   tau(  11) = (  0.8333333  0.1666667  0.8796764  )
        12           O   tau(  12) = (  0.6666667  0.3333333  0.3796764  )
        13           Zn  tau(  13) = (  0.8333333  0.6666667  0.5006336  )
        14           Zn  tau(  14) = (  0.6666667  0.8333333  0.0006336  )
        15           O   tau(  15) = (  0.8333333  0.6666667  0.8796764  )
        16           O   tau(  16) = (  0.6666667  0.8333333  0.3796764  )

     number of k points=    34
                       cart. coord. in units 2pi/alat
        k(    1) = (   0.0000000   0.0000000   0.0000000), wk =   0.0092593
        k(    2) = (   0.0000000   0.0000000   0.2024317), wk =   0.0185185
        k(    3) = (   0.0000000   0.0000000   0.4048635), wk =   0.0185185
        k(    4) = (   0.0000000   0.0000000  -0.6072952), wk =   0.0092593
        k(    5) = (   0.0000000   0.1924501   0.0000000), wk =   0.0555556
        k(    6) = (   0.0000000   0.1924501   0.2024317), wk =   0.0555556
        k(    7) = (   0.0000000   0.1924501   0.4048635), wk =   0.0555556
        k(    8) = (   0.0000000   0.1924501  -0.6072952), wk =   0.0555556
        k(    9) = (   0.0000000   0.3849002   0.0000000), wk =   0.0555556
        k(   10) = (   0.0000000   0.3849002   0.2024317), wk =   0.0555556
        k(   11) = (   0.0000000   0.3849002   0.4048635), wk =   0.0555556
        k(   12) = (   0.0000000   0.3849002  -0.6072952), wk =   0.0555556
        k(   13) = (   0.0000000  -0.5773503   0.0000000), wk =   0.0277778
        k(   14) = (   0.0000000  -0.5773503   0.2024317), wk =   0.0555556
        k(   15) = (   0.0000000  -0.5773503   0.4048635), wk =   0.0555556
        k(   16) = (   0.0000000  -0.5773503  -0.6072952), wk =   0.0277778
        k(   17) = (   0.1666667   0.2886751   0.0000000), wk =   0.0555556
        k(   18) = (   0.1666667   0.2886751   0.2024317), wk =   0.1111111
        k(   19) = (   0.1666667   0.2886751   0.4048635), wk =   0.1111111
        k(   20) = (   0.1666667   0.2886751  -0.6072952), wk =   0.0555556
        k(   21) = (   0.1666667   0.4811252   0.0000000), wk =   0.1111111
        k(   22) = (   0.1666667   0.4811252   0.2024317), wk =   0.1111111
        k(   23) = (   0.1666667   0.4811252   0.4048635), wk =   0.1111111
        k(   24) = (   0.1666667   0.4811252  -0.6072952), wk =   0.1111111
        k(   25) = (   0.3333333   0.5773503   0.0000000), wk =   0.0185185
        k(   26) = (   0.3333333   0.5773503   0.2024317), wk =   0.0370370
        k(   27) = (   0.3333333   0.5773503   0.4048635), wk =   0.0370370
        k(   28) = (   0.3333333   0.5773503  -0.6072952), wk =   0.0185185
        k(   29) = (   0.0000000  -0.1924501   0.2024317), wk =   0.0555556
        k(   30) = (   0.0000000  -0.1924501   0.4048635), wk =   0.0555556
        k(   31) = (   0.0000000  -0.3849002   0.2024317), wk =   0.0555556
        k(   32) = (   0.0000000  -0.3849002   0.4048635), wk =   0.0555556
        k(   33) = (  -0.1666667  -0.4811252   0.2024317), wk =   0.1111111
        k(   34) = (  -0.1666667  -0.4811252   0.4048635), wk =   0.1111111

                       cryst. coord.
        k(    1) = (   0.0000000   0.0000000   0.0000000), wk =   0.0092593
        k(    2) = (   0.0000000   0.0000000   0.1666667), wk =   0.0185185
        k(    3) = (   0.0000000   0.0000000   0.3333333), wk =   0.0185185
        k(    4) = (   0.0000000   0.0000000  -0.5000000), wk =   0.0092593
        k(    5) = (   0.0000000   0.1666667   0.0000000), wk =   0.0555556
        k(    6) = (   0.0000000   0.1666667   0.1666667), wk =   0.0555556
        k(    7) = (   0.0000000   0.1666667   0.3333333), wk =   0.0555556
        k(    8) = (   0.0000000   0.1666667  -0.5000000), wk =   0.0555556
        k(    9) = (   0.0000000   0.3333333   0.0000000), wk =   0.0555556
        k(   10) = (   0.0000000   0.3333333   0.1666667), wk =   0.0555556
        k(   11) = (   0.0000000   0.3333333   0.3333333), wk =   0.0555556
        k(   12) = (   0.0000000   0.3333333  -0.5000000), wk =   0.0555556
        k(   13) = (   0.0000000  -0.5000000   0.0000000), wk =   0.0277778
        k(   14) = (   0.0000000  -0.5000000   0.1666667), wk =   0.0555556
        k(   15) = (   0.0000000  -0.5000000   0.3333333), wk =   0.0555556
[...]
        k(   23) = (   0.1666667   0.3333333   0.3333333), wk =   0.1111111
        k(   24) = (   0.1666667   0.3333333  -0.5000000), wk =   0.1111111
        k(   25) = (   0.3333333   0.3333333   0.0000000), wk =   0.0185185
        k(   26) = (   0.3333333   0.3333333   0.1666667), wk =   0.0370370
        k(   27) = (   0.3333333   0.3333333   0.3333333), wk =   0.0370370
        k(   28) = (   0.3333333   0.3333333  -0.5000000), wk =   0.0185185
        k(   29) = (   0.0000000  -0.1666667   0.1666667), wk =   0.0555556
        k(   30) = (   0.0000000  -0.1666667   0.3333333), wk =   0.0555556
        k(   31) = (   0.0000000  -0.3333333   0.1666667), wk =   0.0555556
        k(   32) = (   0.0000000  -0.3333333   0.3333333), wk =   0.0555556
        k(   33) = (  -0.1666667  -0.3333333   0.1666667), wk =   0.1111111
        k(   34) = (  -0.1666667  -0.3333333   0.3333333), wk =   0.1111111

     Check: negative core charge=   -0.000001

     Initial potential from superposition of free atoms

     starting charge     143.9702, renormalised to     144.0000
     Starting wfcs are  104 randomized atomic wfcs

     Self-consistent Calculation

     iteration #  1     ecut=    50.00 Ry     beta= 0.30
     Davidson diagonalization with overlap

     ethr =  1.00E-02,  avg # of iterations =  2.0

     total energy              =   -1445.59401934 Ry
     estimated scf accuracy    <       2.70265250 Ry

[...]

     total energy              =   -1446.13178877 Ry
     estimated scf accuracy    <       0.00000005 Ry

     iteration # 34     ecut=    50.00 Ry     beta= 0.30
     Davidson diagonalization with overlap

     ethr =  3.51E-11,  avg # of iterations =  2.6

     End of self-consistent calculation

          k = 0.0000 0.0000 0.0000 (  6291 PWs)   bands (ev):

    -9.2656  -8.2285  -8.2202  -8.2202  -8.2202  -7.9054  -7.9054  -7.9054
     3.2237   3.2520   3.2520   3.2520   3.2856   3.2856   3.2856   3.7528
     3.7528   3.8287   4.0030   4.0030   4.1216   4.1216   4.1216   4.4095
     4.4095   4.4095   4.6634   4.6634   4.6634   4.8255   4.8255   4.8255
     5.6710   5.6710   5.6824   5.6824   5.6824   5.9398   5.9398   5.9398
     5.9841   5.9841   6.0638   6.0638   6.0638   6.1668   6.1668   6.1668
     6.3836   6.3873   6.3873   6.3873   6.6869   6.6869   6.6869   7.3099
     7.3099   7.3099   7.8602   7.8602   7.8602   9.0877   9.0877   9.0877
     9.6170   9.6170   9.6170   9.7857   9.7857  10.5445  10.7812  10.7812

     occupation numbers
     1.0000   1.0000   1.0000   1.0000   1.0000   1.0000   1.0000   1.0000
     1.0000   1.0000   1.0000   1.0000   1.0000   1.0000   1.0000   1.0000
     1.0000   1.0000   1.0000   1.0000   1.0000   1.0000   1.0000   1.0000
     1.0000   1.0000   1.0000   1.0000   1.0000   1.0000   1.0000   1.0000
     1.0000   1.0000   1.0000   1.0000   1.0000   1.0000   1.0000   1.0000
     1.0000   1.0000   1.0000   1.0000   1.0000   1.0000   1.0000   1.0000
     1.0000   1.0000   1.0000   1.0000   1.0000   1.0000   1.0000   1.0000
     1.0000   1.0000   1.0000   1.0000   1.0000   1.0000   1.0000   1.0000
     1.0000   1.0000   1.0000   1.0000   1.0000   1.0000   1.0000   1.0000

[...]

          k = 0.0000-0.3849 0.4049 (  6257 PWs)   bands (ev):

[...]

          k =-0.1667-0.4811 0.2024 (  6258 PWs)   bands (ev):

[...]

          k =-0.1667-0.4811 0.4049 (  6256 PWs)   bands (ev):

    -8.6937  -8.4753  -8.3052  -8.2762  -8.1384  -8.0432  -8.0332  -7.9467
     3.0843   3.1450   3.1925   3.2073   3.2407   3.2550   3.4317   3.4880
     3.9039   3.9468   3.9790   4.0431   4.0475   4.0837   4.0879   4.1114
     4.1157   4.1904   4.2565   4.3651   4.4046   4.5086   4.7232   4.7419
     5.6681   5.6841   5.6927   5.6998   5.7670   5.7753   5.8140   5.8796
     5.9329   5.9523   5.9845   5.9989   6.0267   6.1050   6.1546   6.3201
     6.5069   6.7914   7.0308   7.1810   7.3222   7.4471   7.5450   7.7978
     8.0538   8.0761   8.2025   8.3147   8.5201   8.6298   8.7538   8.8412
     9.0566   9.1172   9.3284   9.4290   9.5247   9.6198   9.7193   9.9694

     occupation numbers
     1.0000   1.0000   1.0000   1.0000   1.0000   1.0000   1.0000   1.0000
     1.0000   1.0000   1.0000   1.0000   1.0000   1.0000   1.0000   1.0000
     1.0000   1.0000   1.0000   1.0000   1.0000   1.0000   1.0000   1.0000
     1.0000   1.0000   1.0000   1.0000   1.0000   1.0000   1.0000   1.0000
     1.0000   1.0000   1.0000   1.0000   1.0000   1.0000   1.0000   1.0000
     1.0000   1.0000   1.0000   1.0000   1.0000   1.0000   1.0000   1.0000
     1.0000   1.0000   1.0000   1.0000   1.0000   1.0000   1.0000   1.0000
     1.0000   1.0000   1.0000   1.0000   1.0000   1.0000   1.0000   1.0000
     1.0000   1.0000   1.0000   1.0000   1.0000   1.0000   1.0000   1.0000

     highest occupied level (ev):    10.7812

!    total energy              =   -1446.13178877 Ry
     estimated scf accuracy    <          8.1E-09 Ry

     The total energy is the sum of the following terms:
     one-electron contribution =    -508.83635111 Ry
     hartree contribution      =     435.39665382 Ry
     xc contribution           =    -440.34156961 Ry
     ewald contribution        =    -932.35052187 Ry

     convergence has been achieved in  34 iterations

     Forces acting on atoms (cartesian axes, Ry/au):

     atom    1 type  1   force =    -0.00000241   -0.00000139    0.01849002
     atom    2 type  1   force =     0.00000000   -0.00000232    0.01848745
     atom    3 type  2   force =    -0.00000094   -0.00000054   -0.01848544
     atom    4 type  2   force =     0.00000000   -0.00000064   -0.01849095
     atom    5 type  1   force =     0.00000000    0.00000000    0.01848783
     atom    6 type  1   force =    -0.00000201    0.00000116    0.01848745
     atom    7 type  2   force =     0.00000000    0.00000000   -0.01848643
     atom    8 type  2   force =    -0.00000055    0.00000032   -0.01849095
     atom    9 type  1   force =     0.00000241   -0.00000139    0.01849002
     atom   10 type  1   force =     0.00000000    0.00000000    0.01848740
     atom   11 type  2   force =     0.00000094   -0.00000054   -0.01848544
     atom   12 type  2   force =     0.00000000    0.00000000   -0.01849202
     atom   13 type  1   force =    -0.00000000    0.00000279    0.01849002
     atom   14 type  1   force =     0.00000201    0.00000116    0.01848745
     atom   15 type  2   force =     0.00000000    0.00000108   -0.01848544
     atom   16 type  2   force =     0.00000055    0.00000032   -0.01849095
     The non-local contrib.  to forces
     atom    1 type  1   force =    -0.00000302   -0.00000174    0.05667870
     atom    2 type  1   force =     0.00000000   -0.00000165    0.05667196
     atom    3 type  2   force =    -0.00000034   -0.00000020    0.04494088
     atom    4 type  2   force =     0.00000000    0.00000083    0.04493663
     atom    5 type  1   force =     0.00000000   -0.00000000    0.05667734
     atom    6 type  1   force =    -0.00000143    0.00000083    0.05667196
     atom    7 type  2   force =     0.00000000    0.00000000    0.04493929
     atom    8 type  2   force =     0.00000072   -0.00000041    0.04493663
     atom    9 type  1   force =     0.00000302   -0.00000174    0.05667870
     atom   10 type  1   force =     0.00000000    0.00000000    0.05666919
     atom   11 type  2   force =     0.00000034   -0.00000020    0.04494088
     atom   12 type  2   force =     0.00000000    0.00000000    0.04493641
     atom   13 type  1   force =     0.00000000    0.00000348    0.05667870
     atom   14 type  1   force =     0.00000143    0.00000083    0.05667196
     atom   15 type  2   force =    -0.00000000    0.00000040    0.04494088
     atom   16 type  2   force =    -0.00000072   -0.00000041    0.04493663
     The ionic contribution  to forces
     atom    1 type  1   force =     0.00000000    0.00000002    0.54943326
     atom    2 type  1   force =     0.00000002    0.00000001    0.54943326
     atom    3 type  2   force =     0.00000000    0.00000002   -0.54943326
     atom    4 type  2   force =     0.00000001    0.00000000   -0.54943326
     atom    5 type  1   force =     0.00000001   -0.00000000    0.54943325
     atom    6 type  1   force =     0.00000001   -0.00000001    0.54943326
     atom    7 type  2   force =     0.00000001    0.00000000   -0.54943325
     atom    8 type  2   force =     0.00000000   -0.00000001   -0.54943326
     atom    9 type  1   force =     0.00000000    0.00000000    0.54943326
     atom   10 type  1   force =    -0.00000002    0.00000001    0.54943326
     atom   11 type  2   force =     0.00000000    0.00000000   -0.54943326
     atom   12 type  2   force =    -0.00000001    0.00000000   -0.54943326
     atom   13 type  1   force =    -0.00000002   -0.00000000    0.54943325
     atom   14 type  1   force =     0.00000001   -0.00000003    0.54943325
     atom   15 type  2   force =    -0.00000001    0.00000000   -0.54943325
     atom   16 type  2   force =     0.00000000   -0.00000002   -0.54943325
     The local contribution  to forces
     atom    1 type  1   force =     0.00000858    0.00000504   -0.58287040
     atom    2 type  1   force =     0.00000008    0.00000450   -0.58285628
     atom    3 type  2   force =     0.00000094    0.00000057    0.48629781
     atom    4 type  2   force =     0.00000002    0.00000201    0.48629395
     atom    5 type  1   force =    -0.00000000    0.00000009   -0.58286512
     atom    6 type  1   force =     0.00000386   -0.00000232   -0.58285628
     atom    7 type  2   force =    -0.00000000    0.00000002    0.48629654
     atom    8 type  2   force =     0.00000173   -0.00000102    0.48629395
     atom    9 type  1   force =    -0.00000858    0.00000504   -0.58287040
     atom   10 type  1   force =    -0.00000008    0.00000004   -0.58284831
     atom   11 type  2   force =    -0.00000094    0.00000057    0.48629781
     atom   12 type  2   force =    -0.00000002    0.00000001    0.48629293
     atom   13 type  1   force =    -0.00000015   -0.00000982   -0.58287040
     atom   14 type  1   force =    -0.00000386   -0.00000232   -0.58285628
     atom   15 type  2   force =    -0.00000004   -0.00000106    0.48629781
     atom   16 type  2   force =    -0.00000173   -0.00000102    0.48629395
     The core correction contribution to forces
     atom    1 type  1   force =    -0.00000012   -0.00000006   -0.00475073
     atom    2 type  1   force =     0.00000001    0.00000005   -0.00475089
     atom    3 type  2   force =     0.00000001    0.00000000   -0.00029191
     atom    4 type  2   force =    -0.00000000   -0.00000001   -0.00029186
     atom    5 type  1   force =    -0.00000000    0.00000001   -0.00475084
     atom    6 type  1   force =     0.00000004   -0.00000003   -0.00475089
     atom    7 type  2   force =    -0.00000000   -0.00000000   -0.00029190
     atom    8 type  2   force =    -0.00000001    0.00000000   -0.00029186
     atom    9 type  1   force =     0.00000012   -0.00000006   -0.00475073
     atom   10 type  1   force =    -0.00000001    0.00000001   -0.00475112
     atom   11 type  2   force =    -0.00000001    0.00000000   -0.00029191
     atom   12 type  2   force =     0.00000000   -0.00000000   -0.00029186
     atom   13 type  1   force =    -0.00000002    0.00000015   -0.00475073
     atom   14 type  1   force =    -0.00000004   -0.00000003   -0.00475089
     atom   15 type  2   force =     0.00000000   -0.00000001   -0.00029191
     atom   16 type  2   force =     0.00000001    0.00000000   -0.00029186
     The Hubbard contrib.    to forces
     atom    1 type  1   force =     0.00000000    0.00000000    0.00000000
     atom    2 type  1   force =     0.00000000    0.00000000    0.00000000
     atom    3 type  2   force =     0.00000000    0.00000000    0.00000000
     atom    4 type  2   force =     0.00000000    0.00000000    0.00000000
     atom    5 type  1   force =     0.00000000    0.00000000    0.00000000
     atom    6 type  1   force =     0.00000000    0.00000000    0.00000000
     atom    7 type  2   force =     0.00000000    0.00000000    0.00000000
     atom    8 type  2   force =     0.00000000    0.00000000    0.00000000
     atom    9 type  1   force =     0.00000000    0.00000000    0.00000000
     atom   10 type  1   force =     0.00000000    0.00000000    0.00000000
     atom   11 type  2   force =     0.00000000    0.00000000    0.00000000
     atom   12 type  2   force =     0.00000000    0.00000000    0.00000000
     atom   13 type  1   force =     0.00000000    0.00000000    0.00000000
     atom   14 type  1   force =     0.00000000    0.00000000    0.00000000
     atom   15 type  2   force =     0.00000000    0.00000000    0.00000000
     atom   16 type  2   force =     0.00000000    0.00000000    0.00000000
     The SCF correction term to forces
     atom    1 type  1   force =    -0.00000786   -0.00000454   -0.00000246
     atom    2 type  1   force =    -0.00000000   -0.00000523   -0.00001226
     atom    3 type  2   force =    -0.00000154   -0.00000089   -0.00000062
     atom    4 type  2   force =    -0.00000000   -0.00000347    0.00000194
     atom    5 type  1   force =    -0.00000000   -0.00000000   -0.00000845
     atom    6 type  1   force =    -0.00000453    0.00000262   -0.00001226
     atom    7 type  2   force =    -0.00000000    0.00000000    0.00000123
     atom    8 type  2   force =    -0.00000301    0.00000174    0.00000194
     atom    9 type  1   force =     0.00000786   -0.00000454   -0.00000246
     atom   10 type  1   force =     0.00000000   -0.00000000   -0.00001728
     atom   11 type  2   force =     0.00000154   -0.00000089   -0.00000062
     atom   12 type  2   force =     0.00000000   -0.00000000    0.00000211
     atom   13 type  1   force =     0.00000000    0.00000908   -0.00000246
     atom   14 type  1   force =     0.00000453    0.00000262   -0.00001226
     atom   15 type  2   force =     0.00000000    0.00000178   -0.00000062
     atom   16 type  2   force =     0.00000301    0.00000174    0.00000194

     Total force =     0.073954     Total SCF correction =     0.000035

     General routines

     Parallel routines

   This run was terminated on:  16: 5:47  23Aug2025

   JOB DONE.
Note: The following floating-point exceptions are signalling: IEEE_INVALID_FLAG
Note: The following floating-point exceptions are signalling: IEEE_INVALID_FLAG
Note: The following floating-point exceptions are signalling: IEEE_INVALID_FLAG
Note: The following floating-point exceptions are signalling: IEEE_INVALID_FLAG
Note: The following floating-point exceptions are signalling: IEEE_INVALID_FLAG
Note: The following floating-point exceptions are signalling: IEEE_INVALID_FLAG
Note: The following floating-point exceptions are signalling: IEEE_INVALID_FLAG
Note: The following floating-point exceptions are signalling: IEEE_INVALID_FLAG
Note: The following floating-point exceptions are signalling: IEEE_INVALID_FLAG
Note: The following floating-point exceptions are signalling: IEEE_INVALID_FLAG
Note: The following floating-point exceptions are signalling: IEEE_INVALID_FLAG
Note: The following floating-point exceptions are signalling: IEEE_INVALID_FLAG
Note: The following floating-point exceptions are signalling: IEEE_INVALID_FLAG
Note: The following floating-point exceptions are signalling: IEEE_INVALID_FLAG
Note: The following floating-point exceptions are signalling: IEEE_INVALID_FLAG
Note: The following floating-point exceptions are signalling: IEEE_INVALID_FLAG
Note: The following floating-point exceptions are signalling: IEEE_INVALID_FLAG
Note: The following floating-point exceptions are signalling: IEEE_INVALID_FLAG
Note: The following floating-point exceptions are signalling: IEEE_INVALID_FLAG
Note: The following floating-point exceptions are signalling: IEEE_INVALID_FLAG
Note: The following floating-point exceptions are signalling: IEEE_INVALID_FLAG
Note: The following floating-point exceptions are signalling: IEEE_INVALID_FLAG
Note: The following floating-point exceptions are signalling: IEEE_INVALID_FLAG
Note: The following floating-point exceptions are signalling: IEEE_INVALID_FLAG
Note: The following floating-point exceptions are signalling: IEEE_INVALID_FLAG
Note: The following floating-point exceptions are signalling: IEEE_INVALID_FLAG
Note: The following floating-point exceptions are signalling: IEEE_INVALID_FLAG
Note: The following floating-point exceptions are signalling: IEEE_INVALID_FLAG
Note: The following floating-point exceptions are signalling: IEEE_INVALID_FLAG
Note: The following floating-point exceptions are signalling: IEEE_INVALID_FLAG
Note: The following floating-point exceptions are signalling: IEEE_INVALID_FLAG
Note: The following floating-point exceptions are signalling: IEEE_INVALID_FLAG