     Program PWSCF v.7.2 starts on 23Aug2025 at 15: 5: 9

     Reading input from /home/jvc/QEspresso7.2/ZnO_database/scripts/cell221.in/ZnO-2.94-1.58-221.in
Warning: card &CELL ignored
Warning: card / ignored
Warning: card &FCP ignored
Warning: card / ignored
Warning: card &RISM ignored
Warning: card / ignored

     Current dimensions of program PWSCF are:
     Max number of different atomic species (ntypx) = 10
     Max number of k-points (npk) =  40000
     Max angular momentum in pseudopotentials (lmaxx) =  4
     file Zn.upf: wavefunction(s)  3D renormalized
     Found identity + ( -0.0000 -0.5000  0.0000) symmetry
     This is a supercell, fractional translations are disabled
     Message from routine setup:
     using ibrav=0 with symmetry is DISCOURAGED, use correct ibrav instead

     K-points division:     npool     =       8
     band groups division:  nbgrp     =       4
     Subspace diagonalization in iterative solution of the eigenvalue problem:
     a serial algorithm will be used

     Using Slab Decomposition

     bravais-lattice index     =            0
     lattice parameter (alat)  =      11.1219  a.u.
     unit-cell volume          =     942.4709 (a.u.)^3
     number of atoms/cell      =           16
     number of atomic types    =            2
     number of electrons       =       144.00
     number of Kohn-Sham states=           72
     kinetic-energy cutoff     =      50.0000  Ry
     charge density cutoff     =     400.0000  Ry
     scf convergence threshold =      1.0E-08
     mixing beta               =       0.3000
     number of iterations used =            8  plain     mixing
     Exchange-correlation= PBE
                           (   1   4   3   4   0   0   0)

     celldm(1)=  11.121937  celldm(2)=   0.000000  celldm(3)=   0.000000
     celldm(4)=   0.000000  celldm(5)=   0.000000  celldm(6)=   0.000000

     crystal axes: (cart. coord. in units of alat)
               a(1) = (   1.000000   0.000000   0.000000 )
               a(2) = (  -0.500000   0.866025   0.000000 )
               a(3) = (   0.000000   0.000000   0.791036 )

     reciprocal axes: (cart. coord. in units 2 pi/alat)
               b(1) = (  1.000000  0.577350 -0.000000 )
               b(2) = (  0.000000  1.154701  0.000000 )
               b(3) = (  0.000000 -0.000000  1.264166 )

     PseudoPot. # 1 for Zn read from file:
     /home/jvc/QEspresso7.2/ZnO_database/pseudos/Zn.upf
     MD5 check sum: 7f56cabf9682ed8c977c2f7d0c5985c5
     Pseudo is Ultrasoft + core correction, Zval = 12.0
     Generated using &quot;atomic&quot; code by A. Dal Corso  v.6.2.2
     Using radial grid of 1201 points,  6 beta functions with:
                l(1) =   0
                l(2) =   0
                l(3) =   1
                l(4) =   1
                l(5) =   2
                l(6) =   2
     Q(r) pseudized with 0 coefficients

     PseudoPot. # 2 for O  read from file:
     /home/jvc/QEspresso7.2/ZnO_database/pseudos/O.upf
     MD5 check sum: 91400c9766925bcf19f520983a725ff0
     Pseudo is Ultrasoft + core correction, Zval =  6.0
     Generated using &quot;atomic&quot; code by A. Dal Corso  v.6.3MaX
     Using radial grid of 1095 points,  4 beta functions with:
                l(1) =   0
                l(2) =   0
                l(3) =   1
                l(4) =   1
     Q(r) pseudized with 0 coefficients

     atomic species   valence    mass     pseudopotential
        Zn            12.00    65.38000     Zn( 1.00)
        O              6.00    15.99900     O ( 1.00)

      6 Sym. Ops. (no inversion) found

                                    s                        frac. trans.

      isym =  1     identity

 cryst.   s( 1) = (     1          0          0      )
                  (     0          1          0      )
                  (     0          0          1      )

 cart.    s( 1) = (  1.0000000  0.0000000  0.0000000 )
                  (  0.0000000  1.0000000  0.0000000 )
                  (  0.0000000  0.0000000  1.0000000 )

      isym =  2     120 deg rotation - cryst. axis [0,0,1]

[...]

      isym =  3     120 deg rotation - cryst. axis [0,0,-1]

[...]

      isym =  4     inv. 180 deg rotation - cart. axis [1,0,0]

[...]

      isym =  5     inv. 180 deg rotation - cryst. axis [0,1,0]

[...]

      isym =  6     inv. 180 deg rotation - cryst. axis [1,1,0]

 cryst.   s( 6) = (     0         -1          0      )
                  (    -1          0          0      )
                  (     0          0          1      )

 cart.    s( 6) = (  0.5000000 -0.8660254  0.0000000 )
                  ( -0.8660254 -0.5000000  0.0000000 )
                  (  0.0000000  0.0000000  1.0000000 )

   Cartesian axes

     site n.     atom                  positions (alat units)
         1           Zn  tau(   1) = (   0.2500000   0.1443376   0.3960190  )
         2           Zn  tau(   2) = (  -0.0000000   0.2886751   0.0005012  )
         3           O   tau(   3) = (   0.2500000   0.1443376   0.6958554  )
         4           O   tau(   4) = (  -0.0000000   0.2886751   0.3003376  )
         5           Zn  tau(   5) = (   0.0000000   0.5773503   0.3960190  )
         6           Zn  tau(   6) = (  -0.2500000   0.7216878   0.0005012  )
         7           O   tau(   7) = (   0.0000000   0.5773503   0.6958554  )
         8           O   tau(   8) = (  -0.2500000   0.7216878   0.3003376  )
         9           Zn  tau(   9) = (   0.7500000   0.1443376   0.3960190  )
        10           Zn  tau(  10) = (   0.5000000   0.2886751   0.0005012  )
        11           O   tau(  11) = (   0.7500000   0.1443376   0.6958554  )
        12           O   tau(  12) = (   0.5000000   0.2886751   0.3003376  )
        13           Zn  tau(  13) = (   0.5000000   0.5773503   0.3960190  )
        14           Zn  tau(  14) = (   0.2500000   0.7216878   0.0005012  )
        15           O   tau(  15) = (   0.5000000   0.5773503   0.6958554  )
        16           O   tau(  16) = (   0.2500000   0.7216878   0.3003376  )

   Crystallographic axes

     site n.     atom                  positions (cryst. coord.)
         1           Zn  tau(   1) = (  0.3333333  0.1666667  0.5006336  )
         2           Zn  tau(   2) = (  0.1666667  0.3333333  0.0006336  )
         3           O   tau(   3) = (  0.3333333  0.1666667  0.8796764  )
         4           O   tau(   4) = (  0.1666667  0.3333333  0.3796764  )
         5           Zn  tau(   5) = (  0.3333333  0.6666667  0.5006336  )
         6           Zn  tau(   6) = (  0.1666667  0.8333333  0.0006336  )
         7           O   tau(   7) = (  0.3333333  0.6666667  0.8796764  )
         8           O   tau(   8) = (  0.1666667  0.8333333  0.3796764  )
         9           Zn  tau(   9) = (  0.8333333  0.1666667  0.5006336  )
        10           Zn  tau(  10) = (  0.6666667  0.3333333  0.0006336  )
        11           O   tau(  11) = (  0.8333333  0.1666667  0.8796764  )
        12           O   tau(  12) = (  0.6666667  0.3333333  0.3796764  )
        13           Zn  tau(  13) = (  0.8333333  0.6666667  0.5006336  )
        14           Zn  tau(  14) = (  0.6666667  0.8333333  0.0006336  )
        15           O   tau(  15) = (  0.8333333  0.6666667  0.8796764  )
        16           O   tau(  16) = (  0.6666667  0.8333333  0.3796764  )

     number of k points=    34
                       cart. coord. in units 2pi/alat
        k(    1) = (   0.0000000   0.0000000   0.0000000), wk =   0.0092593
        k(    2) = (   0.0000000   0.0000000   0.2106943), wk =   0.0185185
        k(    3) = (   0.0000000   0.0000000   0.4213885), wk =   0.0185185
        k(    4) = (   0.0000000   0.0000000  -0.6320828), wk =   0.0092593
        k(    5) = (   0.0000000   0.1924501   0.0000000), wk =   0.0555556
        k(    6) = (   0.0000000   0.1924501   0.2106943), wk =   0.0555556
        k(    7) = (   0.0000000   0.1924501   0.4213885), wk =   0.0555556
        k(    8) = (   0.0000000   0.1924501  -0.6320828), wk =   0.0555556
        k(    9) = (   0.0000000   0.3849002   0.0000000), wk =   0.0555556
        k(   10) = (   0.0000000   0.3849002   0.2106943), wk =   0.0555556
        k(   11) = (   0.0000000   0.3849002   0.4213885), wk =   0.0555556
        k(   12) = (   0.0000000   0.3849002  -0.6320828), wk =   0.0555556
        k(   13) = (   0.0000000  -0.5773503   0.0000000), wk =   0.0277778
        k(   14) = (   0.0000000  -0.5773503   0.2106943), wk =   0.0555556
        k(   15) = (   0.0000000  -0.5773503   0.4213885), wk =   0.0555556
        k(   16) = (   0.0000000  -0.5773503  -0.6320828), wk =   0.0277778
        k(   17) = (   0.1666667   0.2886751   0.0000000), wk =   0.0555556
        k(   18) = (   0.1666667   0.2886751   0.2106943), wk =   0.1111111
        k(   19) = (   0.1666667   0.2886751   0.4213885), wk =   0.1111111
        k(   20) = (   0.1666667   0.2886751  -0.6320828), wk =   0.0555556
        k(   21) = (   0.1666667   0.4811252   0.0000000), wk =   0.1111111
        k(   22) = (   0.1666667   0.4811252   0.2106943), wk =   0.1111111
        k(   23) = (   0.1666667   0.4811252   0.4213885), wk =   0.1111111
        k(   24) = (   0.1666667   0.4811252  -0.6320828), wk =   0.1111111
        k(   25) = (   0.3333333   0.5773503   0.0000000), wk =   0.0185185
        k(   26) = (   0.3333333   0.5773503   0.2106943), wk =   0.0370370
        k(   27) = (   0.3333333   0.5773503   0.4213885), wk =   0.0370370
        k(   28) = (   0.3333333   0.5773503  -0.6320828), wk =   0.0185185
        k(   29) = (   0.0000000  -0.1924501   0.2106943), wk =   0.0555556
        k(   30) = (   0.0000000  -0.1924501   0.4213885), wk =   0.0555556
        k(   31) = (   0.0000000  -0.3849002   0.2106943), wk =   0.0555556
        k(   32) = (   0.0000000  -0.3849002   0.4213885), wk =   0.0555556
        k(   33) = (  -0.1666667  -0.4811252   0.2106943), wk =   0.1111111
        k(   34) = (  -0.1666667  -0.4811252   0.4213885), wk =   0.1111111

                       cryst. coord.
        k(    1) = (   0.0000000   0.0000000   0.0000000), wk =   0.0092593
        k(    2) = (   0.0000000   0.0000000   0.1666667), wk =   0.0185185
        k(    3) = (   0.0000000   0.0000000   0.3333333), wk =   0.0185185
        k(    4) = (   0.0000000   0.0000000  -0.5000000), wk =   0.0092593
        k(    5) = (   0.0000000   0.1666667   0.0000000), wk =   0.0555556
        k(    6) = (   0.0000000   0.1666667   0.1666667), wk =   0.0555556
        k(    7) = (   0.0000000   0.1666667   0.3333333), wk =   0.0555556
        k(    8) = (   0.0000000   0.1666667  -0.5000000), wk =   0.0555556
        k(    9) = (   0.0000000   0.3333333   0.0000000), wk =   0.0555556
        k(   10) = (   0.0000000   0.3333333   0.1666667), wk =   0.0555556
        k(   11) = (   0.0000000   0.3333333   0.3333333), wk =   0.0555556
        k(   12) = (   0.0000000   0.3333333  -0.5000000), wk =   0.0555556
        k(   13) = (   0.0000000  -0.5000000   0.0000000), wk =   0.0277778
        k(   14) = (   0.0000000  -0.5000000   0.1666667), wk =   0.0555556
        k(   15) = (   0.0000000  -0.5000000   0.3333333), wk =   0.0555556
[...]
        k(   23) = (   0.1666667   0.3333333   0.3333333), wk =   0.1111111
        k(   24) = (   0.1666667   0.3333333  -0.5000000), wk =   0.1111111
        k(   25) = (   0.3333333   0.3333333   0.0000000), wk =   0.0185185
        k(   26) = (   0.3333333   0.3333333   0.1666667), wk =   0.0370370
        k(   27) = (   0.3333333   0.3333333   0.3333333), wk =   0.0370370
        k(   28) = (   0.3333333   0.3333333  -0.5000000), wk =   0.0185185
        k(   29) = (   0.0000000  -0.1666667   0.1666667), wk =   0.0555556
        k(   30) = (   0.0000000  -0.1666667   0.3333333), wk =   0.0555556
        k(   31) = (   0.0000000  -0.3333333   0.1666667), wk =   0.0555556
        k(   32) = (   0.0000000  -0.3333333   0.3333333), wk =   0.0555556
        k(   33) = (  -0.1666667  -0.3333333   0.1666667), wk =   0.1111111
        k(   34) = (  -0.1666667  -0.3333333   0.3333333), wk =   0.1111111

     Check: negative core charge=   -0.000001

     Initial potential from superposition of free atoms

     starting charge     143.9702, renormalised to     144.0000
     Starting wfcs are  104 randomized atomic wfcs

     Self-consistent Calculation

     iteration #  1     ecut=    50.00 Ry     beta= 0.30
     Davidson diagonalization with overlap

     ethr =  1.00E-02,  avg # of iterations =  2.4

     total energy              =   -1445.10459690 Ry
     estimated scf accuracy    <       2.75689368 Ry

[...]

     total energy              =   -1445.60671124 Ry
     estimated scf accuracy    <       0.00000009 Ry

     iteration # 22     ecut=    50.00 Ry     beta= 0.30
     Davidson diagonalization with overlap

     ethr =  6.20E-11,  avg # of iterations =  6.2

     End of self-consistent calculation

          k = 0.0000 0.0000 0.0000 (  5623 PWs)   bands (ev):

    -8.3423  -7.1107  -7.1107  -7.1107  -6.9814  -6.6943  -6.6943  -6.6943
     4.3371   4.3748   4.3748   4.3748   4.3853   4.3853   4.3853   5.0190
     5.0190   5.1070   5.3399   5.3399   5.4082   5.4082   5.4082   5.5718
     5.5718   5.5719   6.0482   6.0482   6.0482   6.2807   6.2807   6.2807
     7.3025   7.3025   7.3361   7.3361   7.3361   7.6518   7.6518   7.6518
     7.7431   7.7431   7.8423   7.8423   7.8423   7.9203   7.9203   7.9203
     8.0856   8.0856   8.0856   8.1952   8.6113   8.6113   8.6113   9.0790
     9.0790   9.0790   9.3710   9.3710   9.3710  11.0834  11.0834  11.0834
    11.5785  11.5785  11.5797  11.5797  11.5797  12.6907  12.8580  12.8580

     occupation numbers
     1.0000   1.0000   1.0000   1.0000   1.0000   1.0000   1.0000   1.0000
     1.0000   1.0000   1.0000   1.0000   1.0000   1.0000   1.0000   1.0000
     1.0000   1.0000   1.0000   1.0000   1.0000   1.0000   1.0000   1.0000
     1.0000   1.0000   1.0000   1.0000   1.0000   1.0000   1.0000   1.0000
     1.0000   1.0000   1.0000   1.0000   1.0000   1.0000   1.0000   1.0000
     1.0000   1.0000   1.0000   1.0000   1.0000   1.0000   1.0000   1.0000
     1.0000   1.0000   1.0000   1.0000   1.0000   1.0000   1.0000   1.0000
     1.0000   1.0000   1.0000   1.0000   1.0000   1.0000   1.0000   1.0000
     1.0000   1.0000   1.0000   1.0000   1.0000   1.0000   1.0000   1.0000

[...]

          k = 0.0000-0.3849 0.4214 (  5635 PWs)   bands (ev):

[...]

          k =-0.1667-0.4811 0.2107 (  5622 PWs)   bands (ev):

[...]

          k =-0.1667-0.4811 0.4214 (  5623 PWs)   bands (ev):

    -7.6463  -7.3927  -7.1935  -7.0952  -6.9466  -6.8686  -6.8459  -6.7535
     4.1552   4.2026   4.2622   4.2673   4.2845   4.3633   4.4854   4.5224
     5.0872   5.2162   5.2559   5.2713   5.2968   5.3060   5.3521   5.3758
     5.3804   5.5156   5.5537   5.7081   5.7249   5.8667   6.0698   6.1011
     7.3096   7.3561   7.3606   7.3720   7.4496   7.4604   7.5067   7.5888
     7.6846   7.7039   7.7426   7.7533   7.7887   7.8704   7.9354   8.1046
     8.3487   8.6061   8.8467   8.9433   9.2300   9.4395   9.4559   9.7109
     9.8904   9.9175  10.0356  10.2308  10.3926  10.5860  10.5937  10.7142
    11.0216  11.0694  11.1353  11.4989  11.5233  11.6478  11.8181  11.9294

     occupation numbers
     1.0000   1.0000   1.0000   1.0000   1.0000   1.0000   1.0000   1.0000
     1.0000   1.0000   1.0000   1.0000   1.0000   1.0000   1.0000   1.0000
     1.0000   1.0000   1.0000   1.0000   1.0000   1.0000   1.0000   1.0000
     1.0000   1.0000   1.0000   1.0000   1.0000   1.0000   1.0000   1.0000
     1.0000   1.0000   1.0000   1.0000   1.0000   1.0000   1.0000   1.0000
     1.0000   1.0000   1.0000   1.0000   1.0000   1.0000   1.0000   1.0000
     1.0000   1.0000   1.0000   1.0000   1.0000   1.0000   1.0000   1.0000
     1.0000   1.0000   1.0000   1.0000   1.0000   1.0000   1.0000   1.0000
     1.0000   1.0000   1.0000   1.0000   1.0000   1.0000   1.0000   1.0000

     highest occupied level (ev):    12.8580

!    total energy              =   -1445.60671129 Ry
     estimated scf accuracy    <          8.7E-09 Ry

     The total energy is the sum of the following terms:
     one-electron contribution =    -456.86140832 Ry
     hartree contribution      =     418.41441648 Ry
     xc contribution           =    -441.56594040 Ry
     ewald contribution        =    -965.59377905 Ry

     convergence has been achieved in  22 iterations

     Forces acting on atoms (cartesian axes, Ry/au):

     atom    1 type  1   force =    -0.00000020   -0.00000012   -0.02581777
     atom    2 type  1   force =     0.00000000    0.00000420   -0.02581048
     atom    3 type  2   force =    -0.00000071   -0.00000041    0.02581345
     atom    4 type  2   force =     0.00000000   -0.00000007    0.02581288
     atom    5 type  1   force =     0.00000000    0.00000000   -0.02581205
     atom    6 type  1   force =     0.00000364   -0.00000210   -0.02581048
     atom    7 type  2   force =     0.00000000    0.00000000    0.02581405
     atom    8 type  2   force =    -0.00000006    0.00000004    0.02581288
     atom    9 type  1   force =     0.00000020   -0.00000012   -0.02581777
     atom   10 type  1   force =     0.00000000    0.00000000   -0.02580803
     atom   11 type  2   force =     0.00000071   -0.00000041    0.02581345
     atom   12 type  2   force =     0.00000000    0.00000000    0.02581180
     atom   13 type  1   force =     0.00000000    0.00000023   -0.02581777
     atom   14 type  1   force =    -0.00000364   -0.00000210   -0.02581048
     atom   15 type  2   force =     0.00000000    0.00000082    0.02581345
     atom   16 type  2   force =     0.00000006    0.00000004    0.02581288
     The non-local contrib.  to forces
     atom    1 type  1   force =     0.00000011    0.00000006   -0.07579277
     atom    2 type  1   force =    -0.00000000    0.00000086   -0.07578970
     atom    3 type  2   force =    -0.00000013   -0.00000008   -0.04151651
     atom    4 type  2   force =     0.00000000   -0.00000007   -0.04151527
     atom    5 type  1   force =     0.00000000    0.00000000   -0.07579145
     atom    6 type  1   force =     0.00000075   -0.00000043   -0.07578970
     atom    7 type  2   force =     0.00000000   -0.00000000   -0.04151622
     atom    8 type  2   force =    -0.00000006    0.00000004   -0.04151527
     atom    9 type  1   force =    -0.00000011    0.00000006   -0.07579277
     atom   10 type  1   force =     0.00000000    0.00000000   -0.07578955
     atom   11 type  2   force =     0.00000013   -0.00000008   -0.04151651
     atom   12 type  2   force =     0.00000000   -0.00000000   -0.04151713
     atom   13 type  1   force =     0.00000000   -0.00000013   -0.07579277
     atom   14 type  1   force =    -0.00000075   -0.00000043   -0.07578970
     atom   15 type  2   force =     0.00000000    0.00000015   -0.04151651
     atom   16 type  2   force =     0.00000006    0.00000004   -0.04151527
     The ionic contribution  to forces
     atom    1 type  1   force =    -0.00000001    0.00000001   -0.44226023
     atom    2 type  1   force =     0.00000001    0.00000001   -0.44226023
     atom    3 type  2   force =    -0.00000001    0.00000001    0.44226023
     atom    4 type  2   force =     0.00000000    0.00000000    0.44226023
     atom    5 type  1   force =     0.00000000   -0.00000000   -0.44226024
     atom    6 type  1   force =    -0.00000000   -0.00000002   -0.44226023
     atom    7 type  2   force =     0.00000000    0.00000000    0.44226024
     atom    8 type  2   force =    -0.00000000   -0.00000001    0.44226023
     atom    9 type  1   force =    -0.00000001    0.00000001   -0.44226023
     atom   10 type  1   force =     0.00000001    0.00000001   -0.44226023
     atom   11 type  2   force =    -0.00000001    0.00000001    0.44226023
     atom   12 type  2   force =     0.00000000    0.00000000    0.44226023
     atom   13 type  1   force =     0.00000000   -0.00000000   -0.44226024
     atom   14 type  1   force =    -0.00000000   -0.00000002   -0.44226023
     atom   15 type  2   force =     0.00000000    0.00000000    0.44226024
     atom   16 type  2   force =    -0.00000000   -0.00000001    0.44226023
     The local contribution  to forces
     atom    1 type  1   force =     0.00000000    0.00000009    0.48424869
     atom    2 type  1   force =     0.00000007   -0.00000511    0.48423794
     atom    3 type  2   force =     0.00000146    0.00000086   -0.37514093
     atom    4 type  2   force =     0.00000002   -0.00000017   -0.37514131
     atom    5 type  1   force =     0.00000000    0.00000009    0.48424251
     atom    6 type  1   force =    -0.00000446    0.00000249    0.48423794
     atom    7 type  2   force =     0.00000000    0.00000002   -0.37514101
     atom    8 type  2   force =    -0.00000016    0.00000007   -0.37514131
     atom    9 type  1   force =    -0.00000000    0.00000009    0.48424869
     atom   10 type  1   force =     0.00000007    0.00000004    0.48423570
     atom   11 type  2   force =    -0.00000146    0.00000086   -0.37514093
     atom   12 type  2   force =     0.00000002    0.00000001   -0.37514014
     atom   13 type  1   force =     0.00000000    0.00000009    0.48424869
     atom   14 type  1   force =     0.00000446    0.00000249    0.48423794
     atom   15 type  2   force =     0.00000000   -0.00000166   -0.37514093
     atom   16 type  2   force =     0.00000016    0.00000007   -0.37514131
     The core correction contribution to forces
     atom    1 type  1   force =    -0.00000002    0.00000000    0.00799564
     atom    2 type  1   force =     0.00000001    0.00000009    0.00799576
     atom    3 type  2   force =     0.00000001    0.00000000    0.00020867
     atom    4 type  2   force =    -0.00000000   -0.00000000    0.00020865
     atom    5 type  1   force =    -0.00000000    0.00000001    0.00799572
     atom    6 type  1   force =     0.00000007   -0.00000005    0.00799576
     atom    7 type  2   force =     0.00000000   -0.00000000    0.00020867
     atom    8 type  2   force =    -0.00000000    0.00000000    0.00020865
     atom    9 type  1   force =     0.00000002    0.00000000    0.00799564
     atom   10 type  1   force =     0.00000001    0.00000001    0.00799578
     atom   11 type  2   force =    -0.00000001    0.00000000    0.00020867
     atom   12 type  2   force =    -0.00000000   -0.00000000    0.00020867
     atom   13 type  1   force =    -0.00000000    0.00000003    0.00799564
     atom   14 type  1   force =    -0.00000007   -0.00000005    0.00799576
     atom   15 type  2   force =     0.00000000   -0.00000001    0.00020867
     atom   16 type  2   force =     0.00000000    0.00000000    0.00020865
     The Hubbard contrib.    to forces
     atom    1 type  1   force =     0.00000000    0.00000000    0.00000000
     atom    2 type  1   force =     0.00000000    0.00000000    0.00000000
     atom    3 type  2   force =     0.00000000    0.00000000    0.00000000
     atom    4 type  2   force =     0.00000000    0.00000000    0.00000000
     atom    5 type  1   force =     0.00000000    0.00000000    0.00000000
     atom    6 type  1   force =     0.00000000    0.00000000    0.00000000
     atom    7 type  2   force =     0.00000000    0.00000000    0.00000000
     atom    8 type  2   force =     0.00000000    0.00000000    0.00000000
     atom    9 type  1   force =     0.00000000    0.00000000    0.00000000
     atom   10 type  1   force =     0.00000000    0.00000000    0.00000000
     atom   11 type  2   force =     0.00000000    0.00000000    0.00000000
     atom   12 type  2   force =     0.00000000    0.00000000    0.00000000
     atom   13 type  1   force =     0.00000000    0.00000000    0.00000000
     atom   14 type  1   force =     0.00000000    0.00000000    0.00000000
     atom   15 type  2   force =     0.00000000    0.00000000    0.00000000
     atom   16 type  2   force =     0.00000000    0.00000000    0.00000000
     The SCF correction term to forces
     atom    1 type  1   force =    -0.00000030   -0.00000017   -0.00000916
     atom    2 type  1   force =     0.00000000    0.00000834    0.00000570
     atom    3 type  2   force =    -0.00000204   -0.00000118    0.00000193
     atom    4 type  2   force =    -0.00000000    0.00000017    0.00000051
     atom    5 type  1   force =     0.00000000    0.00000000    0.00000135
     atom    6 type  1   force =     0.00000723   -0.00000417    0.00000570
     atom    7 type  2   force =     0.00000000   -0.00000000    0.00000232
     atom    8 type  2   force =     0.00000015   -0.00000008    0.00000051
     atom    9 type  1   force =     0.00000030   -0.00000017   -0.00000916
     atom   10 type  1   force =     0.00000000    0.00000000    0.00001021
     atom   11 type  2   force =     0.00000204   -0.00000118    0.00000193
     atom   12 type  2   force =    -0.00000000   -0.00000000    0.00000010
     atom   13 type  1   force =     0.00000000    0.00000034   -0.00000916
     atom   14 type  1   force =    -0.00000723   -0.00000417    0.00000570
     atom   15 type  2   force =     0.00000000    0.00000236    0.00000193
     atom   16 type  2   force =    -0.00000015   -0.00000008    0.00000051

     Total force =     0.103252     Total SCF correction =     0.000026

     General routines

     Parallel routines

   This run was terminated on:  15: 8:44  23Aug2025

   JOB DONE.
Note: The following floating-point exceptions are signalling: IEEE_INVALID_FLAG
Note: The following floating-point exceptions are signalling: IEEE_INVALID_FLAG
Note: The following floating-point exceptions are signalling: IEEE_INVALID_FLAG
Note: The following floating-point exceptions are signalling: IEEE_INVALID_FLAG
Note: The following floating-point exceptions are signalling: IEEE_INVALID_FLAG
Note: The following floating-point exceptions are signalling: IEEE_INVALID_FLAG
Note: The following floating-point exceptions are signalling: IEEE_INVALID_FLAG
Note: The following floating-point exceptions are signalling: IEEE_INVALID_FLAG
Note: The following floating-point exceptions are signalling: IEEE_INVALID_FLAG
Note: The following floating-point exceptions are signalling: IEEE_INVALID_FLAG
Note: The following floating-point exceptions are signalling: IEEE_INVALID_FLAG
Note: The following floating-point exceptions are signalling: IEEE_INVALID_FLAG
Note: The following floating-point exceptions are signalling: IEEE_INVALID_FLAG
Note: The following floating-point exceptions are signalling: IEEE_INVALID_FLAG
Note: The following floating-point exceptions are signalling: IEEE_INVALID_FLAG
Note: The following floating-point exceptions are signalling: IEEE_INVALID_FLAG
Note: The following floating-point exceptions are signalling: IEEE_INVALID_FLAG
Note: The following floating-point exceptions are signalling: IEEE_INVALID_FLAG
Note: The following floating-point exceptions are signalling: IEEE_INVALID_FLAG
Note: The following floating-point exceptions are signalling: IEEE_INVALID_FLAG
Note: The following floating-point exceptions are signalling: IEEE_INVALID_FLAG
Note: The following floating-point exceptions are signalling: IEEE_INVALID_FLAG
Note: The following floating-point exceptions are signalling: IEEE_INVALID_FLAG
Note: The following floating-point exceptions are signalling: IEEE_INVALID_FLAG
Note: The following floating-point exceptions are signalling: IEEE_INVALID_FLAG
Note: The following floating-point exceptions are signalling: IEEE_INVALID_FLAG
Note: The following floating-point exceptions are signalling: IEEE_INVALID_FLAG
Note: The following floating-point exceptions are signalling: IEEE_INVALID_FLAG
Note: The following floating-point exceptions are signalling: IEEE_INVALID_FLAG
Note: The following floating-point exceptions are signalling: IEEE_INVALID_FLAG
Note: The following floating-point exceptions are signalling: IEEE_INVALID_FLAG
Note: The following floating-point exceptions are signalling: IEEE_INVALID_FLAG