     Program PWSCF v.7.2 starts on 23Aug2025 at 18:17: 3

     Reading input from /home/jvc/QEspresso7.2/ZnO_database/scripts/cell221.in/ZnO-3.14-1.78-221.in
Warning: card &CELL ignored
Warning: card / ignored
Warning: card &FCP ignored
Warning: card / ignored
Warning: card &RISM ignored
Warning: card / ignored

     Current dimensions of program PWSCF are:
     Max number of different atomic species (ntypx) = 10
     Max number of k-points (npk) =  40000
     Max angular momentum in pseudopotentials (lmaxx) =  4
     file Zn.upf: wavefunction(s)  3D renormalized
     Found identity + (  0.0000 -0.5000  0.0000) symmetry
     This is a supercell, fractional translations are disabled
     Message from routine setup:
     using ibrav=0 with symmetry is DISCOURAGED, use correct ibrav instead

     K-points division:     npool     =       8
     band groups division:  nbgrp     =       4
     Subspace diagonalization in iterative solution of the eigenvalue problem:
     a serial algorithm will be used

     Using Slab Decomposition

     bravais-lattice index     =            0
     lattice parameter (alat)  =      11.8634  a.u.
     unit-cell volume          =    1283.8691 (a.u.)^3
     number of atoms/cell      =           16
     number of atomic types    =            2
     number of electrons       =       144.00
     number of Kohn-Sham states=           72
     kinetic-energy cutoff     =      50.0000  Ry
     charge density cutoff     =     400.0000  Ry
     scf convergence threshold =      1.0E-08
     mixing beta               =       0.3000
     number of iterations used =            8  plain     mixing
     Exchange-correlation= PBE
                           (   1   4   3   4   0   0   0)

     celldm(1)=  11.863400  celldm(2)=   0.000000  celldm(3)=   0.000000
     celldm(4)=   0.000000  celldm(5)=   0.000000  celldm(6)=   0.000000

     crystal axes: (cart. coord. in units of alat)
               a(1) = (   1.000000   0.000000   0.000000 )
               a(2) = (  -0.500000   0.866025   0.000000 )
               a(3) = (   0.000000   0.000000   0.887897 )

     reciprocal axes: (cart. coord. in units 2 pi/alat)
               b(1) = (  1.000000  0.577350 -0.000000 )
               b(2) = (  0.000000  1.154701  0.000000 )
               b(3) = (  0.000000 -0.000000  1.126257 )

     PseudoPot. # 1 for Zn read from file:
     /home/jvc/QEspresso7.2/ZnO_database/pseudos/Zn.upf
     MD5 check sum: 7f56cabf9682ed8c977c2f7d0c5985c5
     Pseudo is Ultrasoft + core correction, Zval = 12.0
     Generated using &quot;atomic&quot; code by A. Dal Corso  v.6.2.2
     Using radial grid of 1201 points,  6 beta functions with:
                l(1) =   0
                l(2) =   0
                l(3) =   1
                l(4) =   1
                l(5) =   2
                l(6) =   2
     Q(r) pseudized with 0 coefficients

     PseudoPot. # 2 for O  read from file:
     /home/jvc/QEspresso7.2/ZnO_database/pseudos/O.upf
     MD5 check sum: 91400c9766925bcf19f520983a725ff0
     Pseudo is Ultrasoft + core correction, Zval =  6.0
     Generated using &quot;atomic&quot; code by A. Dal Corso  v.6.3MaX
     Using radial grid of 1095 points,  4 beta functions with:
                l(1) =   0
                l(2) =   0
                l(3) =   1
                l(4) =   1
     Q(r) pseudized with 0 coefficients

     atomic species   valence    mass     pseudopotential
        Zn            12.00    65.38000     Zn( 1.00)
        O              6.00    15.99900     O ( 1.00)

      6 Sym. Ops. (no inversion) found

                                    s                        frac. trans.

      isym =  1     identity

 cryst.   s( 1) = (     1          0          0      )
                  (     0          1          0      )
                  (     0          0          1      )

 cart.    s( 1) = (  1.0000000  0.0000000  0.0000000 )
                  (  0.0000000  1.0000000  0.0000000 )
                  (  0.0000000  0.0000000  1.0000000 )

      isym =  2     120 deg rotation - cryst. axis [0,0,1]

[...]

      isym =  3     120 deg rotation - cryst. axis [0,0,-1]

[...]

      isym =  4     inv. 180 deg rotation - cart. axis [1,0,0]

[...]

      isym =  5     inv. 180 deg rotation - cryst. axis [0,1,0]

[...]

      isym =  6     inv. 180 deg rotation - cryst. axis [1,1,0]

 cryst.   s( 6) = (     0         -1          0      )
                  (    -1          0          0      )
                  (     0          0          1      )

 cart.    s( 6) = (  0.5000000 -0.8660254  0.0000000 )
                  ( -0.8660254 -0.5000000  0.0000000 )
                  (  0.0000000  0.0000000  1.0000000 )

   Cartesian axes

     site n.     atom                  positions (alat units)
         1           Zn  tau(   1) = (   0.2500000   0.1443376   0.4445111  )
         2           Zn  tau(   2) = (  -0.0000000   0.2886751   0.0005626  )
         3           O   tau(   3) = (   0.2500000   0.1443376   0.7810621  )
         4           O   tau(   4) = (  -0.0000000   0.2886751   0.3371136  )
         5           Zn  tau(   5) = (  -0.0000000   0.5773503   0.4445111  )
         6           Zn  tau(   6) = (  -0.2500000   0.7216878   0.0005626  )
         7           O   tau(   7) = (  -0.0000000   0.5773503   0.7810621  )
         8           O   tau(   8) = (  -0.2500000   0.7216878   0.3371136  )
         9           Zn  tau(   9) = (   0.7500000   0.1443376   0.4445111  )
        10           Zn  tau(  10) = (   0.5000000   0.2886751   0.0005626  )
        11           O   tau(  11) = (   0.7500000   0.1443376   0.7810621  )
        12           O   tau(  12) = (   0.5000000   0.2886751   0.3371136  )
        13           Zn  tau(  13) = (   0.5000000   0.5773503   0.4445111  )
        14           Zn  tau(  14) = (   0.2500000   0.7216878   0.0005626  )
        15           O   tau(  15) = (   0.5000000   0.5773503   0.7810621  )
        16           O   tau(  16) = (   0.2500000   0.7216878   0.3371136  )

   Crystallographic axes

     site n.     atom                  positions (cryst. coord.)
         1           Zn  tau(   1) = (  0.3333333  0.1666667  0.5006336  )
         2           Zn  tau(   2) = (  0.1666667  0.3333333  0.0006336  )
         3           O   tau(   3) = (  0.3333333  0.1666667  0.8796764  )
         4           O   tau(   4) = (  0.1666667  0.3333333  0.3796764  )
         5           Zn  tau(   5) = (  0.3333333  0.6666667  0.5006336  )
         6           Zn  tau(   6) = (  0.1666667  0.8333333  0.0006336  )
         7           O   tau(   7) = (  0.3333333  0.6666667  0.8796764  )
         8           O   tau(   8) = (  0.1666667  0.8333333  0.3796764  )
         9           Zn  tau(   9) = (  0.8333333  0.1666667  0.5006336  )
        10           Zn  tau(  10) = (  0.6666667  0.3333333  0.0006336  )
        11           O   tau(  11) = (  0.8333333  0.1666667  0.8796764  )
        12           O   tau(  12) = (  0.6666667  0.3333333  0.3796764  )
        13           Zn  tau(  13) = (  0.8333333  0.6666667  0.5006336  )
        14           Zn  tau(  14) = (  0.6666667  0.8333333  0.0006336  )
        15           O   tau(  15) = (  0.8333333  0.6666667  0.8796764  )
        16           O   tau(  16) = (  0.6666667  0.8333333  0.3796764  )

     number of k points=    34
                       cart. coord. in units 2pi/alat
        k(    1) = (   0.0000000   0.0000000   0.0000000), wk =   0.0092593
        k(    2) = (   0.0000000   0.0000000   0.1877094), wk =   0.0185185
        k(    3) = (   0.0000000   0.0000000   0.3754189), wk =   0.0185185
        k(    4) = (   0.0000000   0.0000000  -0.5631283), wk =   0.0092593
        k(    5) = (   0.0000000   0.1924501   0.0000000), wk =   0.0555556
        k(    6) = (   0.0000000   0.1924501   0.1877094), wk =   0.0555556
        k(    7) = (   0.0000000   0.1924501   0.3754189), wk =   0.0555556
        k(    8) = (   0.0000000   0.1924501  -0.5631283), wk =   0.0555556
        k(    9) = (   0.0000000   0.3849002   0.0000000), wk =   0.0555556
        k(   10) = (   0.0000000   0.3849002   0.1877094), wk =   0.0555556
        k(   11) = (   0.0000000   0.3849002   0.3754189), wk =   0.0555556
        k(   12) = (   0.0000000   0.3849002  -0.5631283), wk =   0.0555556
        k(   13) = (   0.0000000  -0.5773503   0.0000000), wk =   0.0277778
        k(   14) = (   0.0000000  -0.5773503   0.1877094), wk =   0.0555556
        k(   15) = (   0.0000000  -0.5773503   0.3754189), wk =   0.0555556
        k(   16) = (   0.0000000  -0.5773503  -0.5631283), wk =   0.0277778
        k(   17) = (   0.1666667   0.2886751   0.0000000), wk =   0.0555556
        k(   18) = (   0.1666667   0.2886751   0.1877094), wk =   0.1111111
        k(   19) = (   0.1666667   0.2886751   0.3754189), wk =   0.1111111
        k(   20) = (   0.1666667   0.2886751  -0.5631283), wk =   0.0555556
        k(   21) = (   0.1666667   0.4811252   0.0000000), wk =   0.1111111
        k(   22) = (   0.1666667   0.4811252   0.1877094), wk =   0.1111111
        k(   23) = (   0.1666667   0.4811252   0.3754189), wk =   0.1111111
        k(   24) = (   0.1666667   0.4811252  -0.5631283), wk =   0.1111111
        k(   25) = (   0.3333333   0.5773503   0.0000000), wk =   0.0185185
        k(   26) = (   0.3333333   0.5773503   0.1877094), wk =   0.0370370
        k(   27) = (   0.3333333   0.5773503   0.3754189), wk =   0.0370370
        k(   28) = (   0.3333333   0.5773503  -0.5631283), wk =   0.0185185
        k(   29) = (   0.0000000  -0.1924501   0.1877094), wk =   0.0555556
        k(   30) = (   0.0000000  -0.1924501   0.3754189), wk =   0.0555556
        k(   31) = (   0.0000000  -0.3849002   0.1877094), wk =   0.0555556
        k(   32) = (   0.0000000  -0.3849002   0.3754189), wk =   0.0555556
        k(   33) = (  -0.1666667  -0.4811252   0.1877094), wk =   0.1111111
        k(   34) = (  -0.1666667  -0.4811252   0.3754189), wk =   0.1111111

                       cryst. coord.
        k(    1) = (   0.0000000   0.0000000   0.0000000), wk =   0.0092593
        k(    2) = (   0.0000000   0.0000000   0.1666667), wk =   0.0185185
        k(    3) = (   0.0000000   0.0000000   0.3333333), wk =   0.0185185
        k(    4) = (   0.0000000   0.0000000  -0.5000000), wk =   0.0092593
        k(    5) = (   0.0000000   0.1666667   0.0000000), wk =   0.0555556
        k(    6) = (   0.0000000   0.1666667   0.1666667), wk =   0.0555556
        k(    7) = (   0.0000000   0.1666667   0.3333333), wk =   0.0555556
        k(    8) = (   0.0000000   0.1666667  -0.5000000), wk =   0.0555556
        k(    9) = (   0.0000000   0.3333333   0.0000000), wk =   0.0555556
        k(   10) = (   0.0000000   0.3333333   0.1666667), wk =   0.0555556
        k(   11) = (   0.0000000   0.3333333   0.3333333), wk =   0.0555556
        k(   12) = (   0.0000000   0.3333333  -0.5000000), wk =   0.0555556
        k(   13) = (   0.0000000  -0.5000000   0.0000000), wk =   0.0277778
        k(   14) = (   0.0000000  -0.5000000   0.1666667), wk =   0.0555556
        k(   15) = (   0.0000000  -0.5000000   0.3333333), wk =   0.0555556
[...]
        k(   24) = (   0.1666667   0.3333333  -0.5000000), wk =   0.1111111
        k(   25) = (   0.3333333   0.3333333   0.0000000), wk =   0.0185185
        k(   26) = (   0.3333333   0.3333333   0.1666667), wk =   0.0370370
        k(   27) = (   0.3333333   0.3333333   0.3333333), wk =   0.0370370
        k(   28) = (   0.3333333   0.3333333  -0.5000000), wk =   0.0185185
        k(   29) = (   0.0000000  -0.1666667   0.1666667), wk =   0.0555556
        k(   30) = (   0.0000000  -0.1666667   0.3333333), wk =   0.0555556
        k(   31) = (   0.0000000  -0.3333333   0.1666667), wk =   0.0555556
        k(   32) = (   0.0000000  -0.3333333   0.3333333), wk =   0.0555556
        k(   33) = (  -0.1666667  -0.3333333   0.1666667), wk =   0.1111111
        k(   34) = (  -0.1666667  -0.3333333   0.3333333), wk =   0.1111111

     Check: negative core charge=   -0.000002

     Initial potential from superposition of free atoms

     starting charge     143.9702, renormalised to     144.0000
     Starting wfcs are  104 randomized atomic wfcs

     Self-consistent Calculation

     iteration #  1     ecut=    50.00 Ry     beta= 0.30
     Davidson diagonalization with overlap

     ethr =  1.00E-02,  avg # of iterations =  2.0

     total energy              =   -1445.85556474 Ry
     estimated scf accuracy    <       2.78152718 Ry

[...]

     total energy              =   -1446.48297061 Ry
     estimated scf accuracy    <       0.00000026 Ry

     iteration # 34     ecut=    50.00 Ry     beta= 0.30
     Davidson diagonalization with overlap

     ethr =  9.63E-11,  avg # of iterations =  5.4

     End of self-consistent calculation

          k = 0.0000 0.0000 0.0000 (  7613 PWs)   bands (ev):

   -10.8465 -10.2750 -10.1056 -10.1056 -10.1056  -9.9353  -9.9353  -9.9353
     1.2739   1.2739   1.2739   1.3722   1.3722   1.3722   1.4200   1.5100
     1.5100   1.5860   1.6542   1.6542   1.8217   1.8217   1.8217   2.2419
     2.2419   2.2419   2.2517   2.2517   2.2517   2.3844   2.3844   2.3844
     2.7940   2.7940   2.8145   2.8145   2.8145   2.9423   2.9423   2.9660
     2.9660   2.9660   3.0131   3.0131   3.0131   3.1028   3.1028   3.1028
     3.3264   3.4124   3.4124   3.4124   3.5942   3.5942   3.5942   4.5449
     4.5449   4.5449   5.3704   5.3704   5.3704   5.9255   5.9255   5.9255
     6.4346   6.4346   6.4346   6.8212   6.8212   7.0123   7.4009   7.4009

     occupation numbers
     1.0000   1.0000   1.0000   1.0000   1.0000   1.0000   1.0000   1.0000
     1.0000   1.0000   1.0000   1.0000   1.0000   1.0000   1.0000   1.0000
     1.0000   1.0000   1.0000   1.0000   1.0000   1.0000   1.0000   1.0000
     1.0000   1.0000   1.0000   1.0000   1.0000   1.0000   1.0000   1.0000
     1.0000   1.0000   1.0000   1.0000   1.0000   1.0000   1.0000   1.0000
     1.0000   1.0000   1.0000   1.0000   1.0000   1.0000   1.0000   1.0000
     1.0000   1.0000   1.0000   1.0000   1.0000   1.0000   1.0000   1.0000
     1.0000   1.0000   1.0000   1.0000   1.0000   1.0000   1.0000   1.0000
     1.0000   1.0000   1.0000   1.0000   1.0000   1.0000   1.0000   1.0000

[...]

          k = 0.0000-0.3849 0.3754 (  7669 PWs)   bands (ev):

[...]

          k =-0.1667-0.4811 0.1877 (  7658 PWs)   bands (ev):

[...]

          k =-0.1667-0.4811 0.3754 (  7658 PWs)   bands (ev):

   -10.4647 -10.3046 -10.2369 -10.1819 -10.1220 -10.0406  -9.9932  -9.9468
     1.1834   1.2458   1.2741   1.3171   1.3324   1.3681   1.4834   1.6156
     1.6773   1.7229   1.7693   1.8077   1.8291   1.8391   1.8488   1.8601
     1.8844   1.9438   1.9802   1.9997   2.0713   2.0949   2.3052   2.3397
     2.7700   2.7810   2.7825   2.7972   2.8364   2.8524   2.8702   2.9120
     2.9139   2.9337   2.9471   2.9773   2.9812   3.0472   3.1078   3.2649
     3.4312   3.7133   3.9934   4.1609   4.2033   4.3940   4.4420   4.6738
     5.0725   5.1212   5.2425   5.2579   5.3949   5.5615   5.6935   5.8947
     5.9671   6.0273   6.1633   6.2254   6.3157   6.4446   6.4801   6.7806

     occupation numbers
     1.0000   1.0000   1.0000   1.0000   1.0000   1.0000   1.0000   1.0000
     1.0000   1.0000   1.0000   1.0000   1.0000   1.0000   1.0000   1.0000
     1.0000   1.0000   1.0000   1.0000   1.0000   1.0000   1.0000   1.0000
     1.0000   1.0000   1.0000   1.0000   1.0000   1.0000   1.0000   1.0000
     1.0000   1.0000   1.0000   1.0000   1.0000   1.0000   1.0000   1.0000
     1.0000   1.0000   1.0000   1.0000   1.0000   1.0000   1.0000   1.0000
     1.0000   1.0000   1.0000   1.0000   1.0000   1.0000   1.0000   1.0000
     1.0000   1.0000   1.0000   1.0000   1.0000   1.0000   1.0000   1.0000
     1.0000   1.0000   1.0000   1.0000   1.0000   1.0000   1.0000   1.0000

     highest occupied level (ev):     7.4009

!    total energy              =   -1446.48297068 Ry
     estimated scf accuracy    <          9.5E-09 Ry

     The total energy is the sum of the following terms:
     one-electron contribution =    -608.25688275 Ry
     hartree contribution      =     469.95407204 Ry
     xc contribution           =    -438.43770401 Ry
     ewald contribution        =    -869.74245595 Ry

     convergence has been achieved in  34 iterations

     Forces acting on atoms (cartesian axes, Ry/au):

     atom    1 type  1   force =    -0.00000065   -0.00000038    0.02476465
     atom    2 type  1   force =     0.00000000   -0.00000130    0.02476545
     atom    3 type  2   force =    -0.00000005   -0.00000003   -0.02476502
     atom    4 type  2   force =     0.00000000   -0.00000011   -0.02476425
     atom    5 type  1   force =     0.00000000    0.00000000    0.02476334
     atom    6 type  1   force =    -0.00000113    0.00000065    0.02476545
     atom    7 type  2   force =     0.00000000    0.00000000   -0.02476570
     atom    8 type  2   force =    -0.00000010    0.00000006   -0.02476425
     atom    9 type  1   force =     0.00000065   -0.00000038    0.02476465
     atom   10 type  1   force =     0.00000000    0.00000000    0.02476410
     atom   11 type  2   force =     0.00000005   -0.00000003   -0.02476502
     atom   12 type  2   force =     0.00000000   -0.00000000   -0.02476421
     atom   13 type  1   force =     0.00000000    0.00000075    0.02476465
     atom   14 type  1   force =     0.00000113    0.00000065    0.02476545
     atom   15 type  2   force =    -0.00000000    0.00000005   -0.02476502
     atom   16 type  2   force =     0.00000010    0.00000006   -0.02476425
     The non-local contrib.  to forces
     atom    1 type  1   force =     0.00000047    0.00000027    0.26050979
     atom    2 type  1   force =     0.00000000   -0.00000044    0.26051163
     atom    3 type  2   force =    -0.00000008   -0.00000005    0.24041288
     atom    4 type  2   force =     0.00000000   -0.00000009    0.24041331
     atom    5 type  1   force =     0.00000000   -0.00000000    0.26050997
     atom    6 type  1   force =    -0.00000038    0.00000022    0.26051163
     atom    7 type  2   force =     0.00000000   -0.00000000    0.24041298
     atom    8 type  2   force =    -0.00000007    0.00000004    0.24041331
     atom    9 type  1   force =    -0.00000047    0.00000027    0.26050979
     atom   10 type  1   force =     0.00000000    0.00000000    0.26051236
     atom   11 type  2   force =     0.00000008   -0.00000005    0.24041288
     atom   12 type  2   force =     0.00000000   -0.00000000    0.24041288
     atom   13 type  1   force =     0.00000000   -0.00000054    0.26050979
     atom   14 type  1   force =     0.00000038    0.00000022    0.26051163
     atom   15 type  2   force =     0.00000000    0.00000009    0.24041288
     atom   16 type  2   force =     0.00000007    0.00000004    0.24041331
     The ionic contribution  to forces
     atom    1 type  1   force =     0.00000001    0.00000001    2.07592785
     atom    2 type  1   force =     0.00000002    0.00000001    2.07592786
     atom    3 type  2   force =     0.00000001    0.00000001   -2.07592785
     atom    4 type  2   force =     0.00000001    0.00000000   -2.07592786
     atom    5 type  1   force =     0.00000001    0.00000001    2.07592785
     atom    6 type  1   force =     0.00000002    0.00000001    2.07592786
     atom    7 type  2   force =     0.00000001    0.00000001   -2.07592785
     atom    8 type  2   force =     0.00000001    0.00000000   -2.07592786
     atom    9 type  1   force =    -0.00000002   -0.00000001    2.07592786
     atom   10 type  1   force =    -0.00000001   -0.00000001    2.07592785
     atom   11 type  2   force =    -0.00000001   -0.00000000   -2.07592786
     atom   12 type  2   force =    -0.00000001   -0.00000001   -2.07592785
     atom   13 type  1   force =    -0.00000002   -0.00000001    2.07592786
     atom   14 type  1   force =    -0.00000001   -0.00000001    2.07592785
     atom   15 type  2   force =    -0.00000001   -0.00000000   -2.07592786
     atom   16 type  2   force =    -0.00000001   -0.00000001   -2.07592785
     The local contribution  to forces
     atom    1 type  1   force =     0.00000054    0.00000041   -2.29265697
     atom    2 type  1   force =     0.00000008    0.00000215   -2.29265987
     atom    3 type  2   force =     0.00000125    0.00000075    1.81267131
     atom    4 type  2   force =     0.00000002    0.00000009    1.81267232
     atom    5 type  1   force =    -0.00000000    0.00000009   -2.29265548
     atom    6 type  1   force =     0.00000190   -0.00000100   -2.29265987
     atom    7 type  2   force =    -0.00000000    0.00000002    1.81266970
     atom    8 type  2   force =     0.00000009   -0.00000003    1.81267232
     atom    9 type  1   force =    -0.00000071    0.00000041   -2.29265697
     atom   10 type  1   force =    -0.00000008    0.00000005   -2.29265927
     atom   11 type  2   force =    -0.00000129    0.00000075    1.81267131
     atom   12 type  2   force =    -0.00000002    0.00000001    1.81267070
     atom   13 type  1   force =    -0.00000016   -0.00000053   -2.29265697
     atom   14 type  1   force =    -0.00000190   -0.00000100   -2.29265987
     atom   15 type  2   force =    -0.00000004   -0.00000142    1.81267131
     atom   16 type  2   force =    -0.00000009   -0.00000003    1.81267232
     The core correction contribution to forces
     atom    1 type  1   force =    -0.00000025   -0.00000013   -0.01900787
     atom    2 type  1   force =     0.00000001   -0.00000028   -0.01900786
     atom    3 type  2   force =     0.00000001    0.00000001   -0.00192023
     atom    4 type  2   force =    -0.00000000    0.00000001   -0.00192023
     atom    5 type  1   force =    -0.00000000    0.00000001   -0.01900793
     atom    6 type  1   force =    -0.00000024    0.00000015   -0.01900786
     atom    7 type  2   force =     0.00000000   -0.00000000   -0.00192025
     atom    8 type  2   force =     0.00000001   -0.00000001   -0.00192023
     atom    9 type  1   force =     0.00000023   -0.00000013   -0.01900787
     atom   10 type  1   force =    -0.00000001    0.00000001   -0.01900794
     atom   11 type  2   force =    -0.00000001    0.00000001   -0.00192023
     atom   12 type  2   force =     0.00000000   -0.00000000   -0.00192025
     atom   13 type  1   force =    -0.00000002    0.00000030   -0.01900787
     atom   14 type  1   force =     0.00000024    0.00000015   -0.01900786
     atom   15 type  2   force =     0.00000000   -0.00000002   -0.00192023
     atom   16 type  2   force =    -0.00000001   -0.00000001   -0.00192023
     The Hubbard contrib.    to forces
     atom    1 type  1   force =     0.00000000    0.00000000    0.00000000
     atom    2 type  1   force =     0.00000000    0.00000000    0.00000000
     atom    3 type  2   force =     0.00000000    0.00000000    0.00000000
     atom    4 type  2   force =     0.00000000    0.00000000    0.00000000
     atom    5 type  1   force =     0.00000000    0.00000000    0.00000000
     atom    6 type  1   force =     0.00000000    0.00000000    0.00000000
     atom    7 type  2   force =     0.00000000    0.00000000    0.00000000
     atom    8 type  2   force =     0.00000000    0.00000000    0.00000000
     atom    9 type  1   force =     0.00000000    0.00000000    0.00000000
     atom   10 type  1   force =     0.00000000    0.00000000    0.00000000
     atom   11 type  2   force =     0.00000000    0.00000000    0.00000000
     atom   12 type  2   force =     0.00000000    0.00000000    0.00000000
     atom   13 type  1   force =     0.00000000    0.00000000    0.00000000
     atom   14 type  1   force =     0.00000000    0.00000000    0.00000000
     atom   15 type  2   force =     0.00000000    0.00000000    0.00000000
     atom   16 type  2   force =     0.00000000    0.00000000    0.00000000
     The SCF correction term to forces
     atom    1 type  1   force =    -0.00000147   -0.00000085   -0.00001177
     atom    2 type  1   force =     0.00000000   -0.00000275   -0.00000993
     atom    3 type  2   force =    -0.00000125   -0.00000072   -0.00000475
     atom    4 type  2   force =     0.00000000   -0.00000014   -0.00000541
     atom    5 type  1   force =     0.00000000    0.00000000   -0.00001468
     atom    6 type  1   force =    -0.00000238    0.00000137   -0.00000993
     atom    7 type  2   force =     0.00000000    0.00000000   -0.00000389
     atom    8 type  2   force =    -0.00000012    0.00000007   -0.00000541
     atom    9 type  1   force =     0.00000147   -0.00000085   -0.00001177
     atom   10 type  1   force =    -0.00000000    0.00000000   -0.00001250
     atom   11 type  2   force =     0.00000125   -0.00000072   -0.00000475
     atom   12 type  2   force =    -0.00000000    0.00000000   -0.00000330
     atom   13 type  1   force =    -0.00000000    0.00000170   -0.00001177
     atom   14 type  1   force =     0.00000238    0.00000137   -0.00000993
     atom   15 type  2   force =    -0.00000000    0.00000144   -0.00000475
     atom   16 type  2   force =     0.00000012    0.00000007   -0.00000541

     Total force =     0.099059     Total SCF correction =     0.000036

     General routines

     Parallel routines

   This run was terminated on:  18:24: 2  23Aug2025

   JOB DONE.
Note: The following floating-point exceptions are signalling: IEEE_INVALID_FLAG
Note: The following floating-point exceptions are signalling: IEEE_INVALID_FLAG
Note: The following floating-point exceptions are signalling: IEEE_INVALID_FLAG
Note: The following floating-point exceptions are signalling: IEEE_INVALID_FLAG
Note: The following floating-point exceptions are signalling: IEEE_INVALID_FLAG
Note: The following floating-point exceptions are signalling: IEEE_INVALID_FLAG
Note: The following floating-point exceptions are signalling: IEEE_INVALID_FLAG
Note: The following floating-point exceptions are signalling: IEEE_INVALID_FLAG
Note: The following floating-point exceptions are signalling: IEEE_INVALID_FLAG
Note: The following floating-point exceptions are signalling: IEEE_INVALID_FLAG
Note: The following floating-point exceptions are signalling: IEEE_INVALID_FLAG IEEE_DENORMAL
Note: The following floating-point exceptions are signalling: IEEE_INVALID_FLAG
Note: The following floating-point exceptions are signalling: IEEE_INVALID_FLAG
Note: The following floating-point exceptions are signalling: IEEE_INVALID_FLAG
Note: The following floating-point exceptions are signalling: IEEE_INVALID_FLAG
Note: The following floating-point exceptions are signalling: IEEE_INVALID_FLAG
Note: The following floating-point exceptions are signalling: IEEE_INVALID_FLAG
Note: The following floating-point exceptions are signalling: IEEE_INVALID_FLAG
Note: The following floating-point exceptions are signalling: IEEE_INVALID_FLAG
Note: The following floating-point exceptions are signalling: IEEE_INVALID_FLAG
Note: The following floating-point exceptions are signalling: IEEE_INVALID_FLAG
Note: The following floating-point exceptions are signalling: IEEE_INVALID_FLAG
Note: The following floating-point exceptions are signalling: IEEE_INVALID_FLAG
Note: The following floating-point exceptions are signalling: IEEE_INVALID_FLAG
Note: The following floating-point exceptions are signalling: IEEE_INVALID_FLAG
Note: The following floating-point exceptions are signalling: IEEE_INVALID_FLAG
Note: The following floating-point exceptions are signalling: IEEE_INVALID_FLAG
Note: The following floating-point exceptions are signalling: IEEE_INVALID_FLAG
Note: The following floating-point exceptions are signalling: IEEE_INVALID_FLAG
Note: The following floating-point exceptions are signalling: IEEE_INVALID_FLAG
Note: The following floating-point exceptions are signalling: IEEE_INVALID_FLAG IEEE_DENORMAL
Note: The following floating-point exceptions are signalling: IEEE_INVALID_FLAG