     Program PWSCF v.7.2 starts on 23Aug2025 at 17:59: 0

     Reading input from /home/jvc/QEspresso7.2/ZnO_database/scripts/cell221.in/ZnO-3.14-1.68-221.in
Warning: card &CELL ignored
Warning: card / ignored
Warning: card &FCP ignored
Warning: card / ignored
Warning: card &RISM ignored
Warning: card / ignored

     Current dimensions of program PWSCF are:
     Max number of different atomic species (ntypx) = 10
     Max number of k-points (npk) =  40000
     Max angular momentum in pseudopotentials (lmaxx) =  4
     file Zn.upf: wavefunction(s)  3D renormalized
     Found identity + (  0.0000 -0.5000  0.0000) symmetry
     This is a supercell, fractional translations are disabled
     Message from routine setup:
     using ibrav=0 with symmetry is DISCOURAGED, use correct ibrav instead

     K-points division:     npool     =       8
     band groups division:  nbgrp     =       4
     Subspace diagonalization in iterative solution of the eigenvalue problem:
     a serial algorithm will be used

     Using Slab Decomposition

     bravais-lattice index     =            0
     lattice parameter (alat)  =      11.8634  a.u.
     unit-cell volume          =    1213.8399 (a.u.)^3
     number of atoms/cell      =           16
     number of atomic types    =            2
     number of electrons       =       144.00
     number of Kohn-Sham states=           72
     kinetic-energy cutoff     =      50.0000  Ry
     charge density cutoff     =     400.0000  Ry
     scf convergence threshold =      1.0E-08
     mixing beta               =       0.3000
     number of iterations used =            8  plain     mixing
     Exchange-correlation= PBE
                           (   1   4   3   4   0   0   0)

     celldm(1)=  11.863400  celldm(2)=   0.000000  celldm(3)=   0.000000
     celldm(4)=   0.000000  celldm(5)=   0.000000  celldm(6)=   0.000000

     crystal axes: (cart. coord. in units of alat)
               a(1) = (   1.000000   0.000000   0.000000 )
               a(2) = (  -0.500000   0.866025   0.000000 )
               a(3) = (   0.000000   0.000000   0.839466 )

     reciprocal axes: (cart. coord. in units 2 pi/alat)
               b(1) = (  1.000000  0.577350 -0.000000 )
               b(2) = (  0.000000  1.154701  0.000000 )
               b(3) = (  0.000000 -0.000000  1.191233 )

     PseudoPot. # 1 for Zn read from file:
     /home/jvc/QEspresso7.2/ZnO_database/pseudos/Zn.upf
     MD5 check sum: 7f56cabf9682ed8c977c2f7d0c5985c5
     Pseudo is Ultrasoft + core correction, Zval = 12.0
     Generated using &quot;atomic&quot; code by A. Dal Corso  v.6.2.2
     Using radial grid of 1201 points,  6 beta functions with:
                l(1) =   0
                l(2) =   0
                l(3) =   1
                l(4) =   1
                l(5) =   2
                l(6) =   2
     Q(r) pseudized with 0 coefficients

     PseudoPot. # 2 for O  read from file:
     /home/jvc/QEspresso7.2/ZnO_database/pseudos/O.upf
     MD5 check sum: 91400c9766925bcf19f520983a725ff0
     Pseudo is Ultrasoft + core correction, Zval =  6.0
     Generated using &quot;atomic&quot; code by A. Dal Corso  v.6.3MaX
     Using radial grid of 1095 points,  4 beta functions with:
                l(1) =   0
                l(2) =   0
                l(3) =   1
                l(4) =   1
     Q(r) pseudized with 0 coefficients

     atomic species   valence    mass     pseudopotential
        Zn            12.00    65.38000     Zn( 1.00)
        O              6.00    15.99900     O ( 1.00)

      6 Sym. Ops. (no inversion) found

                                    s                        frac. trans.

      isym =  1     identity

 cryst.   s( 1) = (     1          0          0      )
                  (     0          1          0      )
                  (     0          0          1      )

 cart.    s( 1) = (  1.0000000  0.0000000  0.0000000 )
                  (  0.0000000  1.0000000  0.0000000 )
                  (  0.0000000  0.0000000  1.0000000 )

      isym =  2     120 deg rotation - cryst. axis [0,0,1]

[...]

      isym =  3     120 deg rotation - cryst. axis [0,0,-1]

[...]

      isym =  4     inv. 180 deg rotation - cart. axis [1,0,0]

[...]

      isym =  5     inv. 180 deg rotation - cryst. axis [0,1,0]

[...]

      isym =  6     inv. 180 deg rotation - cryst. axis [1,1,0]

 cryst.   s( 6) = (     0         -1          0      )
                  (    -1          0          0      )
                  (     0          0          1      )

 cart.    s( 6) = (  0.5000000 -0.8660254  0.0000000 )
                  ( -0.8660254 -0.5000000  0.0000000 )
                  (  0.0000000  0.0000000  1.0000000 )

   Cartesian axes

     site n.     atom                  positions (alat units)
         1           Zn  tau(   1) = (   0.2500000   0.1443376   0.4202650  )
         2           Zn  tau(   2) = (  -0.0000000   0.2886751   0.0005319  )
         3           O   tau(   3) = (   0.2500000   0.1443376   0.7384587  )
         4           O   tau(   4) = (  -0.0000000   0.2886751   0.3187256  )
         5           Zn  tau(   5) = (  -0.0000000   0.5773503   0.4202650  )
         6           Zn  tau(   6) = (  -0.2500000   0.7216878   0.0005319  )
         7           O   tau(   7) = (  -0.0000000   0.5773503   0.7384587  )
         8           O   tau(   8) = (  -0.2500000   0.7216878   0.3187256  )
         9           Zn  tau(   9) = (   0.7500000   0.1443376   0.4202650  )
        10           Zn  tau(  10) = (   0.5000000   0.2886751   0.0005319  )
        11           O   tau(  11) = (   0.7500000   0.1443376   0.7384587  )
        12           O   tau(  12) = (   0.5000000   0.2886751   0.3187256  )
        13           Zn  tau(  13) = (   0.5000000   0.5773503   0.4202650  )
        14           Zn  tau(  14) = (   0.2500000   0.7216878   0.0005319  )
        15           O   tau(  15) = (   0.5000000   0.5773503   0.7384587  )
        16           O   tau(  16) = (   0.2500000   0.7216878   0.3187256  )

   Crystallographic axes

     site n.     atom                  positions (cryst. coord.)
         1           Zn  tau(   1) = (  0.3333333  0.1666667  0.5006336  )
         2           Zn  tau(   2) = (  0.1666667  0.3333333  0.0006336  )
         3           O   tau(   3) = (  0.3333333  0.1666667  0.8796764  )
         4           O   tau(   4) = (  0.1666667  0.3333333  0.3796764  )
         5           Zn  tau(   5) = (  0.3333333  0.6666667  0.5006336  )
         6           Zn  tau(   6) = (  0.1666667  0.8333333  0.0006336  )
         7           O   tau(   7) = (  0.3333333  0.6666667  0.8796764  )
         8           O   tau(   8) = (  0.1666667  0.8333333  0.3796764  )
         9           Zn  tau(   9) = (  0.8333333  0.1666667  0.5006336  )
        10           Zn  tau(  10) = (  0.6666667  0.3333333  0.0006336  )
        11           O   tau(  11) = (  0.8333333  0.1666667  0.8796764  )
        12           O   tau(  12) = (  0.6666667  0.3333333  0.3796764  )
        13           Zn  tau(  13) = (  0.8333333  0.6666667  0.5006336  )
        14           Zn  tau(  14) = (  0.6666667  0.8333333  0.0006336  )
        15           O   tau(  15) = (  0.8333333  0.6666667  0.8796764  )
        16           O   tau(  16) = (  0.6666667  0.8333333  0.3796764  )

     number of k points=    34
                       cart. coord. in units 2pi/alat
        k(    1) = (   0.0000000   0.0000000   0.0000000), wk =   0.0092593
        k(    2) = (   0.0000000   0.0000000   0.1985388), wk =   0.0185185
        k(    3) = (   0.0000000   0.0000000   0.3970777), wk =   0.0185185
        k(    4) = (   0.0000000   0.0000000  -0.5956165), wk =   0.0092593
        k(    5) = (   0.0000000   0.1924501   0.0000000), wk =   0.0555556
        k(    6) = (   0.0000000   0.1924501   0.1985388), wk =   0.0555556
        k(    7) = (   0.0000000   0.1924501   0.3970777), wk =   0.0555556
        k(    8) = (   0.0000000   0.1924501  -0.5956165), wk =   0.0555556
        k(    9) = (   0.0000000   0.3849002   0.0000000), wk =   0.0555556
        k(   10) = (   0.0000000   0.3849002   0.1985388), wk =   0.0555556
        k(   11) = (   0.0000000   0.3849002   0.3970777), wk =   0.0555556
        k(   12) = (   0.0000000   0.3849002  -0.5956165), wk =   0.0555556
        k(   13) = (   0.0000000  -0.5773503   0.0000000), wk =   0.0277778
        k(   14) = (   0.0000000  -0.5773503   0.1985388), wk =   0.0555556
        k(   15) = (   0.0000000  -0.5773503   0.3970777), wk =   0.0555556
        k(   16) = (   0.0000000  -0.5773503  -0.5956165), wk =   0.0277778
        k(   17) = (   0.1666667   0.2886751   0.0000000), wk =   0.0555556
        k(   18) = (   0.1666667   0.2886751   0.1985388), wk =   0.1111111
        k(   19) = (   0.1666667   0.2886751   0.3970777), wk =   0.1111111
        k(   20) = (   0.1666667   0.2886751  -0.5956165), wk =   0.0555556
        k(   21) = (   0.1666667   0.4811252   0.0000000), wk =   0.1111111
        k(   22) = (   0.1666667   0.4811252   0.1985388), wk =   0.1111111
        k(   23) = (   0.1666667   0.4811252   0.3970777), wk =   0.1111111
        k(   24) = (   0.1666667   0.4811252  -0.5956165), wk =   0.1111111
        k(   25) = (   0.3333333   0.5773503   0.0000000), wk =   0.0185185
        k(   26) = (   0.3333333   0.5773503   0.1985388), wk =   0.0370370
        k(   27) = (   0.3333333   0.5773503   0.3970777), wk =   0.0370370
        k(   28) = (   0.3333333   0.5773503  -0.5956165), wk =   0.0185185
        k(   29) = (   0.0000000  -0.1924501   0.1985388), wk =   0.0555556
        k(   30) = (   0.0000000  -0.1924501   0.3970777), wk =   0.0555556
        k(   31) = (   0.0000000  -0.3849002   0.1985388), wk =   0.0555556
        k(   32) = (   0.0000000  -0.3849002   0.3970777), wk =   0.0555556
        k(   33) = (  -0.1666667  -0.4811252   0.1985388), wk =   0.1111111
        k(   34) = (  -0.1666667  -0.4811252   0.3970777), wk =   0.1111111

                       cryst. coord.
        k(    1) = (   0.0000000   0.0000000   0.0000000), wk =   0.0092593
        k(    2) = (   0.0000000   0.0000000   0.1666667), wk =   0.0185185
        k(    3) = (   0.0000000   0.0000000   0.3333333), wk =   0.0185185
        k(    4) = (   0.0000000   0.0000000  -0.5000000), wk =   0.0092593
        k(    5) = (   0.0000000   0.1666667   0.0000000), wk =   0.0555556
        k(    6) = (   0.0000000   0.1666667   0.1666667), wk =   0.0555556
        k(    7) = (   0.0000000   0.1666667   0.3333333), wk =   0.0555556
        k(    8) = (   0.0000000   0.1666667  -0.5000000), wk =   0.0555556
        k(    9) = (   0.0000000   0.3333333   0.0000000), wk =   0.0555556
        k(   10) = (   0.0000000   0.3333333   0.1666667), wk =   0.0555556
        k(   11) = (   0.0000000   0.3333333   0.3333333), wk =   0.0555556
        k(   12) = (   0.0000000   0.3333333  -0.5000000), wk =   0.0555556
        k(   13) = (   0.0000000  -0.5000000   0.0000000), wk =   0.0277778
        k(   14) = (   0.0000000  -0.5000000   0.1666667), wk =   0.0555556
        k(   15) = (   0.0000000  -0.5000000   0.3333333), wk =   0.0555556
[...]
        k(   25) = (   0.3333333   0.3333333   0.0000000), wk =   0.0185185
        k(   26) = (   0.3333333   0.3333333   0.1666667), wk =   0.0370370
        k(   27) = (   0.3333333   0.3333333   0.3333333), wk =   0.0370370
        k(   28) = (   0.3333333   0.3333333  -0.5000000), wk =   0.0185185
        k(   29) = (   0.0000000  -0.1666667   0.1666667), wk =   0.0555556
        k(   30) = (   0.0000000  -0.1666667   0.3333333), wk =   0.0555556
        k(   31) = (   0.0000000  -0.3333333   0.1666667), wk =   0.0555556
        k(   32) = (   0.0000000  -0.3333333   0.3333333), wk =   0.0555556
        k(   33) = (  -0.1666667  -0.3333333   0.1666667), wk =   0.1111111
        k(   34) = (  -0.1666667  -0.3333333   0.3333333), wk =   0.1111111

     Check: negative core charge=   -0.000002

     Initial potential from superposition of free atoms

     starting charge     143.9702, renormalised to     144.0000
     Starting wfcs are  104 randomized atomic wfcs

     Self-consistent Calculation

     iteration #  1     ecut=    50.00 Ry     beta= 0.30
     Davidson diagonalization with overlap

     ethr =  1.00E-02,  avg # of iterations =  2.0

     total energy              =   -1445.88928474 Ry
     estimated scf accuracy    <       2.70802092 Ry

[...]

     c_bands:  1 eigenvalues not converged
     c_bands:  1 eigenvalues not converged
     ethr =  4.35E-07,  avg # of iterations = 15.2

[...]

     total energy              =   -1446.48206099 Ry
     estimated scf accuracy    <       0.00000021 Ry

     iteration # 20     ecut=    50.00 Ry     beta= 0.30
     Davidson diagonalization with overlap

     ethr =  1.49E-10,  avg # of iterations =  4.2

     End of self-consistent calculation

          k = 0.0000 0.0000 0.0000 (  7241 PWs)   bands (ev):

   -10.4174  -9.6758  -9.6218  -9.6218  -9.6217  -9.3972  -9.3972  -9.3972
     1.8386   1.8386   1.8386   1.9472   1.9472   1.9472   1.9678   2.1404
     2.1404   2.2072   2.3296   2.3296   2.4495   2.4495   2.4495   2.8721
     2.8721   2.8721   2.8966   2.8966   2.8966   2.9909   2.9909   2.9909
     3.5528   3.5528   3.5714   3.5714   3.5714   3.7460   3.7460   3.7460
     3.7639   3.7639   3.8243   3.8243   3.8243   3.9150   3.9150   3.9150
     4.0986   4.3262   4.3262   4.3262   4.3608   4.3608   4.3608   5.1975
     5.1975   5.1975   5.8688   5.8688   5.8688   6.7486   6.7486   6.7486
     7.2422   7.2422   7.2422   7.4520   7.4520   7.9905   8.2137   8.2137

     occupation numbers
     1.0000   1.0000   1.0000   1.0000   1.0000   1.0000   1.0000   1.0000
     1.0000   1.0000   1.0000   1.0000   1.0000   1.0000   1.0000   1.0000
     1.0000   1.0000   1.0000   1.0000   1.0000   1.0000   1.0000   1.0000
     1.0000   1.0000   1.0000   1.0000   1.0000   1.0000   1.0000   1.0000
     1.0000   1.0000   1.0000   1.0000   1.0000   1.0000   1.0000   1.0000
     1.0000   1.0000   1.0000   1.0000   1.0000   1.0000   1.0000   1.0000
     1.0000   1.0000   1.0000   1.0000   1.0000   1.0000   1.0000   1.0000
     1.0000   1.0000   1.0000   1.0000   1.0000   1.0000   1.0000   1.0000
     1.0000   1.0000   1.0000   1.0000   1.0000   1.0000   1.0000   1.0000

[...]

          k = 0.0000-0.3849 0.3971 (  7257 PWs)   bands (ev):

[...]

          k =-0.1667-0.4811 0.1985 (  7231 PWs)   bands (ev):

[...]

          k =-0.1667-0.4811 0.3971 (  7247 PWs)   bands (ev):

    -9.9869  -9.8197  -9.6904  -9.6899  -9.5808  -9.5050  -9.4864  -9.4251
     1.7130   1.7870   1.7921   1.8416   1.8594   1.8844   2.0293   2.1162
     2.3157   2.3459   2.3657   2.4030   2.4278   2.4520   2.4784   2.4954
     2.4994   2.5379   2.5932   2.6445   2.6945   2.7578   2.9525   2.9707
     3.5602   3.5650   3.5686   3.5696   3.6167   3.6318   3.6519   3.6988
     3.7267   3.7430   3.7701   3.7816   3.8076   3.8746   3.9242   4.0786
     4.2476   4.5271   4.7584   4.9769   5.0722   5.0835   5.2013   5.4838
     5.8764   5.9055   6.0205   6.0486   6.0984   6.3681   6.4226   6.6268
     6.7433   6.7899   7.0323   7.0461   7.1149   7.2418   7.2887   7.5415

     occupation numbers
     1.0000   1.0000   1.0000   1.0000   1.0000   1.0000   1.0000   1.0000
     1.0000   1.0000   1.0000   1.0000   1.0000   1.0000   1.0000   1.0000
     1.0000   1.0000   1.0000   1.0000   1.0000   1.0000   1.0000   1.0000
     1.0000   1.0000   1.0000   1.0000   1.0000   1.0000   1.0000   1.0000
     1.0000   1.0000   1.0000   1.0000   1.0000   1.0000   1.0000   1.0000
     1.0000   1.0000   1.0000   1.0000   1.0000   1.0000   1.0000   1.0000
     1.0000   1.0000   1.0000   1.0000   1.0000   1.0000   1.0000   1.0000
     1.0000   1.0000   1.0000   1.0000   1.0000   1.0000   1.0000   1.0000
     1.0000   1.0000   1.0000   1.0000   1.0000   1.0000   1.0000   1.0000

     highest occupied level (ev):     8.2137

!    total energy              =   -1446.48206105 Ry
     estimated scf accuracy    <          3.4E-09 Ry

     The total energy is the sum of the following terms:
     one-electron contribution =    -579.58294368 Ry
     hartree contribution      =     459.58741590 Ry
     xc contribution           =    -438.89805409 Ry
     ewald contribution        =    -887.58847917 Ry

     convergence has been achieved in  20 iterations

     Forces acting on atoms (cartesian axes, Ry/au):

     atom    1 type  1   force =     0.00000059    0.00000034    0.01733360
     atom    2 type  1   force =    -0.00000000    0.00000818    0.01735885
     atom    3 type  2   force =     0.00000023    0.00000013   -0.01734715
     atom    4 type  2   force =    -0.00000000   -0.00000137   -0.01735036
     atom    5 type  1   force =     0.00000000    0.00000000    0.01734356
     atom    6 type  1   force =     0.00000709   -0.00000409    0.01735885
     atom    7 type  2   force =     0.00000000    0.00000000   -0.01734488
     atom    8 type  2   force =    -0.00000119    0.00000069   -0.01735036
     atom    9 type  1   force =    -0.00000059    0.00000034    0.01733360
     atom   10 type  1   force =     0.00000000    0.00000000    0.01736672
     atom   11 type  2   force =    -0.00000023    0.00000013   -0.01734715
     atom   12 type  2   force =     0.00000000    0.00000000   -0.01735022
     atom   13 type  1   force =     0.00000000   -0.00000068    0.01733360
     atom   14 type  1   force =    -0.00000709   -0.00000409    0.01735885
     atom   15 type  2   force =     0.00000000   -0.00000026   -0.01734715
     atom   16 type  2   force =     0.00000119    0.00000069   -0.01735036
     The non-local contrib.  to forces
     atom    1 type  1   force =    -0.00000058   -0.00000033    0.10980856
     atom    2 type  1   force =     0.00000000    0.00000460    0.10982036
     atom    3 type  2   force =    -0.00000004   -0.00000003    0.09768455
     atom    4 type  2   force =     0.00000000   -0.00000305    0.09768359
     atom    5 type  1   force =     0.00000000    0.00000000    0.10981454
     atom    6 type  1   force =     0.00000398   -0.00000230    0.10982036
     atom    7 type  2   force =     0.00000000    0.00000000    0.09768920
     atom    8 type  2   force =    -0.00000265    0.00000153    0.09768359
     atom    9 type  1   force =     0.00000058   -0.00000033    0.10980856
     atom   10 type  1   force =     0.00000000   -0.00000000    0.10982304
     atom   11 type  2   force =     0.00000004   -0.00000003    0.09768455
     atom   12 type  2   force =     0.00000000   -0.00000000    0.09768587
     atom   13 type  1   force =     0.00000000    0.00000066    0.10980856
     atom   14 type  1   force =    -0.00000398   -0.00000230    0.10982036
     atom   15 type  2   force =    -0.00000000    0.00000005    0.09768455
     atom   16 type  2   force =     0.00000265    0.00000153    0.09768359
     The ionic contribution  to forces
     atom    1 type  1   force =     0.00000001    0.00000001    0.92239741
     atom    2 type  1   force =     0.00000002    0.00000001    0.92239742
     atom    3 type  2   force =     0.00000001    0.00000001   -0.92239741
     atom    4 type  2   force =     0.00000001    0.00000000   -0.92239742
     atom    5 type  1   force =     0.00000001    0.00000001    0.92239741
     atom    6 type  1   force =     0.00000002    0.00000001    0.92239742
     atom    7 type  2   force =     0.00000001    0.00000001   -0.92239741
     atom    8 type  2   force =     0.00000001    0.00000000   -0.92239742
     atom    9 type  1   force =    -0.00000002   -0.00000001    0.92239742
     atom   10 type  1   force =    -0.00000001   -0.00000001    0.92239741
     atom   11 type  2   force =    -0.00000001   -0.00000000   -0.92239742
     atom   12 type  2   force =    -0.00000001   -0.00000001   -0.92239741
     atom   13 type  1   force =    -0.00000002   -0.00000001    0.92239742
     atom   14 type  1   force =    -0.00000001   -0.00000001    0.92239741
     atom   15 type  2   force =    -0.00000001   -0.00000000   -0.92239742
     atom   16 type  2   force =    -0.00000001   -0.00000001   -0.92239741
     The local contribution  to forces
     atom    1 type  1   force =     0.00000005    0.00000012   -1.00644755
     atom    2 type  1   force =     0.00000008   -0.00001739   -1.00649600
     atom    3 type  2   force =    -0.00000157   -0.00000088    0.80809998
     atom    4 type  2   force =     0.00000002    0.00000501    0.80809522
     atom    5 type  1   force =    -0.00000000    0.00000009   -1.00646811
     atom    6 type  1   force =    -0.00001502    0.00000877   -1.00649600
     atom    7 type  2   force =    -0.00000000    0.00000002    0.80809957
     atom    8 type  2   force =     0.00000435   -0.00000249    0.80809522
     atom    9 type  1   force =    -0.00000022    0.00000012   -1.00644755
     atom   10 type  1   force =    -0.00000008    0.00000005   -1.00650801
     atom   11 type  2   force =     0.00000153   -0.00000088    0.80809998
     atom   12 type  2   force =    -0.00000002    0.00000001    0.80809993
     atom   13 type  1   force =    -0.00000016    0.00000003   -1.00644755
     atom   14 type  1   force =     0.00001502    0.00000877   -1.00649600
     atom   15 type  2   force =    -0.00000004    0.00000184    0.80809998
     atom   16 type  2   force =    -0.00000435   -0.00000249    0.80809522
     The core correction contribution to forces
     atom    1 type  1   force =    -0.00000025   -0.00000013   -0.00838487
     atom    2 type  1   force =     0.00000001    0.00000034   -0.00838318
     atom    3 type  2   force =     0.00000002    0.00000001   -0.00074248
     atom    4 type  2   force =    -0.00000000    0.00000009   -0.00074249
     atom    5 type  1   force =    -0.00000000    0.00000001   -0.00838441
     atom    6 type  1   force =     0.00000030   -0.00000016   -0.00838318
     atom    7 type  2   force =    -0.00000000   -0.00000000   -0.00074253
     atom    8 type  2   force =     0.00000008   -0.00000005   -0.00074249
     atom    9 type  1   force =     0.00000022   -0.00000013   -0.00838487
     atom   10 type  1   force =    -0.00000001    0.00000001   -0.00838312
     atom   11 type  2   force =    -0.00000002    0.00000001   -0.00074248
     atom   12 type  2   force =     0.00000000   -0.00000000   -0.00074249
     atom   13 type  1   force =    -0.00000002    0.00000030   -0.00838487
     atom   14 type  1   force =    -0.00000030   -0.00000016   -0.00838318
     atom   15 type  2   force =     0.00000000   -0.00000002   -0.00074248
     atom   16 type  2   force =    -0.00000008   -0.00000005   -0.00074249
     The Hubbard contrib.    to forces
     atom    1 type  1   force =     0.00000000    0.00000000    0.00000000
     atom    2 type  1   force =     0.00000000    0.00000000    0.00000000
     atom    3 type  2   force =     0.00000000    0.00000000    0.00000000
     atom    4 type  2   force =     0.00000000    0.00000000    0.00000000
     atom    5 type  1   force =     0.00000000    0.00000000    0.00000000
     atom    6 type  1   force =     0.00000000    0.00000000    0.00000000
     atom    7 type  2   force =     0.00000000    0.00000000    0.00000000
     atom    8 type  2   force =     0.00000000    0.00000000    0.00000000
     atom    9 type  1   force =     0.00000000    0.00000000    0.00000000
     atom   10 type  1   force =     0.00000000    0.00000000    0.00000000
     atom   11 type  2   force =     0.00000000    0.00000000    0.00000000
     atom   12 type  2   force =     0.00000000    0.00000000    0.00000000
     atom   13 type  1   force =     0.00000000    0.00000000    0.00000000
     atom   14 type  1   force =     0.00000000    0.00000000    0.00000000
     atom   15 type  2   force =     0.00000000    0.00000000    0.00000000
     atom   16 type  2   force =     0.00000000    0.00000000    0.00000000
     The SCF correction term to forces
     atom    1 type  1   force =     0.00000130    0.00000075   -0.00004279
     atom    2 type  1   force =    -0.00000000    0.00002062    0.00001742
     atom    3 type  2   force =     0.00000180    0.00000104    0.00000539
     atom    4 type  2   force =    -0.00000000   -0.00000343    0.00000790
     atom    5 type  1   force =    -0.00000000   -0.00000000   -0.00001870
     atom    6 type  1   force =     0.00001786   -0.00001031    0.00001742
     atom    7 type  2   force =    -0.00000000   -0.00000000    0.00000347
     atom    8 type  2   force =    -0.00000297    0.00000172    0.00000790
     atom    9 type  1   force =    -0.00000130    0.00000075   -0.00004279
     atom   10 type  1   force =     0.00000000   -0.00000000    0.00003456
     atom   11 type  2   force =    -0.00000180    0.00000104    0.00000539
     atom   12 type  2   force =     0.00000000    0.00000000    0.00000105
     atom   13 type  1   force =     0.00000000   -0.00000150   -0.00004279
     atom   14 type  1   force =    -0.00001786   -0.00001031    0.00001742
     atom   15 type  2   force =     0.00000000   -0.00000208    0.00000539
     atom   16 type  2   force =     0.00000297    0.00000172    0.00000790

     Total force =     0.069394     Total SCF correction =     0.000098

     General routines

     Parallel routines

   This run was terminated on:  18: 2:45  23Aug2025

   JOB DONE.
Note: The following floating-point exceptions are signalling: IEEE_INVALID_FLAG
Note: The following floating-point exceptions are signalling: IEEE_INVALID_FLAG
Note: The following floating-point exceptions are signalling: IEEE_INVALID_FLAG
Note: The following floating-point exceptions are signalling: IEEE_INVALID_FLAG
Note: The following floating-point exceptions are signalling: IEEE_INVALID_FLAG
Note: The following floating-point exceptions are signalling: IEEE_INVALID_FLAG
Note: The following floating-point exceptions are signalling: IEEE_INVALID_FLAG
Note: The following floating-point exceptions are signalling: IEEE_INVALID_FLAG
Note: The following floating-point exceptions are signalling: IEEE_INVALID_FLAG
Note: The following floating-point exceptions are signalling: IEEE_INVALID_FLAG
Note: The following floating-point exceptions are signalling: IEEE_INVALID_FLAG
Note: The following floating-point exceptions are signalling: IEEE_INVALID_FLAG
Note: The following floating-point exceptions are signalling: IEEE_INVALID_FLAG
Note: The following floating-point exceptions are signalling: IEEE_INVALID_FLAG
Note: The following floating-point exceptions are signalling: IEEE_INVALID_FLAG
Note: The following floating-point exceptions are signalling: IEEE_INVALID_FLAG
Note: The following floating-point exceptions are signalling: IEEE_INVALID_FLAG
Note: The following floating-point exceptions are signalling: IEEE_INVALID_FLAG
Note: The following floating-point exceptions are signalling: IEEE_INVALID_FLAG
Note: The following floating-point exceptions are signalling: IEEE_INVALID_FLAG
Note: The following floating-point exceptions are signalling: IEEE_INVALID_FLAG
Note: The following floating-point exceptions are signalling: IEEE_INVALID_FLAG
Note: The following floating-point exceptions are signalling: IEEE_INVALID_FLAG
Note: The following floating-point exceptions are signalling: IEEE_INVALID_FLAG
Note: The following floating-point exceptions are signalling: IEEE_INVALID_FLAG
Note: The following floating-point exceptions are signalling: IEEE_INVALID_FLAG
Note: The following floating-point exceptions are signalling: IEEE_INVALID_FLAG
Note: The following floating-point exceptions are signalling: IEEE_INVALID_FLAG
Note: The following floating-point exceptions are signalling: IEEE_INVALID_FLAG
Note: The following floating-point exceptions are signalling: IEEE_INVALID_FLAG
Note: The following floating-point exceptions are signalling: IEEE_INVALID_FLAG
Note: The following floating-point exceptions are signalling: IEEE_INVALID_FLAG