     Program PWSCF v.7.2 starts on 24Aug2025 at  3:33:52

     Reading input from /home/jvc/QEspresso7.2/ZnO_database/scripts/cell221.in/ZnO-3.60-1.52-221.in
Warning: card &CELL ignored
Warning: card / ignored
Warning: card &FCP ignored
Warning: card / ignored
Warning: card &RISM ignored
Warning: card / ignored

     Current dimensions of program PWSCF are:
     Max number of different atomic species (ntypx) = 10
     Max number of k-points (npk) =  40000
     Max angular momentum in pseudopotentials (lmaxx) =  4
     file Zn.upf: wavefunction(s)  3D renormalized
     Found identity + (  0.0000 -0.5000  0.0000) symmetry
     This is a supercell, fractional translations are disabled
     Message from routine setup:
     using ibrav=0 with symmetry is DISCOURAGED, use correct ibrav instead

     K-points division:     npool     =       8
     band groups division:  nbgrp     =       4
     Subspace diagonalization in iterative solution of the eigenvalue problem:
     a serial algorithm will be used

     Using Slab Decomposition

     bravais-lattice index     =            0
     lattice parameter (alat)  =      13.5935  a.u.
     unit-cell volume          =    1650.5180 (a.u.)^3
     number of atoms/cell      =           16
     number of atomic types    =            2
     number of electrons       =       144.00
     number of Kohn-Sham states=           72
     kinetic-energy cutoff     =      50.0000  Ry
     charge density cutoff     =     400.0000  Ry
     scf convergence threshold =      1.0E-08
     mixing beta               =       0.3000
     number of iterations used =            8  plain     mixing
     Exchange-correlation= PBE
                           (   1   4   3   4   0   0   0)

     celldm(1)=  13.593479  celldm(2)=   0.000000  celldm(3)=   0.000000
     celldm(4)=   0.000000  celldm(5)=   0.000000  celldm(6)=   0.000000

     crystal axes: (cart. coord. in units of alat)
               a(1) = (   1.000000   0.000000   0.000000 )
               a(2) = (  -0.500000   0.866025   0.000000 )
               a(3) = (   0.000000   0.000000   0.758748 )

     reciprocal axes: (cart. coord. in units 2 pi/alat)
               b(1) = (  1.000000  0.577350 -0.000000 )
               b(2) = (  0.000000  1.154701  0.000000 )
               b(3) = (  0.000000 -0.000000  1.317960 )

     PseudoPot. # 1 for Zn read from file:
     /home/jvc/QEspresso7.2/ZnO_database/pseudos/Zn.upf
     MD5 check sum: 7f56cabf9682ed8c977c2f7d0c5985c5
     Pseudo is Ultrasoft + core correction, Zval = 12.0
     Generated using &quot;atomic&quot; code by A. Dal Corso  v.6.2.2
     Using radial grid of 1201 points,  6 beta functions with:
                l(1) =   0
                l(2) =   0
                l(3) =   1
                l(4) =   1
                l(5) =   2
                l(6) =   2
     Q(r) pseudized with 0 coefficients

     PseudoPot. # 2 for O  read from file:
     /home/jvc/QEspresso7.2/ZnO_database/pseudos/O.upf
     MD5 check sum: 91400c9766925bcf19f520983a725ff0
     Pseudo is Ultrasoft + core correction, Zval =  6.0
     Generated using &quot;atomic&quot; code by A. Dal Corso  v.6.3MaX
     Using radial grid of 1095 points,  4 beta functions with:
                l(1) =   0
                l(2) =   0
                l(3) =   1
                l(4) =   1
     Q(r) pseudized with 0 coefficients

     atomic species   valence    mass     pseudopotential
        Zn            12.00    65.38000     Zn( 1.00)
        O              6.00    15.99900     O ( 1.00)

      6 Sym. Ops. (no inversion) found

                                    s                        frac. trans.

      isym =  1     identity

 cryst.   s( 1) = (     1          0          0      )
                  (     0          1          0      )
                  (     0          0          1      )

 cart.    s( 1) = (  1.0000000  0.0000000  0.0000000 )
                  (  0.0000000  1.0000000  0.0000000 )
                  (  0.0000000  0.0000000  1.0000000 )

      isym =  2     120 deg rotation - cryst. axis [0,0,1]

[...]

      isym =  3     120 deg rotation - cryst. axis [0,0,-1]

[...]

      isym =  4     inv. 180 deg rotation - cart. axis [1,0,0]

[...]

      isym =  5     inv. 180 deg rotation - cryst. axis [0,1,0]

[...]

      isym =  6     inv. 180 deg rotation - cryst. axis [1,1,0]

 cryst.   s( 6) = (     0         -1          0      )
                  (    -1          0          0      )
                  (     0          0          1      )

 cart.    s( 6) = (  0.5000000 -0.8660254  0.0000000 )
                  ( -0.8660254 -0.5000000  0.0000000 )
                  (  0.0000000  0.0000000  1.0000000 )

   Cartesian axes

     site n.     atom                  positions (alat units)
         1           Zn  tau(   1) = (   0.2500000   0.1443376   0.3798549  )
         2           Zn  tau(   2) = (  -0.0000000   0.2886751   0.0004807  )
         3           O   tau(   3) = (   0.2500000   0.1443376   0.6674531  )
         4           O   tau(   4) = (  -0.0000000   0.2886751   0.2880789  )
         5           Zn  tau(   5) = (  -0.0000000   0.5773503   0.3798549  )
         6           Zn  tau(   6) = (  -0.2500000   0.7216878   0.0004807  )
         7           O   tau(   7) = (  -0.0000000   0.5773503   0.6674531  )
         8           O   tau(   8) = (  -0.2500000   0.7216878   0.2880789  )
         9           Zn  tau(   9) = (   0.7500000   0.1443376   0.3798549  )
        10           Zn  tau(  10) = (   0.5000000   0.2886751   0.0004807  )
        11           O   tau(  11) = (   0.7500000   0.1443376   0.6674531  )
        12           O   tau(  12) = (   0.5000000   0.2886751   0.2880789  )
        13           Zn  tau(  13) = (   0.5000000   0.5773503   0.3798549  )
        14           Zn  tau(  14) = (   0.2500000   0.7216878   0.0004807  )
        15           O   tau(  15) = (   0.5000000   0.5773503   0.6674531  )
        16           O   tau(  16) = (   0.2500000   0.7216878   0.2880789  )

   Crystallographic axes

     site n.     atom                  positions (cryst. coord.)
         1           Zn  tau(   1) = (  0.3333333  0.1666667  0.5006336  )
         2           Zn  tau(   2) = (  0.1666667  0.3333333  0.0006336  )
         3           O   tau(   3) = (  0.3333333  0.1666667  0.8796764  )
         4           O   tau(   4) = (  0.1666667  0.3333333  0.3796764  )
         5           Zn  tau(   5) = (  0.3333333  0.6666667  0.5006336  )
         6           Zn  tau(   6) = (  0.1666667  0.8333333  0.0006336  )
         7           O   tau(   7) = (  0.3333333  0.6666667  0.8796764  )
         8           O   tau(   8) = (  0.1666667  0.8333333  0.3796764  )
         9           Zn  tau(   9) = (  0.8333333  0.1666667  0.5006336  )
        10           Zn  tau(  10) = (  0.6666667  0.3333333  0.0006336  )
        11           O   tau(  11) = (  0.8333333  0.1666667  0.8796764  )
        12           O   tau(  12) = (  0.6666667  0.3333333  0.3796764  )
        13           Zn  tau(  13) = (  0.8333333  0.6666667  0.5006336  )
        14           Zn  tau(  14) = (  0.6666667  0.8333333  0.0006336  )
        15           O   tau(  15) = (  0.8333333  0.6666667  0.8796764  )
        16           O   tau(  16) = (  0.6666667  0.8333333  0.3796764  )

     number of k points=    34
                       cart. coord. in units 2pi/alat
        k(    1) = (   0.0000000   0.0000000   0.0000000), wk =   0.0092593
        k(    2) = (   0.0000000   0.0000000   0.2196600), wk =   0.0185185
        k(    3) = (   0.0000000   0.0000000   0.4393200), wk =   0.0185185
        k(    4) = (   0.0000000   0.0000000  -0.6589799), wk =   0.0092593
        k(    5) = (   0.0000000   0.1924501   0.0000000), wk =   0.0555556
        k(    6) = (   0.0000000   0.1924501   0.2196600), wk =   0.0555556
        k(    7) = (   0.0000000   0.1924501   0.4393200), wk =   0.0555556
        k(    8) = (   0.0000000   0.1924501  -0.6589799), wk =   0.0555556
        k(    9) = (   0.0000000   0.3849002   0.0000000), wk =   0.0555556
        k(   10) = (   0.0000000   0.3849002   0.2196600), wk =   0.0555556
        k(   11) = (   0.0000000   0.3849002   0.4393200), wk =   0.0555556
        k(   12) = (   0.0000000   0.3849002  -0.6589799), wk =   0.0555556
        k(   13) = (   0.0000000  -0.5773503   0.0000000), wk =   0.0277778
        k(   14) = (   0.0000000  -0.5773503   0.2196600), wk =   0.0555556
        k(   15) = (   0.0000000  -0.5773503   0.4393200), wk =   0.0555556
        k(   16) = (   0.0000000  -0.5773503  -0.6589799), wk =   0.0277778
        k(   17) = (   0.1666667   0.2886751   0.0000000), wk =   0.0555556
        k(   18) = (   0.1666667   0.2886751   0.2196600), wk =   0.1111111
        k(   19) = (   0.1666667   0.2886751   0.4393200), wk =   0.1111111
        k(   20) = (   0.1666667   0.2886751  -0.6589799), wk =   0.0555556
        k(   21) = (   0.1666667   0.4811252   0.0000000), wk =   0.1111111
        k(   22) = (   0.1666667   0.4811252   0.2196600), wk =   0.1111111
        k(   23) = (   0.1666667   0.4811252   0.4393200), wk =   0.1111111
        k(   24) = (   0.1666667   0.4811252  -0.6589799), wk =   0.1111111
        k(   25) = (   0.3333333   0.5773503   0.0000000), wk =   0.0185185
        k(   26) = (   0.3333333   0.5773503   0.2196600), wk =   0.0370370
        k(   27) = (   0.3333333   0.5773503   0.4393200), wk =   0.0370370
        k(   28) = (   0.3333333   0.5773503  -0.6589799), wk =   0.0185185
        k(   29) = (   0.0000000  -0.1924501   0.2196600), wk =   0.0555556
        k(   30) = (   0.0000000  -0.1924501   0.4393200), wk =   0.0555556
        k(   31) = (   0.0000000  -0.3849002   0.2196600), wk =   0.0555556
        k(   32) = (   0.0000000  -0.3849002   0.4393200), wk =   0.0555556
        k(   33) = (  -0.1666667  -0.4811252   0.2196600), wk =   0.1111111
        k(   34) = (  -0.1666667  -0.4811252   0.4393200), wk =   0.1111111

                       cryst. coord.
        k(    1) = (   0.0000000   0.0000000   0.0000000), wk =   0.0092593
        k(    2) = (   0.0000000   0.0000000   0.1666667), wk =   0.0185185
        k(    3) = (   0.0000000   0.0000000   0.3333333), wk =   0.0185185
        k(    4) = (   0.0000000   0.0000000  -0.5000000), wk =   0.0092593
        k(    5) = (   0.0000000   0.1666667   0.0000000), wk =   0.0555556
        k(    6) = (   0.0000000   0.1666667   0.1666667), wk =   0.0555556
        k(    7) = (   0.0000000   0.1666667   0.3333333), wk =   0.0555556
        k(    8) = (   0.0000000   0.1666667  -0.5000000), wk =   0.0555556
        k(    9) = (   0.0000000   0.3333333   0.0000000), wk =   0.0555556
        k(   10) = (   0.0000000   0.3333333   0.1666667), wk =   0.0555556
        k(   11) = (   0.0000000   0.3333333   0.3333333), wk =   0.0555556
        k(   12) = (   0.0000000   0.3333333  -0.5000000), wk =   0.0555556
        k(   13) = (   0.0000000  -0.5000000   0.0000000), wk =   0.0277778
        k(   14) = (   0.0000000  -0.5000000   0.1666667), wk =   0.0555556
        k(   15) = (   0.0000000  -0.5000000   0.3333333), wk =   0.0555556
[...]
        k(   30) = (   0.0000000  -0.1666667   0.3333333), wk =   0.0555556
        k(   31) = (   0.0000000  -0.3333333   0.1666667), wk =   0.0555556
        k(   32) = (   0.0000000  -0.3333333   0.3333333), wk =   0.0555556
        k(   33) = (  -0.1666667  -0.3333333   0.1666667), wk =   0.1111111
        k(   34) = (  -0.1666667  -0.3333333   0.3333333), wk =   0.1111111

     Check: negative core charge=   -0.000002

     Initial potential from superposition of free atoms

     starting charge     143.9702, renormalised to     144.0000
     Starting wfcs are  104 randomized atomic wfcs

     Self-consistent Calculation

     iteration #  1     ecut=    50.00 Ry     beta= 0.30
     Davidson diagonalization with overlap

     ethr =  1.00E-02,  avg # of iterations =  1.7

     total energy              =   -1445.53373753 Ry
     estimated scf accuracy    <       3.23007842 Ry

[...]

     c_bands:  1 eigenvalues not converged
     c_bands:  1 eigenvalues not converged
     c_bands:  1 eigenvalues not converged
     ethr =  1.36E-07,  avg # of iterations = 17.4

[...]

     c_bands:  1 eigenvalues not converged
     ethr =  1.36E-07,  avg # of iterations = 14.4

[...]

[perseu][[57070,1],15][../../../../../../opal/mca/btl/tcp/btl_tcp.c:559:mca_btl_tcp_recv_blocking] recv(18) failed: Connection reset by peer (104)
     ethr =  1.91E-08,  avg # of iterations =  8.3

[...]

     total energy              =   -1446.30929659 Ry
     estimated scf accuracy    <       0.00000006 Ry

     iteration # 37     ecut=    50.00 Ry     beta= 0.30
     Davidson diagonalization with overlap

     ethr =  3.24E-11,  avg # of iterations =  6.2

     End of self-consistent calculation

          k = 0.0000 0.0000 0.0000 (  9851 PWs)   bands (ev):

   -12.4296 -12.0591 -12.0591 -12.0590 -11.9629 -11.9130 -11.9130 -11.9129
    -0.8881  -0.8881  -0.8881  -0.8635  -0.8522  -0.8522  -0.7320  -0.7320
    -0.7320  -0.7140  -0.7140  -0.5745  -0.5745  -0.5745  -0.5171  -0.5171
    -0.5171  -0.3890  -0.3890  -0.3890  -0.3845  -0.3845  -0.3845  -0.3151
    -0.3151  -0.2403  -0.2403  -0.2403  -0.2163  -0.2163  -0.2163  -0.1744
    -0.1744  -0.1496  -0.1496  -0.1496  -0.1344  -0.1206  -0.1206  -0.1206
     0.2344   0.7387   0.7387   0.7387   1.3283   1.3283   1.3283   1.9103
     1.9103   1.9104   2.3790   2.3790   2.3790   3.1179   3.1179   3.1180
     3.3341   3.3341   3.5152   3.5152   3.5152   3.9887   3.9887   4.0245

     occupation numbers
     1.0000   1.0000   1.0000   1.0000   1.0000   1.0000   1.0000   1.0000
     1.0000   1.0000   1.0000   1.0000   1.0000   1.0000   1.0000   1.0000
     1.0000   1.0000   1.0000   1.0000   1.0000   1.0000   1.0000   1.0000
     1.0000   1.0000   1.0000   1.0000   1.0000   1.0000   1.0000   1.0000
     1.0000   1.0000   1.0000   1.0000   1.0000   1.0000   1.0000   1.0000
     1.0000   1.0000   1.0000   1.0000   1.0000   1.0000   1.0000   1.0000
     1.0000   1.0000   1.0000   1.0000   1.0000   1.0000   1.0000   1.0000
     1.0000   1.0000   1.0000   1.0000   1.0000   1.0000   1.0000   1.0000
     1.0000   1.0000   1.0000   1.0000   1.0000   1.0000   1.0000   1.0000

[...]

          k = 0.0000-0.3849 0.4393 (  9839 PWs)   bands (ev):

[...]

          k =-0.1667-0.4811 0.2197 (  9859 PWs)   bands (ev):

[...]

          k =-0.1667-0.4811 0.4393 (  9846 PWs)   bands (ev):

   -12.2042 -12.1318 -12.0752 -12.0178 -11.9820 -11.9818 -11.9588 -11.9427
    -0.9409  -0.9382  -0.8931  -0.8388  -0.8339  -0.8261  -0.8212  -0.7707
    -0.7705  -0.7328  -0.7195  -0.7092  -0.6816  -0.6660  -0.6640  -0.6541
    -0.6384  -0.6134  -0.5814  -0.5757  -0.5246  -0.4985  -0.4571  -0.4359
    -0.2711  -0.2704  -0.2626  -0.2625  -0.2596  -0.2485  -0.2461  -0.2263
    -0.1919  -0.1874  -0.1701  -0.1582  -0.1335  -0.1022  -0.0768  -0.0389
     0.8920   1.0375   1.0766   1.2072   1.3520   1.3973   1.6492   1.8710
     2.0525   2.5015   2.6444   2.6610   2.7454   2.8381   2.8983   3.0149
     3.1085   3.1275   3.2986   3.3756   3.4942   3.5468   3.5524   3.6263

     occupation numbers
     1.0000   1.0000   1.0000   1.0000   1.0000   1.0000   1.0000   1.0000
     1.0000   1.0000   1.0000   1.0000   1.0000   1.0000   1.0000   1.0000
     1.0000   1.0000   1.0000   1.0000   1.0000   1.0000   1.0000   1.0000
     1.0000   1.0000   1.0000   1.0000   1.0000   1.0000   1.0000   1.0000
     1.0000   1.0000   1.0000   1.0000   1.0000   1.0000   1.0000   1.0000
     1.0000   1.0000   1.0000   1.0000   1.0000   1.0000   1.0000   1.0000
     1.0000   1.0000   1.0000   1.0000   1.0000   1.0000   1.0000   1.0000
     1.0000   1.0000   1.0000   1.0000   1.0000   1.0000   1.0000   1.0000
     1.0000   1.0000   1.0000   1.0000   1.0000   1.0000   1.0000   1.0000

     highest occupied level (ev):     4.0245

!    total energy              =   -1446.30929658 Ry
     estimated scf accuracy    <          8.3E-09 Ry

     The total energy is the sum of the following terms:
     one-electron contribution =    -720.16223202 Ry
     hartree contribution      =     510.57080858 Ry
     xc contribution           =    -436.58291498 Ry
     ewald contribution        =    -800.13495816 Ry

     convergence has been achieved in  37 iterations

     Forces acting on atoms (cartesian axes, Ry/au):

     atom    1 type  1   force =     0.00000158    0.00000091   -0.00150001
     atom    2 type  1   force =    -0.00000000    0.00004443   -0.00150546
     atom    3 type  2   force =     0.00000064    0.00000037    0.00149907
     atom    4 type  2   force =     0.00000000   -0.00000160    0.00149798
     atom    5 type  1   force =     0.00000000    0.00000000   -0.00147042
     atom    6 type  1   force =     0.00003848   -0.00002221   -0.00150546
     atom    7 type  2   force =     0.00000000    0.00000000    0.00149690
     atom    8 type  2   force =    -0.00000139    0.00000080    0.00149798
     atom    9 type  1   force =    -0.00000158    0.00000091   -0.00150001
     atom   10 type  1   force =     0.00000000    0.00000000   -0.00149906
     atom   11 type  2   force =    -0.00000064    0.00000037    0.00149907
     atom   12 type  2   force =     0.00000000    0.00000000    0.00149785
     atom   13 type  1   force =     0.00000000   -0.00000183   -0.00150001
     atom   14 type  1   force =    -0.00003848   -0.00002221   -0.00150546
     atom   15 type  2   force =     0.00000000   -0.00000074    0.00149907
     atom   16 type  2   force =     0.00000139    0.00000080    0.00149798
     The non-local contrib.  to forces
     atom    1 type  1   force =     0.00000341    0.00000197   -0.16406165
     atom    2 type  1   force =     0.00000000    0.00002276   -0.16406423
     atom    3 type  2   force =     0.00000436    0.00000252   -0.14945305
     atom    4 type  2   force =     0.00000000   -0.00001494   -0.14945345
     atom    5 type  1   force =     0.00000000   -0.00000000   -0.16405351
     atom    6 type  1   force =     0.00001971   -0.00001138   -0.16406423
     atom    7 type  2   force =     0.00000000    0.00000000   -0.14945321
     atom    8 type  2   force =    -0.00001293    0.00000747   -0.14945345
     atom    9 type  1   force =    -0.00000341    0.00000197   -0.16406165
     atom   10 type  1   force =     0.00000000    0.00000000   -0.16406213
     atom   11 type  2   force =    -0.00000436    0.00000252   -0.14945305
     atom   12 type  2   force =     0.00000000    0.00000000   -0.14945525
     atom   13 type  1   force =     0.00000000   -0.00000394   -0.16406165
     atom   14 type  1   force =    -0.00001971   -0.00001138   -0.16406423
     atom   15 type  2   force =     0.00000000   -0.00000504   -0.14945305
     atom   16 type  2   force =     0.00001293    0.00000747   -0.14945345
     The ionic contribution  to forces
     atom    1 type  1   force =     0.00000000    0.00000002   -1.04302410
     atom    2 type  1   force =     0.00000001    0.00000002   -1.04302410
     atom    3 type  2   force =    -0.00000000    0.00000001    1.04302410
     atom    4 type  2   force =     0.00000001    0.00000001    1.04302410
     atom    5 type  1   force =     0.00000001   -0.00000001   -1.04302410
     atom    6 type  1   force =    -0.00000000   -0.00000002   -1.04302410
     atom    7 type  2   force =     0.00000000   -0.00000001    1.04302410
     atom    8 type  2   force =    -0.00000000   -0.00000001    1.04302410
     atom    9 type  1   force =    -0.00000002    0.00000002   -1.04302410
     atom   10 type  1   force =     0.00000001    0.00000001   -1.04302410
     atom   11 type  2   force =    -0.00000001    0.00000001    1.04302410
     atom   12 type  2   force =     0.00000001    0.00000000    1.04302410
     atom   13 type  1   force =     0.00000001   -0.00000002   -1.04302410
     atom   14 type  1   force =    -0.00000001   -0.00000002   -1.04302410
     atom   15 type  2   force =     0.00000000   -0.00000001    1.04302410
     atom   16 type  2   force =    -0.00000001   -0.00000001    1.04302410
     The local contribution  to forces
     atom    1 type  1   force =    -0.00000275   -0.00000148    1.19556996
     atom    2 type  1   force =     0.00000010   -0.00007385    1.19557610
     atom    3 type  2   force =    -0.00000744   -0.00000427   -0.89336080
     atom    4 type  2   force =     0.00000003   -0.00000301   -0.89336625
     atom    5 type  1   force =     0.00000010   -0.00000006    1.19552102
     atom    6 type  1   force =    -0.00006400    0.00003684    1.19557610
     atom    7 type  2   force =     0.00000003   -0.00000001   -0.89336278
     atom    8 type  2   force =    -0.00000262    0.00000148   -0.89336625
     atom    9 type  1   force =     0.00000256   -0.00000148    1.19556996
     atom   10 type  1   force =     0.00000010    0.00000006    1.19556668
     atom   11 type  2   force =     0.00000739   -0.00000427   -0.89336080
     atom   12 type  2   force =     0.00000003    0.00000001   -0.89336060
     atom   13 type  1   force =     0.00000010    0.00000312    1.19556996
     atom   14 type  1   force =     0.00006400    0.00003684    1.19557610
     atom   15 type  2   force =     0.00000003    0.00000857   -0.89336080
     atom   16 type  2   force =     0.00000262    0.00000148   -0.89336625
     The core correction contribution to forces
     atom    1 type  1   force =    -0.00000030   -0.00000016    0.01002365
     atom    2 type  1   force =     0.00000001    0.00000143    0.01002368
     atom    3 type  2   force =    -0.00000006   -0.00000004    0.00129320
     atom    4 type  2   force =    -0.00000000    0.00000020    0.00129320
     atom    5 type  1   force =     0.00000001   -0.00000001    0.01002513
     atom    6 type  1   force =     0.00000123   -0.00000072    0.01002368
     atom    7 type  2   force =    -0.00000000    0.00000000    0.00129320
     atom    8 type  2   force =     0.00000017   -0.00000010    0.00129320
     atom    9 type  1   force =     0.00000027   -0.00000016    0.01002365
     atom   10 type  1   force =     0.00000001    0.00000001    0.01002389
     atom   11 type  2   force =     0.00000006   -0.00000004    0.00129320
     atom   12 type  2   force =    -0.00000000   -0.00000000    0.00129324
     atom   13 type  1   force =     0.00000001    0.00000034    0.01002365
     atom   14 type  1   force =    -0.00000123   -0.00000072    0.01002368
     atom   15 type  2   force =    -0.00000000    0.00000007    0.00129320
     atom   16 type  2   force =    -0.00000017   -0.00000010    0.00129320
     The Hubbard contrib.    to forces
     atom    1 type  1   force =     0.00000000    0.00000000    0.00000000
     atom    2 type  1   force =     0.00000000    0.00000000    0.00000000
     atom    3 type  2   force =     0.00000000    0.00000000    0.00000000
     atom    4 type  2   force =     0.00000000    0.00000000    0.00000000
     atom    5 type  1   force =     0.00000000    0.00000000    0.00000000
     atom    6 type  1   force =     0.00000000    0.00000000    0.00000000
     atom    7 type  2   force =     0.00000000    0.00000000    0.00000000
     atom    8 type  2   force =     0.00000000    0.00000000    0.00000000
     atom    9 type  1   force =     0.00000000    0.00000000    0.00000000
     atom   10 type  1   force =     0.00000000    0.00000000    0.00000000
     atom   11 type  2   force =     0.00000000    0.00000000    0.00000000
     atom   12 type  2   force =     0.00000000    0.00000000    0.00000000
     atom   13 type  1   force =     0.00000000    0.00000000    0.00000000
     atom   14 type  1   force =     0.00000000    0.00000000    0.00000000
     atom   15 type  2   force =     0.00000000    0.00000000    0.00000000
     atom   16 type  2   force =     0.00000000    0.00000000    0.00000000
     The SCF correction term to forces
     atom    1 type  1   force =     0.00000110    0.00000063   -0.00000826
     atom    2 type  1   force =    -0.00000000    0.00009407   -0.00001729
     atom    3 type  2   force =     0.00000374    0.00000216   -0.00000476
     atom    4 type  2   force =    -0.00000000    0.00001613   -0.00000000
     atom    5 type  1   force =    -0.00000000    0.00000000    0.00006066
     atom    6 type  1   force =     0.00008147   -0.00004704   -0.00001729
     atom    7 type  2   force =     0.00000000    0.00000000   -0.00000478
     atom    8 type  2   force =     0.00001397   -0.00000807   -0.00000000
     atom    9 type  1   force =    -0.00000110    0.00000063   -0.00000826
     atom   10 type  1   force =    -0.00000000   -0.00000000   -0.00000377
     atom   11 type  2   force =    -0.00000374    0.00000216   -0.00000476
     atom   12 type  2   force =    -0.00000000   -0.00000000   -0.00000402
     atom   13 type  1   force =    -0.00000000   -0.00000127   -0.00000826
     atom   14 type  1   force =    -0.00008147   -0.00004704   -0.00001729
     atom   15 type  2   force =    -0.00000000   -0.00000432   -0.00000476
     atom   16 type  2   force =    -0.00001397   -0.00000807   -0.00000000

     Total force =     0.005994     Total SCF correction =     0.000180

     General routines

     Parallel routines

   This run was terminated on:   3:46:41  24Aug2025

   JOB DONE.
Note: The following floating-point exceptions are signalling: IEEE_INVALID_FLAG
Note: The following floating-point exceptions are signalling: IEEE_INVALID_FLAG
Note: The following floating-point exceptions are signalling: IEEE_INVALID_FLAG
Note: The following floating-point exceptions are signalling: IEEE_INVALID_FLAG
Note: The following floating-point exceptions are signalling: IEEE_INVALID_FLAG
Note: The following floating-point exceptions are signalling: IEEE_INVALID_FLAG
Note: The following floating-point exceptions are signalling: IEEE_INVALID_FLAG
Note: The following floating-point exceptions are signalling: IEEE_INVALID_FLAG
Note: The following floating-point exceptions are signalling: IEEE_INVALID_FLAG
Note: The following floating-point exceptions are signalling: IEEE_INVALID_FLAG
Note: The following floating-point exceptions are signalling: IEEE_INVALID_FLAG
Note: The following floating-point exceptions are signalling: IEEE_INVALID_FLAG
Note: The following floating-point exceptions are signalling: IEEE_INVALID_FLAG
Note: The following floating-point exceptions are signalling: IEEE_INVALID_FLAG
Note: The following floating-point exceptions are signalling: IEEE_INVALID_FLAG
Note: The following floating-point exceptions are signalling: IEEE_INVALID_FLAG
Note: The following floating-point exceptions are signalling: IEEE_INVALID_FLAG
Note: The following floating-point exceptions are signalling: IEEE_INVALID_FLAG
Note: The following floating-point exceptions are signalling: IEEE_INVALID_FLAG
Note: The following floating-point exceptions are signalling: IEEE_INVALID_FLAG
Note: The following floating-point exceptions are signalling: IEEE_INVALID_FLAG
Note: The following floating-point exceptions are signalling: IEEE_INVALID_FLAG
Note: The following floating-point exceptions are signalling: IEEE_INVALID_FLAG
Note: The following floating-point exceptions are signalling: IEEE_INVALID_FLAG
Note: The following floating-point exceptions are signalling: IEEE_INVALID_FLAG
Note: The following floating-point exceptions are signalling: IEEE_INVALID_FLAG
Note: The following floating-point exceptions are signalling: IEEE_INVALID_FLAG
Note: The following floating-point exceptions are signalling: IEEE_INVALID_FLAG
Note: The following floating-point exceptions are signalling: IEEE_INVALID_FLAG
Note: The following floating-point exceptions are signalling: IEEE_INVALID_FLAG
Note: The following floating-point exceptions are signalling: IEEE_INVALID_FLAG
Note: The following floating-point exceptions are signalling: IEEE_INVALID_FLAG