     Program PWSCF v.7.2 starts on 23Aug2025 at 19:35: 4

     Reading input from /home/jvc/QEspresso7.2/ZnO_database/scripts/cell221.in/ZnO-3.27-1.49-221.in
Warning: card &CELL ignored
Warning: card / ignored
Warning: card &FCP ignored
Warning: card / ignored
Warning: card &RISM ignored
Warning: card / ignored

     Current dimensions of program PWSCF are:
     Max number of different atomic species (ntypx) = 10
     Max number of k-points (npk) =  40000
     Max angular momentum in pseudopotentials (lmaxx) =  4
     file Zn.upf: wavefunction(s)  3D renormalized
     Found identity + (  0.0000 -0.5000  0.0000) symmetry
     This is a supercell, fractional translations are disabled
     Message from routine setup:
     using ibrav=0 with symmetry is DISCOURAGED, use correct ibrav instead

     K-points division:     npool     =       8
     band groups division:  nbgrp     =       4
     Subspace diagonalization in iterative solution of the eigenvalue problem:
     a serial algorithm will be used

     Using Slab Decomposition

     bravais-lattice index     =            0
     lattice parameter (alat)  =      12.3577  a.u.
     unit-cell volume          =    1213.6744 (a.u.)^3
     number of atoms/cell      =           16
     number of atomic types    =            2
     number of electrons       =       144.00
     number of Kohn-Sham states=           72
     kinetic-energy cutoff     =      50.0000  Ry
     charge density cutoff     =     400.0000  Ry
     scf convergence threshold =      1.0E-08
     mixing beta               =       0.3000
     number of iterations used =            8  plain     mixing
     Exchange-correlation= PBE
                           (   1   4   3   4   0   0   0)

     celldm(1)=  12.357708  celldm(2)=   0.000000  celldm(3)=   0.000000
     celldm(4)=   0.000000  celldm(5)=   0.000000  celldm(6)=   0.000000

     crystal axes: (cart. coord. in units of alat)
               a(1) = (   1.000000   0.000000   0.000000 )
               a(2) = (  -0.500000   0.866025   0.000000 )
               a(3) = (   0.000000   0.000000   0.742605 )

     reciprocal axes: (cart. coord. in units 2 pi/alat)
               b(1) = (  1.000000  0.577350 -0.000000 )
               b(2) = (  0.000000  1.154701  0.000000 )
               b(3) = (  0.000000 -0.000000  1.346611 )

     PseudoPot. # 1 for Zn read from file:
     /home/jvc/QEspresso7.2/ZnO_database/pseudos/Zn.upf
     MD5 check sum: 7f56cabf9682ed8c977c2f7d0c5985c5
     Pseudo is Ultrasoft + core correction, Zval = 12.0
     Generated using &quot;atomic&quot; code by A. Dal Corso  v.6.2.2
     Using radial grid of 1201 points,  6 beta functions with:
                l(1) =   0
                l(2) =   0
                l(3) =   1
                l(4) =   1
                l(5) =   2
                l(6) =   2
     Q(r) pseudized with 0 coefficients

     PseudoPot. # 2 for O  read from file:
     /home/jvc/QEspresso7.2/ZnO_database/pseudos/O.upf
     MD5 check sum: 91400c9766925bcf19f520983a725ff0
     Pseudo is Ultrasoft + core correction, Zval =  6.0
     Generated using &quot;atomic&quot; code by A. Dal Corso  v.6.3MaX
     Using radial grid of 1095 points,  4 beta functions with:
                l(1) =   0
                l(2) =   0
                l(3) =   1
                l(4) =   1
     Q(r) pseudized with 0 coefficients

     atomic species   valence    mass     pseudopotential
        Zn            12.00    65.38000     Zn( 1.00)
        O              6.00    15.99900     O ( 1.00)

      6 Sym. Ops. (no inversion) found

                                    s                        frac. trans.

      isym =  1     identity

 cryst.   s( 1) = (     1          0          0      )
                  (     0          1          0      )
                  (     0          0          1      )

 cart.    s( 1) = (  1.0000000  0.0000000  0.0000000 )
                  (  0.0000000  1.0000000  0.0000000 )
                  (  0.0000000  0.0000000  1.0000000 )

      isym =  2     120 deg rotation - cryst. axis [0,0,1]

[...]

      isym =  3     120 deg rotation - cryst. axis [0,0,-1]

[...]

      isym =  4     inv. 180 deg rotation - cart. axis [1,0,0]

[...]

      isym =  5     inv. 180 deg rotation - cryst. axis [0,1,0]

[...]

      isym =  6     inv. 180 deg rotation - cryst. axis [1,1,0]

 cryst.   s( 6) = (     0         -1          0      )
                  (    -1          0          0      )
                  (     0          0          1      )

 cart.    s( 6) = (  0.5000000 -0.8660254  0.0000000 )
                  ( -0.8660254 -0.5000000  0.0000000 )
                  (  0.0000000  0.0000000  1.0000000 )

   Cartesian axes

     site n.     atom                  positions (alat units)
         1           Zn  tau(   1) = (   0.2500000   0.1443376   0.3717729  )
         2           Zn  tau(   2) = (  -0.0000000   0.2886751   0.0004705  )
         3           O   tau(   3) = (   0.2500000   0.1443376   0.6532520  )
         4           O   tau(   4) = (  -0.0000000   0.2886751   0.2819495  )
         5           Zn  tau(   5) = (   0.0000000   0.5773503   0.3717729  )
         6           Zn  tau(   6) = (  -0.2500000   0.7216878   0.0004705  )
         7           O   tau(   7) = (   0.0000000   0.5773503   0.6532520  )
         8           O   tau(   8) = (  -0.2500000   0.7216878   0.2819495  )
         9           Zn  tau(   9) = (   0.7500000   0.1443376   0.3717729  )
        10           Zn  tau(  10) = (   0.5000000   0.2886751   0.0004705  )
        11           O   tau(  11) = (   0.7500000   0.1443376   0.6532520  )
        12           O   tau(  12) = (   0.5000000   0.2886751   0.2819495  )
        13           Zn  tau(  13) = (   0.5000000   0.5773503   0.3717729  )
        14           Zn  tau(  14) = (   0.2500000   0.7216878   0.0004705  )
        15           O   tau(  15) = (   0.5000000   0.5773503   0.6532520  )
        16           O   tau(  16) = (   0.2500000   0.7216878   0.2819495  )

   Crystallographic axes

     site n.     atom                  positions (cryst. coord.)
         1           Zn  tau(   1) = (  0.3333333  0.1666667  0.5006336  )
         2           Zn  tau(   2) = (  0.1666667  0.3333333  0.0006336  )
         3           O   tau(   3) = (  0.3333333  0.1666667  0.8796764  )
         4           O   tau(   4) = (  0.1666667  0.3333333  0.3796764  )
         5           Zn  tau(   5) = (  0.3333333  0.6666667  0.5006336  )
         6           Zn  tau(   6) = (  0.1666667  0.8333333  0.0006336  )
         7           O   tau(   7) = (  0.3333333  0.6666667  0.8796764  )
         8           O   tau(   8) = (  0.1666667  0.8333333  0.3796764  )
         9           Zn  tau(   9) = (  0.8333333  0.1666667  0.5006336  )
        10           Zn  tau(  10) = (  0.6666667  0.3333333  0.0006336  )
        11           O   tau(  11) = (  0.8333333  0.1666667  0.8796764  )
        12           O   tau(  12) = (  0.6666667  0.3333333  0.3796764  )
        13           Zn  tau(  13) = (  0.8333333  0.6666667  0.5006336  )
        14           Zn  tau(  14) = (  0.6666667  0.8333333  0.0006336  )
        15           O   tau(  15) = (  0.8333333  0.6666667  0.8796764  )
        16           O   tau(  16) = (  0.6666667  0.8333333  0.3796764  )

     number of k points=    34
                       cart. coord. in units 2pi/alat
        k(    1) = (   0.0000000   0.0000000   0.0000000), wk =   0.0092593
        k(    2) = (   0.0000000   0.0000000   0.2244352), wk =   0.0185185
        k(    3) = (   0.0000000   0.0000000   0.4488704), wk =   0.0185185
        k(    4) = (   0.0000000   0.0000000  -0.6733056), wk =   0.0092593
        k(    5) = (   0.0000000   0.1924501   0.0000000), wk =   0.0555556
        k(    6) = (   0.0000000   0.1924501   0.2244352), wk =   0.0555556
        k(    7) = (   0.0000000   0.1924501   0.4488704), wk =   0.0555556
        k(    8) = (   0.0000000   0.1924501  -0.6733056), wk =   0.0555556
        k(    9) = (   0.0000000   0.3849002   0.0000000), wk =   0.0555556
        k(   10) = (   0.0000000   0.3849002   0.2244352), wk =   0.0555556
        k(   11) = (   0.0000000   0.3849002   0.4488704), wk =   0.0555556
        k(   12) = (   0.0000000   0.3849002  -0.6733056), wk =   0.0555556
        k(   13) = (   0.0000000  -0.5773503   0.0000000), wk =   0.0277778
        k(   14) = (   0.0000000  -0.5773503   0.2244352), wk =   0.0555556
        k(   15) = (   0.0000000  -0.5773503   0.4488704), wk =   0.0555556
        k(   16) = (   0.0000000  -0.5773503  -0.6733056), wk =   0.0277778
        k(   17) = (   0.1666667   0.2886751   0.0000000), wk =   0.0555556
        k(   18) = (   0.1666667   0.2886751   0.2244352), wk =   0.1111111
        k(   19) = (   0.1666667   0.2886751   0.4488704), wk =   0.1111111
        k(   20) = (   0.1666667   0.2886751  -0.6733056), wk =   0.0555556
        k(   21) = (   0.1666667   0.4811252   0.0000000), wk =   0.1111111
        k(   22) = (   0.1666667   0.4811252   0.2244352), wk =   0.1111111
        k(   23) = (   0.1666667   0.4811252   0.4488704), wk =   0.1111111
        k(   24) = (   0.1666667   0.4811252  -0.6733056), wk =   0.1111111
        k(   25) = (   0.3333333   0.5773503   0.0000000), wk =   0.0185185
        k(   26) = (   0.3333333   0.5773503   0.2244352), wk =   0.0370370
        k(   27) = (   0.3333333   0.5773503   0.4488704), wk =   0.0370370
        k(   28) = (   0.3333333   0.5773503  -0.6733056), wk =   0.0185185
        k(   29) = (   0.0000000  -0.1924501   0.2244352), wk =   0.0555556
        k(   30) = (   0.0000000  -0.1924501   0.4488704), wk =   0.0555556
        k(   31) = (   0.0000000  -0.3849002   0.2244352), wk =   0.0555556
        k(   32) = (   0.0000000  -0.3849002   0.4488704), wk =   0.0555556
        k(   33) = (  -0.1666667  -0.4811252   0.2244352), wk =   0.1111111
        k(   34) = (  -0.1666667  -0.4811252   0.4488704), wk =   0.1111111

                       cryst. coord.
        k(    1) = (   0.0000000   0.0000000   0.0000000), wk =   0.0092593
        k(    2) = (   0.0000000   0.0000000   0.1666667), wk =   0.0185185
        k(    3) = (   0.0000000   0.0000000   0.3333333), wk =   0.0185185
        k(    4) = (   0.0000000   0.0000000  -0.5000000), wk =   0.0092593
        k(    5) = (   0.0000000   0.1666667   0.0000000), wk =   0.0555556
        k(    6) = (   0.0000000   0.1666667   0.1666667), wk =   0.0555556
        k(    7) = (   0.0000000   0.1666667   0.3333333), wk =   0.0555556
        k(    8) = (   0.0000000   0.1666667  -0.5000000), wk =   0.0555556
        k(    9) = (   0.0000000   0.3333333   0.0000000), wk =   0.0555556
        k(   10) = (   0.0000000   0.3333333   0.1666667), wk =   0.0555556
        k(   11) = (   0.0000000   0.3333333   0.3333333), wk =   0.0555556
        k(   12) = (   0.0000000   0.3333333  -0.5000000), wk =   0.0555556
        k(   13) = (   0.0000000  -0.5000000   0.0000000), wk =   0.0277778
        k(   14) = (   0.0000000  -0.5000000   0.1666667), wk =   0.0555556
        k(   15) = (   0.0000000  -0.5000000   0.3333333), wk =   0.0555556
[...]
        k(   23) = (   0.1666667   0.3333333   0.3333333), wk =   0.1111111
        k(   24) = (   0.1666667   0.3333333  -0.5000000), wk =   0.1111111
        k(   25) = (   0.3333333   0.3333333   0.0000000), wk =   0.0185185
        k(   26) = (   0.3333333   0.3333333   0.1666667), wk =   0.0370370
        k(   27) = (   0.3333333   0.3333333   0.3333333), wk =   0.0370370
        k(   28) = (   0.3333333   0.3333333  -0.5000000), wk =   0.0185185
        k(   29) = (   0.0000000  -0.1666667   0.1666667), wk =   0.0555556
        k(   30) = (   0.0000000  -0.1666667   0.3333333), wk =   0.0555556
        k(   31) = (   0.0000000  -0.3333333   0.1666667), wk =   0.0555556
        k(   32) = (   0.0000000  -0.3333333   0.3333333), wk =   0.0555556
        k(   33) = (  -0.1666667  -0.3333333   0.1666667), wk =   0.1111111
        k(   34) = (  -0.1666667  -0.3333333   0.3333333), wk =   0.1111111

     Check: negative core charge=   -0.000002

     Initial potential from superposition of free atoms

     starting charge     143.9702, renormalised to     144.0000
     Starting wfcs are  104 randomized atomic wfcs

     Self-consistent Calculation

     iteration #  1     ecut=    50.00 Ry     beta= 0.30
     Davidson diagonalization with overlap

     ethr =  1.00E-02,  avg # of iterations =  2.0

     total energy              =   -1445.83298620 Ry
     estimated scf accuracy    <       2.75801528 Ry

[...]

     total energy              =   -1446.43632454 Ry
     estimated scf accuracy    <       0.00000005 Ry

     iteration # 26     ecut=    50.00 Ry     beta= 0.30
     Davidson diagonalization with overlap

     ethr =  3.76E-11,  avg # of iterations =  7.3

     End of self-consistent calculation

          k = 0.0000 0.0000 0.0000 (  7209 PWs)   bands (ev):

   -10.4334  -9.7047  -9.7046  -9.7046  -9.4800  -9.4076  -9.4076  -9.4076
     1.8820   1.8820   1.8820   2.1236   2.1236   2.1236   2.2089   2.2089
     2.2116   2.2350   2.4280   2.4280   2.4281   2.4728   2.4728   2.6632
     2.6632   2.6632   2.8616   2.8616   2.8616   3.1244   3.1244   3.1244
     3.4916   3.4916   3.5522   3.5522   3.5522   3.7075   3.7075   3.7075
     3.7931   3.7931   3.8548   3.8548   3.8548   3.9062   3.9062   3.9062
     4.0301   4.4496   4.4496   4.4496   4.5903   4.5903   4.5903   5.1965
     5.1965   5.1965   5.3982   5.3982   5.3982   6.8603   6.8604   6.8604
     7.0055   7.0055   7.3145   7.3145   7.3145   8.0898   8.0898   8.1522

     occupation numbers
     1.0000   1.0000   1.0000   1.0000   1.0000   1.0000   1.0000   1.0000
     1.0000   1.0000   1.0000   1.0000   1.0000   1.0000   1.0000   1.0000
     1.0000   1.0000   1.0000   1.0000   1.0000   1.0000   1.0000   1.0000
     1.0000   1.0000   1.0000   1.0000   1.0000   1.0000   1.0000   1.0000
     1.0000   1.0000   1.0000   1.0000   1.0000   1.0000   1.0000   1.0000
     1.0000   1.0000   1.0000   1.0000   1.0000   1.0000   1.0000   1.0000
     1.0000   1.0000   1.0000   1.0000   1.0000   1.0000   1.0000   1.0000
     1.0000   1.0000   1.0000   1.0000   1.0000   1.0000   1.0000   1.0000
     1.0000   1.0000   1.0000   1.0000   1.0000   1.0000   1.0000   1.0000

[...]

          k = 0.0000-0.3849 0.4489 (  7237 PWs)   bands (ev):

[...]

          k =-0.1667-0.4811 0.2244 (  7250 PWs)   bands (ev):

[...]

          k =-0.1667-0.4811 0.4489 (  7243 PWs)   bands (ev):

    -9.9877  -9.8446  -9.7318  -9.6035  -9.5429  -9.5345  -9.4903  -9.4622
     1.6847   1.7220   1.7587   1.7817   1.8025   1.8027   1.8846   1.9321
     2.3149   2.3272   2.3668   2.3966   2.4178   2.4437   2.4517   2.4675
     2.5516   2.5656   2.5754   2.6598   2.6800   2.7745   2.8567   2.8963
     3.5497   3.5815   3.5864   3.5877   3.6099   3.6310   3.6424   3.6848
     3.7661   3.7743   3.8031   3.8088   3.8449   3.8995   3.9532   4.0566
     4.3825   4.6094   4.7266   4.9738   5.0013   5.1935   5.2255   5.5143
     5.8409   6.0451   6.0887   6.1888   6.2449   6.3613   6.3916   6.6592
     6.7271   6.7773   7.0628   7.1470   7.3734   7.4135   7.4689   7.5842

     occupation numbers
     1.0000   1.0000   1.0000   1.0000   1.0000   1.0000   1.0000   1.0000
     1.0000   1.0000   1.0000   1.0000   1.0000   1.0000   1.0000   1.0000
     1.0000   1.0000   1.0000   1.0000   1.0000   1.0000   1.0000   1.0000
     1.0000   1.0000   1.0000   1.0000   1.0000   1.0000   1.0000   1.0000
     1.0000   1.0000   1.0000   1.0000   1.0000   1.0000   1.0000   1.0000
     1.0000   1.0000   1.0000   1.0000   1.0000   1.0000   1.0000   1.0000
     1.0000   1.0000   1.0000   1.0000   1.0000   1.0000   1.0000   1.0000
     1.0000   1.0000   1.0000   1.0000   1.0000   1.0000   1.0000   1.0000
     1.0000   1.0000   1.0000   1.0000   1.0000   1.0000   1.0000   1.0000

     highest occupied level (ev):     8.1522

!    total energy              =   -1446.43632458 Ry
     estimated scf accuracy    <          4.5E-09 Ry

     The total energy is the sum of the following terms:
     one-electron contribution =    -583.45396027 Ry
     hartree contribution      =     461.59259464 Ry
     xc contribution           =    -438.94983648 Ry
     ewald contribution        =    -885.62512247 Ry

     convergence has been achieved in  26 iterations

     Forces acting on atoms (cartesian axes, Ry/au):

     atom    1 type  1   force =    -0.00001030   -0.00000595   -0.05202450
     atom    2 type  1   force =     0.00000000   -0.00001264   -0.05202826
     atom    3 type  2   force =    -0.00000043   -0.00000025    0.05202809
     atom    4 type  2   force =     0.00000000   -0.00000105    0.05202814
     atom    5 type  1   force =     0.00000000    0.00000000   -0.05203384
     atom    6 type  1   force =    -0.00001094    0.00000632   -0.05202826
     atom    7 type  2   force =     0.00000000   -0.00000000    0.05202733
     atom    8 type  2   force =    -0.00000091    0.00000053    0.05202814
     atom    9 type  1   force =     0.00001030   -0.00000595   -0.05202450
     atom   10 type  1   force =     0.00000000   -0.00000000   -0.05203162
     atom   11 type  2   force =     0.00000043   -0.00000025    0.05202809
     atom   12 type  2   force =     0.00000000    0.00000000    0.05202770
     atom   13 type  1   force =     0.00000000    0.00001189   -0.05202450
     atom   14 type  1   force =     0.00001094    0.00000632   -0.05202826
     atom   15 type  2   force =     0.00000000    0.00000050    0.05202809
     atom   16 type  2   force =     0.00000091    0.00000053    0.05202814
     The non-local contrib.  to forces
     atom    1 type  1   force =    -0.00000516   -0.00000298   -0.25813111
     atom    2 type  1   force =     0.00000000   -0.00000603   -0.25813280
     atom    3 type  2   force =     0.00000135    0.00000078   -0.18012910
     atom    4 type  2   force =    -0.00000000   -0.00000041   -0.18012884
     atom    5 type  1   force =     0.00000000    0.00000000   -0.25813340
     atom    6 type  1   force =    -0.00000522    0.00000301   -0.25813280
     atom    7 type  2   force =     0.00000000    0.00000000   -0.18013104
     atom    8 type  2   force =    -0.00000035    0.00000020   -0.18012884
     atom    9 type  1   force =     0.00000516   -0.00000298   -0.25813111
     atom   10 type  1   force =     0.00000000    0.00000000   -0.25813278
     atom   11 type  2   force =    -0.00000135    0.00000078   -0.18012910
     atom   12 type  2   force =     0.00000000    0.00000000   -0.18012878
     atom   13 type  1   force =     0.00000000    0.00000596   -0.25813111
     atom   14 type  1   force =     0.00000522    0.00000301   -0.25813280
     atom   15 type  2   force =     0.00000000   -0.00000156   -0.18012910
     atom   16 type  2   force =     0.00000035    0.00000020   -0.18012884
     The ionic contribution  to forces
     atom    1 type  1   force =     0.00000000    0.00000001   -1.74836659
     atom    2 type  1   force =     0.00000001    0.00000000   -1.74836659
     atom    3 type  2   force =     0.00000000    0.00000001    1.74836659
     atom    4 type  2   force =     0.00000001   -0.00000000    1.74836659
     atom    5 type  1   force =     0.00000000    0.00000001   -1.74836659
     atom    6 type  1   force =     0.00000001    0.00000000   -1.74836659
     atom    7 type  2   force =     0.00000000    0.00000001    1.74836659
     atom    8 type  2   force =     0.00000001   -0.00000000    1.74836659
     atom    9 type  1   force =    -0.00000000   -0.00000000   -1.74836659
     atom   10 type  1   force =    -0.00000001   -0.00000001   -1.74836659
     atom   11 type  2   force =    -0.00000000   -0.00000000    1.74836659
     atom   12 type  2   force =    -0.00000001   -0.00000000    1.74836659
     atom   13 type  1   force =    -0.00000000   -0.00000000   -1.74836659
     atom   14 type  1   force =    -0.00000001   -0.00000001   -1.74836659
     atom   15 type  2   force =    -0.00000000   -0.00000000    1.74836659
     atom   16 type  2   force =    -0.00000001   -0.00000000    1.74836659
     The local contribution  to forces
     atom    1 type  1   force =     0.00001522    0.00000889    1.93337186
     atom    2 type  1   force =     0.00000009    0.00001858    1.93337863
     atom    3 type  2   force =     0.00000718    0.00000417   -1.51742869
     atom    4 type  2   force =     0.00000002    0.00000602   -1.51743138
     atom    5 type  1   force =     0.00000000    0.00000010    1.93338601
     atom    6 type  1   force =     0.00001614   -0.00000922    1.93337863
     atom    7 type  2   force =     0.00000000    0.00000003   -1.51743067
     atom    8 type  2   force =     0.00000523   -0.00000299   -1.51743138
     atom    9 type  1   force =    -0.00001522    0.00000889    1.93337186
     atom   10 type  1   force =    -0.00000009    0.00000005    1.93338612
     atom   11 type  2   force =    -0.00000718    0.00000417   -1.51742869
     atom   12 type  2   force =    -0.00000002    0.00000001   -1.51743205
     atom   13 type  1   force =    -0.00000000   -0.00001748    1.93337186
     atom   14 type  1   force =    -0.00001614   -0.00000922    1.93337863
     atom   15 type  2   force =    -0.00000000   -0.00000827   -1.51742869
     atom   16 type  2   force =    -0.00000523   -0.00000299   -1.51743138
     The core correction contribution to forces
     atom    1 type  1   force =    -0.00000014   -0.00000007    0.02108837
     atom    2 type  1   force =     0.00000001   -0.00000019    0.02108823
     atom    3 type  2   force =    -0.00000001   -0.00000000    0.00122228
     atom    4 type  2   force =    -0.00000000    0.00000001    0.00122227
     atom    5 type  1   force =     0.00000000    0.00000001    0.02108805
     atom    6 type  1   force =    -0.00000016    0.00000011    0.02108823
     atom    7 type  2   force =     0.00000000   -0.00000000    0.00122229
     atom    8 type  2   force =     0.00000001   -0.00000000    0.00122227
     atom    9 type  1   force =     0.00000014   -0.00000007    0.02108837
     atom   10 type  1   force =    -0.00000001    0.00000001    0.02108789
     atom   11 type  2   force =     0.00000001   -0.00000000    0.00122228
     atom   12 type  2   force =     0.00000000   -0.00000000    0.00122227
     atom   13 type  1   force =    -0.00000000    0.00000018    0.02108837
     atom   14 type  1   force =     0.00000016    0.00000011    0.02108823
     atom   15 type  2   force =    -0.00000000    0.00000001    0.00122228
     atom   16 type  2   force =    -0.00000001   -0.00000000    0.00122227
     The Hubbard contrib.    to forces
     atom    1 type  1   force =     0.00000000    0.00000000    0.00000000
     atom    2 type  1   force =     0.00000000    0.00000000    0.00000000
     atom    3 type  2   force =     0.00000000    0.00000000    0.00000000
     atom    4 type  2   force =     0.00000000    0.00000000    0.00000000
     atom    5 type  1   force =     0.00000000    0.00000000    0.00000000
     atom    6 type  1   force =     0.00000000    0.00000000    0.00000000
     atom    7 type  2   force =     0.00000000    0.00000000    0.00000000
     atom    8 type  2   force =     0.00000000    0.00000000    0.00000000
     atom    9 type  1   force =     0.00000000    0.00000000    0.00000000
     atom   10 type  1   force =     0.00000000    0.00000000    0.00000000
     atom   11 type  2   force =     0.00000000    0.00000000    0.00000000
     atom   12 type  2   force =     0.00000000    0.00000000    0.00000000
     atom   13 type  1   force =     0.00000000    0.00000000    0.00000000
     atom   14 type  1   force =     0.00000000    0.00000000    0.00000000
     atom   15 type  2   force =     0.00000000    0.00000000    0.00000000
     atom   16 type  2   force =     0.00000000    0.00000000    0.00000000
     The SCF correction term to forces
     atom    1 type  1   force =    -0.00002022   -0.00001167    0.00001457
     atom    2 type  1   force =    -0.00000000   -0.00002501    0.00000587
     atom    3 type  2   force =    -0.00000896   -0.00000517   -0.00000140
     atom    4 type  2   force =    -0.00000000   -0.00000668    0.00000110
     atom    5 type  1   force =    -0.00000000   -0.00000000   -0.00000631
     atom    6 type  1   force =    -0.00002166    0.00001250    0.00000587
     atom    7 type  2   force =    -0.00000000   -0.00000000    0.00000175
     atom    8 type  2   force =    -0.00000579    0.00000334    0.00000110
     atom    9 type  1   force =     0.00002022   -0.00001167    0.00001457
     atom   10 type  1   force =     0.00000000   -0.00000000   -0.00000467
     atom   11 type  2   force =     0.00000896   -0.00000517   -0.00000140
     atom   12 type  2   force =     0.00000000    0.00000000    0.00000127
     atom   13 type  1   force =     0.00000000    0.00002335    0.00001457
     atom   14 type  1   force =     0.00002166    0.00001250    0.00000587
     atom   15 type  2   force =     0.00000000    0.00001035   -0.00000140
     atom   16 type  2   force =     0.00000579    0.00000334    0.00000110

     Total force =     0.208112     Total SCF correction =     0.000069

     General routines

     Parallel routines

   This run was terminated on:  19:40: 7  23Aug2025

   JOB DONE.
Note: The following floating-point exceptions are signalling: IEEE_INVALID_FLAG
Note: The following floating-point exceptions are signalling: IEEE_INVALID_FLAG
Note: The following floating-point exceptions are signalling: IEEE_INVALID_FLAG
Note: The following floating-point exceptions are signalling: IEEE_INVALID_FLAG
Note: The following floating-point exceptions are signalling: IEEE_INVALID_FLAG
Note: The following floating-point exceptions are signalling: IEEE_INVALID_FLAG
Note: The following floating-point exceptions are signalling: IEEE_INVALID_FLAG
Note: The following floating-point exceptions are signalling: IEEE_INVALID_FLAG
Note: The following floating-point exceptions are signalling: IEEE_INVALID_FLAG
Note: The following floating-point exceptions are signalling: IEEE_INVALID_FLAG
Note: The following floating-point exceptions are signalling: IEEE_INVALID_FLAG
Note: The following floating-point exceptions are signalling: IEEE_INVALID_FLAG
Note: The following floating-point exceptions are signalling: IEEE_INVALID_FLAG
Note: The following floating-point exceptions are signalling: IEEE_INVALID_FLAG
Note: The following floating-point exceptions are signalling: IEEE_INVALID_FLAG
Note: The following floating-point exceptions are signalling: IEEE_INVALID_FLAG
Note: The following floating-point exceptions are signalling: IEEE_INVALID_FLAG
Note: The following floating-point exceptions are signalling: IEEE_INVALID_FLAG
Note: The following floating-point exceptions are signalling: IEEE_INVALID_FLAG
Note: The following floating-point exceptions are signalling: IEEE_INVALID_FLAG
Note: The following floating-point exceptions are signalling: IEEE_INVALID_FLAG
Note: The following floating-point exceptions are signalling: IEEE_INVALID_FLAG
Note: The following floating-point exceptions are signalling: IEEE_INVALID_FLAG
Note: The following floating-point exceptions are signalling: IEEE_INVALID_FLAG
Note: The following floating-point exceptions are signalling: IEEE_INVALID_FLAG
Note: The following floating-point exceptions are signalling: IEEE_INVALID_FLAG
Note: The following floating-point exceptions are signalling: IEEE_INVALID_FLAG
Note: The following floating-point exceptions are signalling: IEEE_INVALID_FLAG
Note: The following floating-point exceptions are signalling: IEEE_INVALID_FLAG
Note: The following floating-point exceptions are signalling: IEEE_INVALID_FLAG
Note: The following floating-point exceptions are signalling: IEEE_INVALID_FLAG
Note: The following floating-point exceptions are signalling: IEEE_INVALID_FLAG