     Program PWSCF v.7.2 starts on 24Aug2025 at  4:36:19

     Reading input from /home/jvc/QEspresso7.2/ZnO_database/scripts/cell221.in/ZnO-3.60-1.71-221.in
Warning: card &CELL ignored
Warning: card / ignored
Warning: card &FCP ignored
Warning: card / ignored
Warning: card &RISM ignored
Warning: card / ignored

     Current dimensions of program PWSCF are:
     Max number of different atomic species (ntypx) = 10
     Max number of k-points (npk) =  40000
     Max angular momentum in pseudopotentials (lmaxx) =  4
     file Zn.upf: wavefunction(s)  3D renormalized
     Found identity + (  0.0000 -0.5000  0.0000) symmetry
     This is a supercell, fractional translations are disabled
     Message from routine setup:
     using ibrav=0 with symmetry is DISCOURAGED, use correct ibrav instead

     K-points division:     npool     =       8
     band groups division:  nbgrp     =       4
     Subspace diagonalization in iterative solution of the eigenvalue problem:
     a serial algorithm will be used

     Using Slab Decomposition

     bravais-lattice index     =            0
     lattice parameter (alat)  =      13.5935  a.u.
     unit-cell volume          =    1861.2225 (a.u.)^3
     number of atoms/cell      =           16
     number of atomic types    =            2
     number of electrons       =       144.00
     number of Kohn-Sham states=           72
     kinetic-energy cutoff     =      50.0000  Ry
     charge density cutoff     =     400.0000  Ry
     scf convergence threshold =      1.0E-08
     mixing beta               =       0.3000
     number of iterations used =            8  plain     mixing
     Exchange-correlation= PBE
                           (   1   4   3   4   0   0   0)

     celldm(1)=  13.593479  celldm(2)=   0.000000  celldm(3)=   0.000000
     celldm(4)=   0.000000  celldm(5)=   0.000000  celldm(6)=   0.000000

     crystal axes: (cart. coord. in units of alat)
               a(1) = (   1.000000   0.000000   0.000000 )
               a(2) = (  -0.500000   0.866025   0.000000 )
               a(3) = (   0.000000   0.000000   0.855610 )

     reciprocal axes: (cart. coord. in units 2 pi/alat)
               b(1) = (  1.000000  0.577350 -0.000000 )
               b(2) = (  0.000000  1.154701  0.000000 )
               b(3) = (  0.000000 -0.000000  1.168757 )

     PseudoPot. # 1 for Zn read from file:
     /home/jvc/QEspresso7.2/ZnO_database/pseudos/Zn.upf
     MD5 check sum: 7f56cabf9682ed8c977c2f7d0c5985c5
     Pseudo is Ultrasoft + core correction, Zval = 12.0
     Generated using &quot;atomic&quot; code by A. Dal Corso  v.6.2.2
     Using radial grid of 1201 points,  6 beta functions with:
                l(1) =   0
                l(2) =   0
                l(3) =   1
                l(4) =   1
                l(5) =   2
                l(6) =   2
     Q(r) pseudized with 0 coefficients

     PseudoPot. # 2 for O  read from file:
     /home/jvc/QEspresso7.2/ZnO_database/pseudos/O.upf
     MD5 check sum: 91400c9766925bcf19f520983a725ff0
     Pseudo is Ultrasoft + core correction, Zval =  6.0
     Generated using &quot;atomic&quot; code by A. Dal Corso  v.6.3MaX
     Using radial grid of 1095 points,  4 beta functions with:
                l(1) =   0
                l(2) =   0
                l(3) =   1
                l(4) =   1
     Q(r) pseudized with 0 coefficients

     atomic species   valence    mass     pseudopotential
        Zn            12.00    65.38000     Zn( 1.00)
        O              6.00    15.99900     O ( 1.00)

      6 Sym. Ops. (no inversion) found

                                    s                        frac. trans.

      isym =  1     identity

 cryst.   s( 1) = (     1          0          0      )
                  (     0          1          0      )
                  (     0          0          1      )

 cart.    s( 1) = (  1.0000000  0.0000000  0.0000000 )
                  (  0.0000000  1.0000000  0.0000000 )
                  (  0.0000000  0.0000000  1.0000000 )

      isym =  2     120 deg rotation - cryst. axis [0,0,1]

[...]

      isym =  3     120 deg rotation - cryst. axis [0,0,-1]

[...]

      isym =  4     inv. 180 deg rotation - cart. axis [1,0,0]

[...]

      isym =  5     inv. 180 deg rotation - cryst. axis [0,1,0]

[...]

      isym =  6     inv. 180 deg rotation - cryst. axis [1,1,0]

 cryst.   s( 6) = (     0         -1          0      )
                  (    -1          0          0      )
                  (     0          0          1      )

 cart.    s( 6) = (  0.5000000 -0.8660254  0.0000000 )
                  ( -0.8660254 -0.5000000  0.0000000 )
                  (  0.0000000  0.0000000  1.0000000 )

   Cartesian axes

     site n.     atom                  positions (alat units)
         1           Zn  tau(   1) = (   0.2500000   0.1443376   0.4283471  )
         2           Zn  tau(   2) = (  -0.0000000   0.2886751   0.0005421  )
         3           O   tau(   3) = (   0.2500000   0.1443376   0.7526599  )
         4           O   tau(   4) = (  -0.0000000   0.2886751   0.3248549  )
         5           Zn  tau(   5) = (  -0.0000000   0.5773503   0.4283471  )
         6           Zn  tau(   6) = (  -0.2500000   0.7216878   0.0005421  )
         7           O   tau(   7) = (  -0.0000000   0.5773503   0.7526599  )
         8           O   tau(   8) = (  -0.2500000   0.7216878   0.3248549  )
         9           Zn  tau(   9) = (   0.7500000   0.1443376   0.4283471  )
        10           Zn  tau(  10) = (   0.5000000   0.2886751   0.0005421  )
        11           O   tau(  11) = (   0.7500000   0.1443376   0.7526599  )
        12           O   tau(  12) = (   0.5000000   0.2886751   0.3248549  )
        13           Zn  tau(  13) = (   0.5000000   0.5773503   0.4283471  )
        14           Zn  tau(  14) = (   0.2500000   0.7216878   0.0005421  )
        15           O   tau(  15) = (   0.5000000   0.5773503   0.7526599  )
        16           O   tau(  16) = (   0.2500000   0.7216878   0.3248549  )

   Crystallographic axes

     site n.     atom                  positions (cryst. coord.)
         1           Zn  tau(   1) = (  0.3333333  0.1666667  0.5006336  )
         2           Zn  tau(   2) = (  0.1666667  0.3333333  0.0006336  )
         3           O   tau(   3) = (  0.3333333  0.1666667  0.8796764  )
         4           O   tau(   4) = (  0.1666667  0.3333333  0.3796764  )
         5           Zn  tau(   5) = (  0.3333333  0.6666667  0.5006336  )
         6           Zn  tau(   6) = (  0.1666667  0.8333333  0.0006336  )
         7           O   tau(   7) = (  0.3333333  0.6666667  0.8796764  )
         8           O   tau(   8) = (  0.1666667  0.8333333  0.3796764  )
         9           Zn  tau(   9) = (  0.8333333  0.1666667  0.5006336  )
        10           Zn  tau(  10) = (  0.6666667  0.3333333  0.0006336  )
        11           O   tau(  11) = (  0.8333333  0.1666667  0.8796764  )
        12           O   tau(  12) = (  0.6666667  0.3333333  0.3796764  )
        13           Zn  tau(  13) = (  0.8333333  0.6666667  0.5006336  )
        14           Zn  tau(  14) = (  0.6666667  0.8333333  0.0006336  )
        15           O   tau(  15) = (  0.8333333  0.6666667  0.8796764  )
        16           O   tau(  16) = (  0.6666667  0.8333333  0.3796764  )

     number of k points=    34
                       cart. coord. in units 2pi/alat
        k(    1) = (   0.0000000   0.0000000   0.0000000), wk =   0.0092593
        k(    2) = (   0.0000000   0.0000000   0.1947928), wk =   0.0185185
        k(    3) = (   0.0000000   0.0000000   0.3895856), wk =   0.0185185
        k(    4) = (   0.0000000   0.0000000  -0.5843784), wk =   0.0092593
        k(    5) = (   0.0000000   0.1924501   0.0000000), wk =   0.0555556
        k(    6) = (   0.0000000   0.1924501   0.1947928), wk =   0.0555556
        k(    7) = (   0.0000000   0.1924501   0.3895856), wk =   0.0555556
        k(    8) = (   0.0000000   0.1924501  -0.5843784), wk =   0.0555556
        k(    9) = (   0.0000000   0.3849002   0.0000000), wk =   0.0555556
        k(   10) = (   0.0000000   0.3849002   0.1947928), wk =   0.0555556
        k(   11) = (   0.0000000   0.3849002   0.3895856), wk =   0.0555556
        k(   12) = (   0.0000000   0.3849002  -0.5843784), wk =   0.0555556
        k(   13) = (   0.0000000  -0.5773503   0.0000000), wk =   0.0277778
        k(   14) = (   0.0000000  -0.5773503   0.1947928), wk =   0.0555556
        k(   15) = (   0.0000000  -0.5773503   0.3895856), wk =   0.0555556
        k(   16) = (   0.0000000  -0.5773503  -0.5843784), wk =   0.0277778
        k(   17) = (   0.1666667   0.2886751   0.0000000), wk =   0.0555556
        k(   18) = (   0.1666667   0.2886751   0.1947928), wk =   0.1111111
        k(   19) = (   0.1666667   0.2886751   0.3895856), wk =   0.1111111
        k(   20) = (   0.1666667   0.2886751  -0.5843784), wk =   0.0555556
        k(   21) = (   0.1666667   0.4811252   0.0000000), wk =   0.1111111
        k(   22) = (   0.1666667   0.4811252   0.1947928), wk =   0.1111111
        k(   23) = (   0.1666667   0.4811252   0.3895856), wk =   0.1111111
        k(   24) = (   0.1666667   0.4811252  -0.5843784), wk =   0.1111111
        k(   25) = (   0.3333333   0.5773503   0.0000000), wk =   0.0185185
        k(   26) = (   0.3333333   0.5773503   0.1947928), wk =   0.0370370
        k(   27) = (   0.3333333   0.5773503   0.3895856), wk =   0.0370370
        k(   28) = (   0.3333333   0.5773503  -0.5843784), wk =   0.0185185
        k(   29) = (   0.0000000  -0.1924501   0.1947928), wk =   0.0555556
        k(   30) = (   0.0000000  -0.1924501   0.3895856), wk =   0.0555556
        k(   31) = (   0.0000000  -0.3849002   0.1947928), wk =   0.0555556
        k(   32) = (   0.0000000  -0.3849002   0.3895856), wk =   0.0555556
        k(   33) = (  -0.1666667  -0.4811252   0.1947928), wk =   0.1111111
        k(   34) = (  -0.1666667  -0.4811252   0.3895856), wk =   0.1111111

                       cryst. coord.
        k(    1) = (   0.0000000   0.0000000   0.0000000), wk =   0.0092593
        k(    2) = (   0.0000000   0.0000000   0.1666667), wk =   0.0185185
        k(    3) = (   0.0000000   0.0000000   0.3333333), wk =   0.0185185
        k(    4) = (   0.0000000   0.0000000  -0.5000000), wk =   0.0092593
        k(    5) = (   0.0000000   0.1666667   0.0000000), wk =   0.0555556
        k(    6) = (   0.0000000   0.1666667   0.1666667), wk =   0.0555556
        k(    7) = (   0.0000000   0.1666667   0.3333333), wk =   0.0555556
        k(    8) = (   0.0000000   0.1666667  -0.5000000), wk =   0.0555556
        k(    9) = (   0.0000000   0.3333333   0.0000000), wk =   0.0555556
        k(   10) = (   0.0000000   0.3333333   0.1666667), wk =   0.0555556
        k(   11) = (   0.0000000   0.3333333   0.3333333), wk =   0.0555556
        k(   12) = (   0.0000000   0.3333333  -0.5000000), wk =   0.0555556
        k(   13) = (   0.0000000  -0.5000000   0.0000000), wk =   0.0277778
        k(   14) = (   0.0000000  -0.5000000   0.1666667), wk =   0.0555556
        k(   15) = (   0.0000000  -0.5000000   0.3333333), wk =   0.0555556
[...]
        k(   26) = (   0.3333333   0.3333333   0.1666667), wk =   0.0370370
        k(   27) = (   0.3333333   0.3333333   0.3333333), wk =   0.0370370
        k(   28) = (   0.3333333   0.3333333  -0.5000000), wk =   0.0185185
        k(   29) = (   0.0000000  -0.1666667   0.1666667), wk =   0.0555556
        k(   30) = (   0.0000000  -0.1666667   0.3333333), wk =   0.0555556
        k(   31) = (   0.0000000  -0.3333333   0.1666667), wk =   0.0555556
        k(   32) = (   0.0000000  -0.3333333   0.3333333), wk =   0.0555556
        k(   33) = (  -0.1666667  -0.3333333   0.1666667), wk =   0.1111111
        k(   34) = (  -0.1666667  -0.3333333   0.3333333), wk =   0.1111111

     Check: negative core charge=   -0.000003

     Initial potential from superposition of free atoms

     starting charge     143.9702, renormalised to     144.0000
     Starting wfcs are  104 randomized atomic wfcs

     Self-consistent Calculation

     iteration #  1     ecut=    50.00 Ry     beta= 0.30
     Davidson diagonalization with overlap

     ethr =  1.00E-02,  avg # of iterations =  1.2

     total energy              =   -1445.15478679 Ry
     estimated scf accuracy    <       3.61931525 Ry

[...]

     c_bands:  1 eigenvalues not converged
     ethr =  4.01E-07,  avg # of iterations =  9.0

[...]

     c_bands:  1 eigenvalues not converged
     ethr =  5.17E-11,  avg # of iterations = 13.3

[...]

     total energy              =   -1446.04442320 Ry
     estimated scf accuracy    <       0.00000007 Ry

     iteration # 34     ecut=    50.00 Ry     beta= 0.30
     Davidson diagonalization with overlap

     ethr =  1.25E-11,  avg # of iterations =  6.4

     End of self-consistent calculation

          k = 0.0000 0.0000 0.0000 ( 11103 PWs)   bands (ev):

   -13.1148 -12.8595 -12.8149 -12.8148 -12.8148 -12.7368 -12.7368 -12.7368
    -2.0020  -2.0020  -1.9770  -1.9685  -1.9685  -1.9685  -1.9319  -1.9319
    -1.8783  -1.8783  -1.8783  -1.7994  -1.7994  -1.7994  -1.7109  -1.7109
    -1.7109  -1.6881  -1.6881  -1.6881  -1.6074  -1.6074  -1.6074  -1.5951
    -1.5951  -1.5618  -1.5288  -1.5288  -1.5200  -1.5200  -1.5200  -1.5023
    -1.5023  -1.5023  -1.4832  -1.4832  -1.4832  -1.4628  -1.4628  -1.4628
    -0.4219  -0.2177  -0.2177  -0.2177   0.2066   0.2066   0.2066   1.1105
     1.1105   1.1105   1.6870   1.6870   1.6870   2.0660   2.0660   2.0660
     2.3213   2.3213   2.3213   2.4687   2.4687   2.6736   2.8232   2.8232

     occupation numbers
     1.0000   1.0000   1.0000   1.0000   1.0000   1.0000   1.0000   1.0000
     1.0000   1.0000   1.0000   1.0000   1.0000   1.0000   1.0000   1.0000
     1.0000   1.0000   1.0000   1.0000   1.0000   1.0000   1.0000   1.0000
     1.0000   1.0000   1.0000   1.0000   1.0000   1.0000   1.0000   1.0000
     1.0000   1.0000   1.0000   1.0000   1.0000   1.0000   1.0000   1.0000
     1.0000   1.0000   1.0000   1.0000   1.0000   1.0000   1.0000   1.0000
     1.0000   1.0000   1.0000   1.0000   1.0000   1.0000   1.0000   1.0000
     1.0000   1.0000   1.0000   1.0000   1.0000   1.0000   1.0000   1.0000
     1.0000   1.0000   1.0000   1.0000   1.0000   1.0000   1.0000   1.0000

[...]

          k = 0.0000-0.3849 0.3896 ( 11113 PWs)   bands (ev):

[...]

          k =-0.1667-0.4811 0.1948 ( 11114 PWs)   bands (ev):

[...]

          k =-0.1667-0.4811 0.3896 ( 11115 PWs)   bands (ev):

   -12.9532 -12.8897 -12.8520 -12.8412 -12.8087 -12.7786 -12.7664 -12.7455
    -1.9849  -1.9681  -1.9397  -1.9284  -1.9244  -1.9170  -1.9118  -1.8962
    -1.8908  -1.8780  -1.8470  -1.8339  -1.8329  -1.8228  -1.7995  -1.7883
    -1.7858  -1.7685  -1.7493  -1.7491  -1.7394  -1.7345  -1.6504  -1.6409
    -1.5870  -1.5834  -1.5763  -1.5725  -1.5673  -1.5574  -1.5532  -1.5398
    -1.5396  -1.5315  -1.5145  -1.5109  -1.4926  -1.4632  -1.4231  -1.3967
    -0.0124   0.0758   0.1533   0.2521   0.3260   0.3534   0.5743   0.9449
     1.0567   1.5280   1.5524   1.5612   1.6919   1.7717   1.8640   2.0101
     2.0143   2.0945   2.2124   2.2331   2.2336   2.3134   2.3353   2.4665

     occupation numbers
     1.0000   1.0000   1.0000   1.0000   1.0000   1.0000   1.0000   1.0000
     1.0000   1.0000   1.0000   1.0000   1.0000   1.0000   1.0000   1.0000
     1.0000   1.0000   1.0000   1.0000   1.0000   1.0000   1.0000   1.0000
     1.0000   1.0000   1.0000   1.0000   1.0000   1.0000   1.0000   1.0000
     1.0000   1.0000   1.0000   1.0000   1.0000   1.0000   1.0000   1.0000
     1.0000   1.0000   1.0000   1.0000   1.0000   1.0000   1.0000   1.0000
     1.0000   1.0000   1.0000   1.0000   1.0000   1.0000   1.0000   1.0000
     1.0000   1.0000   1.0000   1.0000   1.0000   1.0000   1.0000   1.0000
     1.0000   1.0000   1.0000   1.0000   1.0000   1.0000   1.0000   1.0000

     highest occupied level (ev):     2.8232

!    total energy              =   -1446.04442320 Ry
     estimated scf accuracy    <          5.6E-09 Ry

     The total energy is the sum of the following terms:
     one-electron contribution =    -769.71679280 Ry
     hartree contribution      =     528.97163069 Ry
     xc contribution           =    -435.85606196 Ry
     ewald contribution        =    -769.44319914 Ry

     convergence has been achieved in  34 iterations

     Forces acting on atoms (cartesian axes, Ry/au):

     atom    1 type  1   force =    -0.00000143   -0.00000083   -0.00967743
     atom    2 type  1   force =     0.00000000   -0.00000463   -0.00967863
     atom    3 type  2   force =    -0.00000001   -0.00000000    0.00967843
     atom    4 type  2   force =    -0.00000000   -0.00000012    0.00967818
     atom    5 type  1   force =     0.00000000    0.00000000   -0.00967810
     atom    6 type  1   force =    -0.00000401    0.00000232   -0.00967863
     atom    7 type  2   force =     0.00000000   -0.00000000    0.00967789
     atom    8 type  2   force =    -0.00000010    0.00000006    0.00967818
     atom    9 type  1   force =     0.00000143   -0.00000083   -0.00967743
     atom   10 type  1   force =     0.00000000    0.00000000   -0.00967962
     atom   11 type  2   force =     0.00000001   -0.00000000    0.00967843
     atom   12 type  2   force =     0.00000000    0.00000000    0.00967817
     atom   13 type  1   force =     0.00000000    0.00000165   -0.00967743
     atom   14 type  1   force =     0.00000401    0.00000232   -0.00967863
     atom   15 type  2   force =     0.00000000    0.00000001    0.00967843
     atom   16 type  2   force =     0.00000010    0.00000006    0.00967818
     The non-local contrib.  to forces
     atom    1 type  1   force =    -0.00000082   -0.00000048    0.12902147
     atom    2 type  1   force =     0.00000000   -0.00000028    0.12902121
     atom    3 type  2   force =    -0.00000021   -0.00000012    0.15968994
     atom    4 type  2   force =     0.00000000    0.00000014    0.15968897
     atom    5 type  1   force =     0.00000000   -0.00000000    0.12902326
     atom    6 type  1   force =    -0.00000024    0.00000014    0.12902121
     atom    7 type  2   force =     0.00000000    0.00000000    0.15968962
     atom    8 type  2   force =     0.00000012   -0.00000007    0.15968897
     atom    9 type  1   force =     0.00000082   -0.00000048    0.12902147
     atom   10 type  1   force =     0.00000000    0.00000000    0.12902085
     atom   11 type  2   force =     0.00000021   -0.00000012    0.15968994
     atom   12 type  2   force =     0.00000000    0.00000000    0.15968956
     atom   13 type  1   force =     0.00000000    0.00000095    0.12902147
     atom   14 type  1   force =     0.00000024    0.00000014    0.12902121
     atom   15 type  2   force =     0.00000000    0.00000024    0.15968994
     atom   16 type  2   force =    -0.00000012   -0.00000007    0.15968897
     The ionic contribution  to forces
     atom    1 type  1   force =     0.00000000    0.00000002    1.00748788
     atom    2 type  1   force =     0.00000001    0.00000002    1.00748788
     atom    3 type  2   force =    -0.00000000    0.00000001   -1.00748788
     atom    4 type  2   force =     0.00000001    0.00000001   -1.00748788
     atom    5 type  1   force =     0.00000000   -0.00000001    1.00748788
     atom    6 type  1   force =    -0.00000000   -0.00000002    1.00748788
     atom    7 type  2   force =     0.00000000   -0.00000001   -1.00748788
     atom    8 type  2   force =    -0.00000000   -0.00000001   -1.00748788
     atom    9 type  1   force =    -0.00000002    0.00000002    1.00748788
     atom   10 type  1   force =     0.00000001    0.00000001    1.00748788
     atom   11 type  2   force =    -0.00000001    0.00000001   -1.00748788
     atom   12 type  2   force =     0.00000001    0.00000000   -1.00748788
     atom   13 type  1   force =     0.00000000   -0.00000002    1.00748788
     atom   14 type  1   force =    -0.00000001   -0.00000002    1.00748788
     atom   15 type  2   force =     0.00000000   -0.00000001   -1.00748788
     atom   16 type  2   force =    -0.00000001   -0.00000001   -1.00748788
     The local contribution  to forces
     atom    1 type  1   force =     0.00000200    0.00000127   -1.13919591
     atom    2 type  1   force =     0.00000010    0.00000535   -1.13919380
     atom    3 type  2   force =     0.00000030    0.00000020    0.85899361
     atom    4 type  2   force =     0.00000003    0.00000186    0.85899256
     atom    5 type  1   force =     0.00000010   -0.00000006   -1.13919532
     atom    6 type  1   force =     0.00000458   -0.00000276   -1.13919380
     atom    7 type  2   force =     0.00000003   -0.00000001    0.85899451
     atom    8 type  2   force =     0.00000160   -0.00000095    0.85899256
     atom    9 type  1   force =    -0.00000219    0.00000127   -1.13919591
     atom   10 type  1   force =     0.00000010    0.00000006   -1.13919172
     atom   11 type  2   force =    -0.00000035    0.00000020    0.85899361
     atom   12 type  2   force =     0.00000003    0.00000001    0.85899334
     atom   13 type  1   force =     0.00000010   -0.00000237   -1.13919591
     atom   14 type  1   force =    -0.00000458   -0.00000276   -1.13919380
     atom   15 type  2   force =     0.00000003   -0.00000036    0.85899361
     atom   16 type  2   force =    -0.00000160   -0.00000095    0.85899256
     The core correction contribution to forces
     atom    1 type  1   force =    -0.00000002   -0.00000000   -0.00698991
     atom    2 type  1   force =     0.00000001   -0.00000021   -0.00698950
     atom    3 type  2   force =     0.00000000    0.00000000   -0.00151532
     atom    4 type  2   force =    -0.00000000    0.00000000   -0.00151612
     atom    5 type  1   force =     0.00000001   -0.00000001   -0.00699015
     atom    6 type  1   force =    -0.00000019    0.00000009   -0.00698950
     atom    7 type  2   force =    -0.00000000    0.00000000   -0.00151531
     atom    8 type  2   force =     0.00000000   -0.00000000   -0.00151612
     atom    9 type  1   force =     0.00000000   -0.00000000   -0.00698991
     atom   10 type  1   force =     0.00000001    0.00000001   -0.00698959
     atom   11 type  2   force =    -0.00000000    0.00000000   -0.00151532
     atom   12 type  2   force =    -0.00000000   -0.00000000   -0.00151613
     atom   13 type  1   force =     0.00000001    0.00000002   -0.00698991
     atom   14 type  1   force =     0.00000019    0.00000009   -0.00698950
     atom   15 type  2   force =    -0.00000000   -0.00000000   -0.00151532
     atom   16 type  2   force =    -0.00000000   -0.00000000   -0.00151612
     The Hubbard contrib.    to forces
     atom    1 type  1   force =     0.00000000    0.00000000    0.00000000
     atom    2 type  1   force =     0.00000000    0.00000000    0.00000000
     atom    3 type  2   force =     0.00000000    0.00000000    0.00000000
     atom    4 type  2   force =     0.00000000    0.00000000    0.00000000
     atom    5 type  1   force =     0.00000000    0.00000000    0.00000000
     atom    6 type  1   force =     0.00000000    0.00000000    0.00000000
     atom    7 type  2   force =     0.00000000    0.00000000    0.00000000
     atom    8 type  2   force =     0.00000000    0.00000000    0.00000000
     atom    9 type  1   force =     0.00000000    0.00000000    0.00000000
     atom   10 type  1   force =     0.00000000    0.00000000    0.00000000
     atom   11 type  2   force =     0.00000000    0.00000000    0.00000000
     atom   12 type  2   force =     0.00000000    0.00000000    0.00000000
     atom   13 type  1   force =     0.00000000    0.00000000    0.00000000
     atom   14 type  1   force =     0.00000000    0.00000000    0.00000000
     atom   15 type  2   force =     0.00000000    0.00000000    0.00000000
     atom   16 type  2   force =     0.00000000    0.00000000    0.00000000
     The SCF correction term to forces
     atom    1 type  1   force =    -0.00000271   -0.00000156   -0.00000119
     atom    2 type  1   force =     0.00000000   -0.00000950   -0.00000466
     atom    3 type  2   force =    -0.00000013   -0.00000008   -0.00000216
     atom    4 type  2   force =     0.00000000   -0.00000212    0.00000042
     atom    5 type  1   force =     0.00000000   -0.00000000   -0.00000400
     atom    6 type  1   force =    -0.00000823    0.00000475   -0.00000466
     atom    7 type  2   force =     0.00000000   -0.00000000   -0.00000328
     atom    8 type  2   force =    -0.00000184    0.00000106    0.00000042
     atom    9 type  1   force =     0.00000271   -0.00000156   -0.00000119
     atom   10 type  1   force =     0.00000000    0.00000000   -0.00000727
     atom   11 type  2   force =     0.00000013   -0.00000008   -0.00000216
     atom   12 type  2   force =     0.00000000    0.00000000   -0.00000096
     atom   13 type  1   force =     0.00000000    0.00000313   -0.00000119
     atom   14 type  1   force =     0.00000823    0.00000475   -0.00000466
     atom   15 type  2   force =     0.00000000    0.00000015   -0.00000216
     atom   16 type  2   force =     0.00000184    0.00000106    0.00000042

     Total force =     0.038713     Total SCF correction =     0.000022

     General routines

     Parallel routines

   This run was terminated on:   4:47: 7  24Aug2025

   JOB DONE.
Note: The following floating-point exceptions are signalling: IEEE_INVALID_FLAG
Note: The following floating-point exceptions are signalling: IEEE_INVALID_FLAG
Note: The following floating-point exceptions are signalling: IEEE_INVALID_FLAG
Note: The following floating-point exceptions are signalling: IEEE_INVALID_FLAG
Note: The following floating-point exceptions are signalling: IEEE_INVALID_FLAG
Note: The following floating-point exceptions are signalling: IEEE_INVALID_FLAG
Note: The following floating-point exceptions are signalling: IEEE_INVALID_FLAG
Note: The following floating-point exceptions are signalling: IEEE_INVALID_FLAG
Note: The following floating-point exceptions are signalling: IEEE_INVALID_FLAG
Note: The following floating-point exceptions are signalling: IEEE_INVALID_FLAG
Note: The following floating-point exceptions are signalling: IEEE_INVALID_FLAG
Note: The following floating-point exceptions are signalling: IEEE_INVALID_FLAG
Note: The following floating-point exceptions are signalling: IEEE_INVALID_FLAG
Note: The following floating-point exceptions are signalling: IEEE_INVALID_FLAG
Note: The following floating-point exceptions are signalling: IEEE_INVALID_FLAG
Note: The following floating-point exceptions are signalling: IEEE_INVALID_FLAG
Note: The following floating-point exceptions are signalling: IEEE_INVALID_FLAG
Note: The following floating-point exceptions are signalling: IEEE_INVALID_FLAG
Note: The following floating-point exceptions are signalling: IEEE_INVALID_FLAG
Note: The following floating-point exceptions are signalling: IEEE_INVALID_FLAG
Note: The following floating-point exceptions are signalling: IEEE_INVALID_FLAG
Note: The following floating-point exceptions are signalling: IEEE_INVALID_FLAG
Note: The following floating-point exceptions are signalling: IEEE_INVALID_FLAG
Note: The following floating-point exceptions are signalling: IEEE_INVALID_FLAG
Note: The following floating-point exceptions are signalling: IEEE_INVALID_FLAG
Note: The following floating-point exceptions are signalling: IEEE_INVALID_FLAG
Note: The following floating-point exceptions are signalling: IEEE_INVALID_FLAG
Note: The following floating-point exceptions are signalling: IEEE_INVALID_FLAG
Note: The following floating-point exceptions are signalling: IEEE_INVALID_FLAG
Note: The following floating-point exceptions are signalling: IEEE_INVALID_FLAG
Note: The following floating-point exceptions are signalling: IEEE_INVALID_FLAG
Note: The following floating-point exceptions are signalling: IEEE_INVALID_FLAG