     Program PWSCF v.7.2 starts on 24Aug2025 at  0: 9:49

     Reading input from /home/jvc/QEspresso7.2/ZnO_database/scripts/cell221.in/ZnO-3.47-1.55-221.in
Warning: card &CELL ignored
Warning: card / ignored
Warning: card &FCP ignored
Warning: card / ignored
Warning: card &RISM ignored
Warning: card / ignored

     Current dimensions of program PWSCF are:
     Max number of different atomic species (ntypx) = 10
     Max number of k-points (npk) =  40000
     Max angular momentum in pseudopotentials (lmaxx) =  4
     file Zn.upf: wavefunction(s)  3D renormalized
     Found identity + ( -0.0000  0.5000  0.0000) symmetry
     This is a supercell, fractional translations are disabled
     Message from routine setup:
     using ibrav=0 with symmetry is DISCOURAGED, use correct ibrav instead

     K-points division:     npool     =       8
     band groups division:  nbgrp     =       4
     Subspace diagonalization in iterative solution of the eigenvalue problem:
     a serial algorithm will be used

     Using Slab Decomposition

     bravais-lattice index     =            0
     lattice parameter (alat)  =      13.0992  a.u.
     unit-cell volume          =    1508.3537 (a.u.)^3
     number of atoms/cell      =           16
     number of atomic types    =            2
     number of electrons       =       144.00
     number of Kohn-Sham states=           72
     kinetic-energy cutoff     =      50.0000  Ry
     charge density cutoff     =     400.0000  Ry
     scf convergence threshold =      1.0E-08
     mixing beta               =       0.3000
     number of iterations used =            8  plain     mixing
     Exchange-correlation= PBE
                           (   1   4   3   4   0   0   0)

     celldm(1)=  13.099170  celldm(2)=   0.000000  celldm(3)=   0.000000
     celldm(4)=   0.000000  celldm(5)=   0.000000  celldm(6)=   0.000000

     crystal axes: (cart. coord. in units of alat)
               a(1) = (   1.000000   0.000000   0.000000 )
               a(2) = (  -0.500000   0.866025   0.000000 )
               a(3) = (   0.000000   0.000000   0.774892 )

     reciprocal axes: (cart. coord. in units 2 pi/alat)
               b(1) = (  1.000000  0.577350 -0.000000 )
               b(2) = (  0.000000  1.154701  0.000000 )
               b(3) = (  0.000000 -0.000000  1.290502 )

     PseudoPot. # 1 for Zn read from file:
     /home/jvc/QEspresso7.2/ZnO_database/pseudos/Zn.upf
     MD5 check sum: 7f56cabf9682ed8c977c2f7d0c5985c5
     Pseudo is Ultrasoft + core correction, Zval = 12.0
     Generated using &quot;atomic&quot; code by A. Dal Corso  v.6.2.2
     Using radial grid of 1201 points,  6 beta functions with:
                l(1) =   0
                l(2) =   0
                l(3) =   1
                l(4) =   1
                l(5) =   2
                l(6) =   2
     Q(r) pseudized with 0 coefficients

     PseudoPot. # 2 for O  read from file:
     /home/jvc/QEspresso7.2/ZnO_database/pseudos/O.upf
     MD5 check sum: 91400c9766925bcf19f520983a725ff0
     Pseudo is Ultrasoft + core correction, Zval =  6.0
     Generated using &quot;atomic&quot; code by A. Dal Corso  v.6.3MaX
     Using radial grid of 1095 points,  4 beta functions with:
                l(1) =   0
                l(2) =   0
                l(3) =   1
                l(4) =   1
     Q(r) pseudized with 0 coefficients

     atomic species   valence    mass     pseudopotential
        Zn            12.00    65.38000     Zn( 1.00)
        O              6.00    15.99900     O ( 1.00)

      6 Sym. Ops. (no inversion) found

                                    s                        frac. trans.

      isym =  1     identity

 cryst.   s( 1) = (     1          0          0      )
                  (     0          1          0      )
                  (     0          0          1      )

 cart.    s( 1) = (  1.0000000  0.0000000  0.0000000 )
                  (  0.0000000  1.0000000  0.0000000 )
                  (  0.0000000  0.0000000  1.0000000 )

      isym =  2     120 deg rotation - cryst. axis [0,0,1]

[...]

      isym =  3     120 deg rotation - cryst. axis [0,0,-1]

[...]

      isym =  4     inv. 180 deg rotation - cart. axis [1,0,0]

[...]

      isym =  5     inv. 180 deg rotation - cryst. axis [0,1,0]

[...]

      isym =  6     inv. 180 deg rotation - cryst. axis [1,1,0]

 cryst.   s( 6) = (     0         -1          0      )
                  (    -1          0          0      )
                  (     0          0          1      )

 cart.    s( 6) = (  0.5000000 -0.8660254  0.0000000 )
                  ( -0.8660254 -0.5000000  0.0000000 )
                  (  0.0000000  0.0000000  1.0000000 )

   Cartesian axes

     site n.     atom                  positions (alat units)
         1           Zn  tau(   1) = (   0.2500000   0.1443376   0.3879370  )
         2           Zn  tau(   2) = (  -0.0000000   0.2886751   0.0004910  )
         3           O   tau(   3) = (   0.2500000   0.1443376   0.6816542  )
         4           O   tau(   4) = (  -0.0000000   0.2886751   0.2942082  )
         5           Zn  tau(   5) = (   0.0000000   0.5773503   0.3879370  )
         6           Zn  tau(   6) = (  -0.2500000   0.7216878   0.0004910  )
         7           O   tau(   7) = (   0.0000000   0.5773503   0.6816542  )
         8           O   tau(   8) = (  -0.2500000   0.7216878   0.2942082  )
         9           Zn  tau(   9) = (   0.7500000   0.1443376   0.3879370  )
        10           Zn  tau(  10) = (   0.5000000   0.2886751   0.0004910  )
        11           O   tau(  11) = (   0.7500000   0.1443376   0.6816542  )
        12           O   tau(  12) = (   0.5000000   0.2886751   0.2942082  )
        13           Zn  tau(  13) = (   0.5000000   0.5773503   0.3879370  )
        14           Zn  tau(  14) = (   0.2500000   0.7216878   0.0004910  )
        15           O   tau(  15) = (   0.5000000   0.5773503   0.6816542  )
        16           O   tau(  16) = (   0.2500000   0.7216878   0.2942082  )

   Crystallographic axes

     site n.     atom                  positions (cryst. coord.)
         1           Zn  tau(   1) = (  0.3333333  0.1666667  0.5006336  )
         2           Zn  tau(   2) = (  0.1666667  0.3333333  0.0006336  )
         3           O   tau(   3) = (  0.3333333  0.1666667  0.8796764  )
         4           O   tau(   4) = (  0.1666667  0.3333333  0.3796764  )
         5           Zn  tau(   5) = (  0.3333333  0.6666667  0.5006336  )
         6           Zn  tau(   6) = (  0.1666667  0.8333333  0.0006336  )
         7           O   tau(   7) = (  0.3333333  0.6666667  0.8796764  )
         8           O   tau(   8) = (  0.1666667  0.8333333  0.3796764  )
         9           Zn  tau(   9) = (  0.8333333  0.1666667  0.5006336  )
        10           Zn  tau(  10) = (  0.6666667  0.3333333  0.0006336  )
        11           O   tau(  11) = (  0.8333333  0.1666667  0.8796764  )
        12           O   tau(  12) = (  0.6666667  0.3333333  0.3796764  )
        13           Zn  tau(  13) = (  0.8333333  0.6666667  0.5006336  )
        14           Zn  tau(  14) = (  0.6666667  0.8333333  0.0006336  )
        15           O   tau(  15) = (  0.8333333  0.6666667  0.8796764  )
        16           O   tau(  16) = (  0.6666667  0.8333333  0.3796764  )

     number of k points=    34
                       cart. coord. in units 2pi/alat
        k(    1) = (   0.0000000   0.0000000   0.0000000), wk =   0.0092593
        k(    2) = (   0.0000000   0.0000000   0.2150837), wk =   0.0185185
        k(    3) = (   0.0000000   0.0000000   0.4301675), wk =   0.0185185
        k(    4) = (   0.0000000   0.0000000  -0.6452512), wk =   0.0092593
        k(    5) = (   0.0000000   0.1924501   0.0000000), wk =   0.0555556
        k(    6) = (   0.0000000   0.1924501   0.2150837), wk =   0.0555556
        k(    7) = (   0.0000000   0.1924501   0.4301675), wk =   0.0555556
        k(    8) = (   0.0000000   0.1924501  -0.6452512), wk =   0.0555556
        k(    9) = (   0.0000000   0.3849002   0.0000000), wk =   0.0555556
        k(   10) = (   0.0000000   0.3849002   0.2150837), wk =   0.0555556
        k(   11) = (   0.0000000   0.3849002   0.4301675), wk =   0.0555556
        k(   12) = (   0.0000000   0.3849002  -0.6452512), wk =   0.0555556
        k(   13) = (   0.0000000  -0.5773503   0.0000000), wk =   0.0277778
        k(   14) = (   0.0000000  -0.5773503   0.2150837), wk =   0.0555556
        k(   15) = (   0.0000000  -0.5773503   0.4301675), wk =   0.0555556
        k(   16) = (   0.0000000  -0.5773503  -0.6452512), wk =   0.0277778
        k(   17) = (   0.1666667   0.2886751   0.0000000), wk =   0.0555556
        k(   18) = (   0.1666667   0.2886751   0.2150837), wk =   0.1111111
        k(   19) = (   0.1666667   0.2886751   0.4301675), wk =   0.1111111
        k(   20) = (   0.1666667   0.2886751  -0.6452512), wk =   0.0555556
        k(   21) = (   0.1666667   0.4811252   0.0000000), wk =   0.1111111
        k(   22) = (   0.1666667   0.4811252   0.2150837), wk =   0.1111111
        k(   23) = (   0.1666667   0.4811252   0.4301675), wk =   0.1111111
        k(   24) = (   0.1666667   0.4811252  -0.6452512), wk =   0.1111111
        k(   25) = (   0.3333333   0.5773503   0.0000000), wk =   0.0185185
        k(   26) = (   0.3333333   0.5773503   0.2150837), wk =   0.0370370
        k(   27) = (   0.3333333   0.5773503   0.4301675), wk =   0.0370370
        k(   28) = (   0.3333333   0.5773503  -0.6452512), wk =   0.0185185
        k(   29) = (   0.0000000  -0.1924501   0.2150837), wk =   0.0555556
        k(   30) = (   0.0000000  -0.1924501   0.4301675), wk =   0.0555556
        k(   31) = (   0.0000000  -0.3849002   0.2150837), wk =   0.0555556
        k(   32) = (   0.0000000  -0.3849002   0.4301675), wk =   0.0555556
        k(   33) = (  -0.1666667  -0.4811252   0.2150837), wk =   0.1111111
        k(   34) = (  -0.1666667  -0.4811252   0.4301675), wk =   0.1111111

                       cryst. coord.
        k(    1) = (   0.0000000   0.0000000   0.0000000), wk =   0.0092593
        k(    2) = (   0.0000000   0.0000000   0.1666667), wk =   0.0185185
        k(    3) = (   0.0000000   0.0000000   0.3333333), wk =   0.0185185
        k(    4) = (   0.0000000   0.0000000  -0.5000000), wk =   0.0092593
        k(    5) = (   0.0000000   0.1666667   0.0000000), wk =   0.0555556
        k(    6) = (   0.0000000   0.1666667   0.1666667), wk =   0.0555556
        k(    7) = (   0.0000000   0.1666667   0.3333333), wk =   0.0555556
        k(    8) = (   0.0000000   0.1666667  -0.5000000), wk =   0.0555556
        k(    9) = (   0.0000000   0.3333333   0.0000000), wk =   0.0555556
        k(   10) = (   0.0000000   0.3333333   0.1666667), wk =   0.0555556
        k(   11) = (   0.0000000   0.3333333   0.3333333), wk =   0.0555556
        k(   12) = (   0.0000000   0.3333333  -0.5000000), wk =   0.0555556
        k(   13) = (   0.0000000  -0.5000000   0.0000000), wk =   0.0277778
        k(   14) = (   0.0000000  -0.5000000   0.1666667), wk =   0.0555556
        k(   15) = (   0.0000000  -0.5000000   0.3333333), wk =   0.0555556
[...]
        k(   23) = (   0.1666667   0.3333333   0.3333333), wk =   0.1111111
        k(   24) = (   0.1666667   0.3333333  -0.5000000), wk =   0.1111111
        k(   25) = (   0.3333333   0.3333333   0.0000000), wk =   0.0185185
        k(   26) = (   0.3333333   0.3333333   0.1666667), wk =   0.0370370
        k(   27) = (   0.3333333   0.3333333   0.3333333), wk =   0.0370370
        k(   28) = (   0.3333333   0.3333333  -0.5000000), wk =   0.0185185
        k(   29) = (   0.0000000  -0.1666667   0.1666667), wk =   0.0555556
        k(   30) = (   0.0000000  -0.1666667   0.3333333), wk =   0.0555556
        k(   31) = (   0.0000000  -0.3333333   0.1666667), wk =   0.0555556
        k(   32) = (   0.0000000  -0.3333333   0.3333333), wk =   0.0555556
        k(   33) = (  -0.1666667  -0.3333333   0.1666667), wk =   0.1111111
        k(   34) = (  -0.1666667  -0.3333333   0.3333333), wk =   0.1111111

     Check: negative core charge=   -0.000002

     Initial potential from superposition of free atoms

     starting charge     143.9702, renormalised to     144.0000
     Starting wfcs are  104 randomized atomic wfcs

     Self-consistent Calculation

     iteration #  1     ecut=    50.00 Ry     beta= 0.30
     Davidson diagonalization with overlap

     ethr =  1.00E-02,  avg # of iterations =  1.9

     total energy              =   -1445.74776193 Ry
     estimated scf accuracy    <       3.00556941 Ry

[...]

     total energy              =   -1446.45920282 Ry
     estimated scf accuracy    <       0.00000001 Ry

     iteration # 40     ecut=    50.00 Ry     beta= 0.30
     Davidson diagonalization with overlap

     ethr =  8.21E-12,  avg # of iterations =  3.8

     End of self-consistent calculation

          k = 0.0000 0.0000 0.0000 (  9005 PWs)   bands (ev):

   -11.8794 -11.4128 -11.4128 -11.4128 -11.3277 -11.2413 -11.2413 -11.2413
    -0.0783  -0.0783  -0.0783   0.0061   0.0061   0.0103   0.1664   0.1664
     0.1699   0.1699   0.1699   0.2482   0.2482   0.2482   0.4473   0.4473
     0.4473   0.5397   0.5397   0.5397   0.5898   0.5898   0.5898   0.5933
     0.7380   0.7380   0.7963   0.7963   0.7963   0.8600   0.8600   0.8600
     0.9016   0.9016   0.9326   0.9326   0.9326   0.9768   0.9768   0.9768
     1.1244   1.5940   1.5940   1.5940   2.0957   2.0957   2.0957   2.7102
     2.7102   2.7102   3.2086   3.2086   3.2086   4.0486   4.0486   4.0486
     4.3396   4.3396   4.4563   4.4563   4.4563   5.0464   5.0464   5.0654

     occupation numbers
     1.0000   1.0000   1.0000   1.0000   1.0000   1.0000   1.0000   1.0000
     1.0000   1.0000   1.0000   1.0000   1.0000   1.0000   1.0000   1.0000
     1.0000   1.0000   1.0000   1.0000   1.0000   1.0000   1.0000   1.0000
     1.0000   1.0000   1.0000   1.0000   1.0000   1.0000   1.0000   1.0000
     1.0000   1.0000   1.0000   1.0000   1.0000   1.0000   1.0000   1.0000
     1.0000   1.0000   1.0000   1.0000   1.0000   1.0000   1.0000   1.0000
     1.0000   1.0000   1.0000   1.0000   1.0000   1.0000   1.0000   1.0000
     1.0000   1.0000   1.0000   1.0000   1.0000   1.0000   1.0000   1.0000
     1.0000   1.0000   1.0000   1.0000   1.0000   1.0000   1.0000   1.0000

[...]

          k = 0.0000-0.3849 0.4302 (  8991 PWs)   bands (ev):

[...]

          k =-0.1667-0.4811 0.2151 (  9003 PWs)   bands (ev):

[...]

          k =-0.1667-0.4811 0.4302 (  8997 PWs)   bands (ev):

   -11.6031 -11.5102 -11.4378 -11.3826 -11.3329 -11.3196 -11.3001 -11.2735
    -0.1580  -0.1461  -0.1006  -0.0440  -0.0364  -0.0207   0.0132   0.0774
     0.1122   0.1434   0.1721   0.1750   0.2090   0.2263   0.2281   0.2489
     0.2613   0.2976   0.3402   0.3425   0.4053   0.4092   0.5023   0.5240
     0.7816   0.7827   0.7893   0.7931   0.7970   0.8140   0.8173   0.8437
     0.8801   0.8865   0.9077   0.9174   0.9466   0.9873   1.0229   1.0811
     1.7127   1.8853   1.9782   2.1428   2.2964   2.3425   2.6211   2.6348
     3.0721   3.3576   3.4678   3.4979   3.5664   3.7175   3.8092   3.8754
     4.0224   4.0847   4.1930   4.3310   4.4191   4.4848   4.5387   4.5844

     occupation numbers
     1.0000   1.0000   1.0000   1.0000   1.0000   1.0000   1.0000   1.0000
     1.0000   1.0000   1.0000   1.0000   1.0000   1.0000   1.0000   1.0000
     1.0000   1.0000   1.0000   1.0000   1.0000   1.0000   1.0000   1.0000
     1.0000   1.0000   1.0000   1.0000   1.0000   1.0000   1.0000   1.0000
     1.0000   1.0000   1.0000   1.0000   1.0000   1.0000   1.0000   1.0000
     1.0000   1.0000   1.0000   1.0000   1.0000   1.0000   1.0000   1.0000
     1.0000   1.0000   1.0000   1.0000   1.0000   1.0000   1.0000   1.0000
     1.0000   1.0000   1.0000   1.0000   1.0000   1.0000   1.0000   1.0000
     1.0000   1.0000   1.0000   1.0000   1.0000   1.0000   1.0000   1.0000

     highest occupied level (ev):     5.0654

!    total energy              =   -1446.45920281 Ry
     estimated scf accuracy    <          5.6E-09 Ry

     The total energy is the sum of the following terms:
     one-electron contribution =    -679.68523236 Ry
     hartree contribution      =     495.51124618 Ry
     xc contribution           =    -437.17660329 Ry
     ewald contribution        =    -825.10861334 Ry

     convergence has been achieved in  40 iterations

     Forces acting on atoms (cartesian axes, Ry/au):

     atom    1 type  1   force =     0.00000008    0.00000005   -0.00503875
     atom    2 type  1   force =    -0.00000000   -0.00000041   -0.00504016
     atom    3 type  2   force =    -0.00000039   -0.00000023    0.00503953
     atom    4 type  2   force =     0.00000000    0.00000032    0.00503987
     atom    5 type  1   force =     0.00000000    0.00000000   -0.00503926
     atom    6 type  1   force =    -0.00000036    0.00000021   -0.00504016
     atom    7 type  2   force =     0.00000000    0.00000000    0.00503880
     atom    8 type  2   force =     0.00000028   -0.00000016    0.00503987
     atom    9 type  1   force =    -0.00000008    0.00000005   -0.00503875
     atom   10 type  1   force =     0.00000000    0.00000000   -0.00504101
     atom   11 type  2   force =     0.00000039   -0.00000023    0.00503953
     atom   12 type  2   force =     0.00000000    0.00000000    0.00503998
     atom   13 type  1   force =     0.00000000   -0.00000009   -0.00503875
     atom   14 type  1   force =     0.00000036    0.00000021   -0.00504016
     atom   15 type  2   force =     0.00000000    0.00000045    0.00503953
     atom   16 type  2   force =    -0.00000028   -0.00000016    0.00503987
     The non-local contrib.  to forces
     atom    1 type  1   force =    -0.00000050   -0.00000029   -0.11425697
     atom    2 type  1   force =     0.00000000    0.00000100   -0.11425624
     atom    3 type  2   force =     0.00000005    0.00000003   -0.09502827
     atom    4 type  2   force =     0.00000000    0.00000064   -0.09502600
     atom    5 type  1   force =     0.00000000   -0.00000000   -0.11425663
     atom    6 type  1   force =     0.00000087   -0.00000050   -0.11425624
     atom    7 type  2   force =     0.00000000   -0.00000000   -0.09502815
     atom    8 type  2   force =     0.00000055   -0.00000032   -0.09502600
     atom    9 type  1   force =     0.00000050   -0.00000029   -0.11425697
     atom   10 type  1   force =     0.00000000   -0.00000000   -0.11425753
     atom   11 type  2   force =    -0.00000005    0.00000003   -0.09502827
     atom   12 type  2   force =     0.00000000    0.00000000   -0.09502688
     atom   13 type  1   force =     0.00000000    0.00000057   -0.11425697
     atom   14 type  1   force =    -0.00000087   -0.00000050   -0.11425624
     atom   15 type  2   force =     0.00000000   -0.00000006   -0.09502827
     atom   16 type  2   force =    -0.00000055   -0.00000032   -0.09502600
     The ionic contribution  to forces
     atom    1 type  1   force =    -0.00000001    0.00000001   -0.71135625
     atom    2 type  1   force =     0.00000002   -0.00000000   -0.71135625
     atom    3 type  2   force =    -0.00000000    0.00000001    0.71135625
     atom    4 type  2   force =     0.00000001   -0.00000000    0.71135625
     atom    5 type  1   force =    -0.00000001    0.00000000   -0.71135625
     atom    6 type  1   force =     0.00000001    0.00000000   -0.71135625
     atom    7 type  2   force =    -0.00000001    0.00000000    0.71135625
     atom    8 type  2   force =     0.00000001   -0.00000000    0.71135625
     atom    9 type  1   force =    -0.00000001   -0.00000000   -0.71135625
     atom   10 type  1   force =    -0.00000001   -0.00000000   -0.71135625
     atom   11 type  2   force =    -0.00000000   -0.00000000    0.71135625
     atom   12 type  2   force =    -0.00000000   -0.00000000    0.71135625
     atom   13 type  1   force =    -0.00000001    0.00000000   -0.71135625
     atom   14 type  1   force =     0.00000001   -0.00000001   -0.71135625
     atom   15 type  2   force =    -0.00000001    0.00000000    0.71135625
     atom   16 type  2   force =     0.00000001   -0.00000000    0.71135625
     The local contribution  to forces
     atom    1 type  1   force =     0.00000058    0.00000054    0.81303136
     atom    2 type  1   force =     0.00000009   -0.00000087    0.81303062
     atom    3 type  2   force =    -0.00000082   -0.00000042   -0.61206877
     atom    4 type  2   force =     0.00000002   -0.00000021   -0.61207083
     atom    5 type  1   force =    -0.00000018    0.00000011    0.81303130
     atom    6 type  1   force =    -0.00000071    0.00000052    0.81303062
     atom    7 type  2   force =    -0.00000005    0.00000003   -0.61207061
     atom    8 type  2   force =    -0.00000017    0.00000013   -0.61207083
     atom    9 type  1   force =    -0.00000094    0.00000054    0.81303136
     atom   10 type  1   force =    -0.00000009    0.00000005    0.81303281
     atom   11 type  2   force =     0.00000072   -0.00000042   -0.61206877
     atom   12 type  2   force =    -0.00000002    0.00000001   -0.61207023
     atom   13 type  1   force =    -0.00000018   -0.00000077    0.81303136
     atom   14 type  1   force =     0.00000089    0.00000052    0.81303062
     atom   15 type  2   force =    -0.00000005    0.00000092   -0.61206877
     atom   16 type  2   force =     0.00000022    0.00000013   -0.61207083
     The core correction contribution to forces
     atom    1 type  1   force =    -0.00000006   -0.00000000    0.00754678
     atom    2 type  1   force =     0.00000001    0.00000004    0.00754686
     atom    3 type  2   force =    -0.00000000   -0.00000000    0.00078123
     atom    4 type  2   force =    -0.00000000   -0.00000001    0.00078120
     atom    5 type  1   force =    -0.00000002    0.00000001    0.00754679
     atom    6 type  1   force =     0.00000004   -0.00000001    0.00754686
     atom    7 type  2   force =     0.00000000   -0.00000000    0.00078123
     atom    8 type  2   force =    -0.00000001    0.00000000    0.00078120
     atom    9 type  1   force =     0.00000001   -0.00000000    0.00754678
     atom   10 type  1   force =    -0.00000001    0.00000001    0.00754686
     atom   11 type  2   force =     0.00000000   -0.00000000    0.00078123
     atom   12 type  2   force =     0.00000000   -0.00000000    0.00078121
     atom   13 type  1   force =    -0.00000002    0.00000005    0.00754678
     atom   14 type  1   force =    -0.00000001   -0.00000001    0.00754686
     atom   15 type  2   force =     0.00000000    0.00000000    0.00078123
     atom   16 type  2   force =     0.00000001    0.00000000    0.00078120
     The Hubbard contrib.    to forces
     atom    1 type  1   force =     0.00000000    0.00000000    0.00000000
     atom    2 type  1   force =     0.00000000    0.00000000    0.00000000
     atom    3 type  2   force =     0.00000000    0.00000000    0.00000000
     atom    4 type  2   force =     0.00000000    0.00000000    0.00000000
     atom    5 type  1   force =     0.00000000    0.00000000    0.00000000
     atom    6 type  1   force =     0.00000000    0.00000000    0.00000000
     atom    7 type  2   force =     0.00000000    0.00000000    0.00000000
     atom    8 type  2   force =     0.00000000    0.00000000    0.00000000
     atom    9 type  1   force =     0.00000000    0.00000000    0.00000000
     atom   10 type  1   force =     0.00000000    0.00000000    0.00000000
     atom   11 type  2   force =     0.00000000    0.00000000    0.00000000
     atom   12 type  2   force =     0.00000000    0.00000000    0.00000000
     atom   13 type  1   force =     0.00000000    0.00000000    0.00000000
     atom   14 type  1   force =     0.00000000    0.00000000    0.00000000
     atom   15 type  2   force =     0.00000000    0.00000000    0.00000000
     atom   16 type  2   force =     0.00000000    0.00000000    0.00000000
     The SCF correction term to forces
     atom    1 type  1   force =    -0.00000015   -0.00000009   -0.00000342
     atom    2 type  1   force =     0.00000000   -0.00000052   -0.00000491
     atom    3 type  2   force =     0.00000033    0.00000019   -0.00000067
     atom    4 type  2   force =    -0.00000000   -0.00000009   -0.00000051
     atom    5 type  1   force =    -0.00000000    0.00000000   -0.00000422
     atom    6 type  1   force =    -0.00000045    0.00000026   -0.00000491
     atom    7 type  2   force =     0.00000000   -0.00000000    0.00000032
     atom    8 type  2   force =    -0.00000007    0.00000004   -0.00000051
     atom    9 type  1   force =     0.00000015   -0.00000009   -0.00000342
     atom   10 type  1   force =    -0.00000000    0.00000000   -0.00000666
     atom   11 type  2   force =    -0.00000033    0.00000019   -0.00000067
     atom   12 type  2   force =     0.00000000   -0.00000000   -0.00000013
     atom   13 type  1   force =    -0.00000000    0.00000018   -0.00000342
     atom   14 type  1   force =     0.00000045    0.00000026   -0.00000491
     atom   15 type  2   force =     0.00000000   -0.00000038   -0.00000067
     atom   16 type  2   force =     0.00000007    0.00000004   -0.00000051

     Total force =     0.020158     Total SCF correction =     0.000013

     General routines

     Parallel routines

   This run was terminated on:   0:18:27  24Aug2025

   JOB DONE.
Note: The following floating-point exceptions are signalling: IEEE_INVALID_FLAG
Note: The following floating-point exceptions are signalling: IEEE_INVALID_FLAG
Note: The following floating-point exceptions are signalling: IEEE_INVALID_FLAG
Note: The following floating-point exceptions are signalling: IEEE_INVALID_FLAG
Note: The following floating-point exceptions are signalling: IEEE_INVALID_FLAG
Note: The following floating-point exceptions are signalling: IEEE_INVALID_FLAG
Note: The following floating-point exceptions are signalling: IEEE_INVALID_FLAG
Note: The following floating-point exceptions are signalling: IEEE_INVALID_FLAG
Note: The following floating-point exceptions are signalling: IEEE_INVALID_FLAG
Note: The following floating-point exceptions are signalling: IEEE_INVALID_FLAG
Note: The following floating-point exceptions are signalling: IEEE_INVALID_FLAG
Note: The following floating-point exceptions are signalling: IEEE_INVALID_FLAG
Note: The following floating-point exceptions are signalling: IEEE_INVALID_FLAG
Note: The following floating-point exceptions are signalling: IEEE_INVALID_FLAG
Note: The following floating-point exceptions are signalling: IEEE_INVALID_FLAG
Note: The following floating-point exceptions are signalling: IEEE_INVALID_FLAG
Note: The following floating-point exceptions are signalling: IEEE_INVALID_FLAG
Note: The following floating-point exceptions are signalling: IEEE_INVALID_FLAG
Note: The following floating-point exceptions are signalling: IEEE_INVALID_FLAG
Note: The following floating-point exceptions are signalling: IEEE_INVALID_FLAG
Note: The following floating-point exceptions are signalling: IEEE_INVALID_FLAG
Note: The following floating-point exceptions are signalling: IEEE_INVALID_FLAG
Note: The following floating-point exceptions are signalling: IEEE_INVALID_FLAG
Note: The following floating-point exceptions are signalling: IEEE_INVALID_FLAG
Note: The following floating-point exceptions are signalling: IEEE_INVALID_FLAG
Note: The following floating-point exceptions are signalling: IEEE_INVALID_FLAG
Note: The following floating-point exceptions are signalling: IEEE_INVALID_FLAG
Note: The following floating-point exceptions are signalling: IEEE_INVALID_FLAG
Note: The following floating-point exceptions are signalling: IEEE_INVALID_FLAG
Note: The following floating-point exceptions are signalling: IEEE_INVALID_FLAG
Note: The following floating-point exceptions are signalling: IEEE_INVALID_FLAG
Note: The following floating-point exceptions are signalling: IEEE_INVALID_FLAG