     Program PWSCF v.7.2 starts on 23Aug2025 at 19:40: 8

     Reading input from /home/jvc/QEspresso7.2/ZnO_database/scripts/cell221.in/ZnO-3.27-1.52-221.in
Warning: card &CELL ignored
Warning: card / ignored
Warning: card &FCP ignored
Warning: card / ignored
Warning: card &RISM ignored
Warning: card / ignored

     Current dimensions of program PWSCF are:
     Max number of different atomic species (ntypx) = 10
     Max number of k-points (npk) =  40000
     Max angular momentum in pseudopotentials (lmaxx) =  4
     file Zn.upf: wavefunction(s)  3D renormalized
     Found identity + ( -0.0000 -0.5000  0.0000) symmetry
     This is a supercell, fractional translations are disabled
     Message from routine setup:
     using ibrav=0 with symmetry is DISCOURAGED, use correct ibrav instead

     K-points division:     npool     =       8
     band groups division:  nbgrp     =       4
     Subspace diagonalization in iterative solution of the eigenvalue problem:
     a serial algorithm will be used

     Using Slab Decomposition

     bravais-lattice index     =            0
     lattice parameter (alat)  =      12.3577  a.u.
     unit-cell volume          =    1240.0586 (a.u.)^3
     number of atoms/cell      =           16
     number of atomic types    =            2
     number of electrons       =       144.00
     number of Kohn-Sham states=           72
     kinetic-energy cutoff     =      50.0000  Ry
     charge density cutoff     =     400.0000  Ry
     scf convergence threshold =      1.0E-08
     mixing beta               =       0.3000
     number of iterations used =            8  plain     mixing
     Exchange-correlation= PBE
                           (   1   4   3   4   0   0   0)

     celldm(1)=  12.357708  celldm(2)=   0.000000  celldm(3)=   0.000000
     celldm(4)=   0.000000  celldm(5)=   0.000000  celldm(6)=   0.000000

     crystal axes: (cart. coord. in units of alat)
               a(1) = (   1.000000   0.000000   0.000000 )
               a(2) = (  -0.500000   0.866025   0.000000 )
               a(3) = (   0.000000   0.000000   0.758748 )

     reciprocal axes: (cart. coord. in units 2 pi/alat)
               b(1) = (  1.000000  0.577350 -0.000000 )
               b(2) = (  0.000000  1.154701  0.000000 )
               b(3) = (  0.000000 -0.000000  1.317960 )

     PseudoPot. # 1 for Zn read from file:
     /home/jvc/QEspresso7.2/ZnO_database/pseudos/Zn.upf
     MD5 check sum: 7f56cabf9682ed8c977c2f7d0c5985c5
     Pseudo is Ultrasoft + core correction, Zval = 12.0
     Generated using &quot;atomic&quot; code by A. Dal Corso  v.6.2.2
     Using radial grid of 1201 points,  6 beta functions with:
                l(1) =   0
                l(2) =   0
                l(3) =   1
                l(4) =   1
                l(5) =   2
                l(6) =   2
     Q(r) pseudized with 0 coefficients

     PseudoPot. # 2 for O  read from file:
     /home/jvc/QEspresso7.2/ZnO_database/pseudos/O.upf
     MD5 check sum: 91400c9766925bcf19f520983a725ff0
     Pseudo is Ultrasoft + core correction, Zval =  6.0
     Generated using &quot;atomic&quot; code by A. Dal Corso  v.6.3MaX
     Using radial grid of 1095 points,  4 beta functions with:
                l(1) =   0
                l(2) =   0
                l(3) =   1
                l(4) =   1
     Q(r) pseudized with 0 coefficients

     atomic species   valence    mass     pseudopotential
        Zn            12.00    65.38000     Zn( 1.00)
        O              6.00    15.99900     O ( 1.00)

      6 Sym. Ops. (no inversion) found

                                    s                        frac. trans.

      isym =  1     identity

 cryst.   s( 1) = (     1          0          0      )
                  (     0          1          0      )
                  (     0          0          1      )

 cart.    s( 1) = (  1.0000000 -0.0000000  0.0000000 )
                  (  0.0000000  1.0000000  0.0000000 )
                  (  0.0000000  0.0000000  1.0000000 )

      isym =  2     120 deg rotation - cryst. axis [0,0,1]

[...]

      isym =  3     120 deg rotation - cryst. axis [0,0,-1]

[...]

      isym =  4     inv. 180 deg rotation - cart. axis [1,0,0]

[...]

      isym =  5     inv. 180 deg rotation - cryst. axis [0,1,0]

[...]

      isym =  6     inv. 180 deg rotation - cryst. axis [1,1,0]

 cryst.   s( 6) = (     0         -1          0      )
                  (    -1          0          0      )
                  (     0          0          1      )

 cart.    s( 6) = (  0.5000000 -0.8660254  0.0000000 )
                  ( -0.8660254 -0.5000000  0.0000000 )
                  (  0.0000000  0.0000000  1.0000000 )

   Cartesian axes

     site n.     atom                  positions (alat units)
         1           Zn  tau(   1) = (   0.2500000   0.1443376   0.3798549  )
         2           Zn  tau(   2) = (  -0.0000000   0.2886751   0.0004807  )
         3           O   tau(   3) = (   0.2500000   0.1443376   0.6674531  )
         4           O   tau(   4) = (  -0.0000000   0.2886751   0.2880789  )
         5           Zn  tau(   5) = (   0.0000000   0.5773503   0.3798549  )
         6           Zn  tau(   6) = (  -0.2500000   0.7216878   0.0004807  )
         7           O   tau(   7) = (   0.0000000   0.5773503   0.6674531  )
         8           O   tau(   8) = (  -0.2500000   0.7216878   0.2880789  )
         9           Zn  tau(   9) = (   0.7500000   0.1443376   0.3798549  )
        10           Zn  tau(  10) = (   0.5000000   0.2886751   0.0004807  )
        11           O   tau(  11) = (   0.7500000   0.1443376   0.6674531  )
        12           O   tau(  12) = (   0.5000000   0.2886751   0.2880789  )
        13           Zn  tau(  13) = (   0.5000000   0.5773503   0.3798549  )
        14           Zn  tau(  14) = (   0.2500000   0.7216878   0.0004807  )
        15           O   tau(  15) = (   0.5000000   0.5773503   0.6674531  )
        16           O   tau(  16) = (   0.2500000   0.7216878   0.2880789  )

   Crystallographic axes

     site n.     atom                  positions (cryst. coord.)
         1           Zn  tau(   1) = (  0.3333333  0.1666667  0.5006336  )
         2           Zn  tau(   2) = (  0.1666667  0.3333333  0.0006336  )
         3           O   tau(   3) = (  0.3333333  0.1666667  0.8796764  )
         4           O   tau(   4) = (  0.1666667  0.3333333  0.3796764  )
         5           Zn  tau(   5) = (  0.3333333  0.6666667  0.5006336  )
         6           Zn  tau(   6) = (  0.1666667  0.8333333  0.0006336  )
         7           O   tau(   7) = (  0.3333333  0.6666667  0.8796764  )
         8           O   tau(   8) = (  0.1666667  0.8333333  0.3796764  )
         9           Zn  tau(   9) = (  0.8333333  0.1666667  0.5006336  )
        10           Zn  tau(  10) = (  0.6666667  0.3333333  0.0006336  )
        11           O   tau(  11) = (  0.8333333  0.1666667  0.8796764  )
        12           O   tau(  12) = (  0.6666667  0.3333333  0.3796764  )
        13           Zn  tau(  13) = (  0.8333333  0.6666667  0.5006336  )
        14           Zn  tau(  14) = (  0.6666667  0.8333333  0.0006336  )
        15           O   tau(  15) = (  0.8333333  0.6666667  0.8796764  )
        16           O   tau(  16) = (  0.6666667  0.8333333  0.3796764  )

     number of k points=    34
                       cart. coord. in units 2pi/alat
        k(    1) = (   0.0000000   0.0000000   0.0000000), wk =   0.0092593
        k(    2) = (   0.0000000   0.0000000   0.2196600), wk =   0.0185185
        k(    3) = (   0.0000000   0.0000000   0.4393200), wk =   0.0185185
        k(    4) = (   0.0000000   0.0000000  -0.6589799), wk =   0.0092593
        k(    5) = (   0.0000000   0.1924501   0.0000000), wk =   0.0555556
        k(    6) = (   0.0000000   0.1924501   0.2196600), wk =   0.0555556
        k(    7) = (   0.0000000   0.1924501   0.4393200), wk =   0.0555556
        k(    8) = (   0.0000000   0.1924501  -0.6589799), wk =   0.0555556
        k(    9) = (   0.0000000   0.3849002   0.0000000), wk =   0.0555556
        k(   10) = (   0.0000000   0.3849002   0.2196600), wk =   0.0555556
        k(   11) = (   0.0000000   0.3849002   0.4393200), wk =   0.0555556
        k(   12) = (   0.0000000   0.3849002  -0.6589799), wk =   0.0555556
        k(   13) = (   0.0000000  -0.5773503   0.0000000), wk =   0.0277778
        k(   14) = (   0.0000000  -0.5773503   0.2196600), wk =   0.0555556
        k(   15) = (   0.0000000  -0.5773503   0.4393200), wk =   0.0555556
        k(   16) = (   0.0000000  -0.5773503  -0.6589799), wk =   0.0277778
        k(   17) = (   0.1666667   0.2886751   0.0000000), wk =   0.0555556
        k(   18) = (   0.1666667   0.2886751   0.2196600), wk =   0.1111111
        k(   19) = (   0.1666667   0.2886751   0.4393200), wk =   0.1111111
        k(   20) = (   0.1666667   0.2886751  -0.6589799), wk =   0.0555556
        k(   21) = (   0.1666667   0.4811252   0.0000000), wk =   0.1111111
        k(   22) = (   0.1666667   0.4811252   0.2196600), wk =   0.1111111
        k(   23) = (   0.1666667   0.4811252   0.4393200), wk =   0.1111111
        k(   24) = (   0.1666667   0.4811252  -0.6589799), wk =   0.1111111
        k(   25) = (   0.3333333   0.5773503   0.0000000), wk =   0.0185185
        k(   26) = (   0.3333333   0.5773503   0.2196600), wk =   0.0370370
        k(   27) = (   0.3333333   0.5773503   0.4393200), wk =   0.0370370
        k(   28) = (   0.3333333   0.5773503  -0.6589799), wk =   0.0185185
        k(   29) = (   0.0000000  -0.1924501   0.2196600), wk =   0.0555556
        k(   30) = (   0.0000000  -0.1924501   0.4393200), wk =   0.0555556
        k(   31) = (   0.0000000  -0.3849002   0.2196600), wk =   0.0555556
        k(   32) = (   0.0000000  -0.3849002   0.4393200), wk =   0.0555556
        k(   33) = (  -0.1666667  -0.4811252   0.2196600), wk =   0.1111111
        k(   34) = (  -0.1666667  -0.4811252   0.4393200), wk =   0.1111111

                       cryst. coord.
        k(    1) = (   0.0000000   0.0000000   0.0000000), wk =   0.0092593
        k(    2) = (   0.0000000   0.0000000   0.1666667), wk =   0.0185185
        k(    3) = (   0.0000000   0.0000000   0.3333333), wk =   0.0185185
        k(    4) = (   0.0000000   0.0000000  -0.5000000), wk =   0.0092593
        k(    5) = (   0.0000000   0.1666667   0.0000000), wk =   0.0555556
        k(    6) = (   0.0000000   0.1666667   0.1666667), wk =   0.0555556
        k(    7) = (   0.0000000   0.1666667   0.3333333), wk =   0.0555556
        k(    8) = (   0.0000000   0.1666667  -0.5000000), wk =   0.0555556
        k(    9) = (   0.0000000   0.3333333   0.0000000), wk =   0.0555556
        k(   10) = (   0.0000000   0.3333333   0.1666667), wk =   0.0555556
        k(   11) = (   0.0000000   0.3333333   0.3333333), wk =   0.0555556
        k(   12) = (   0.0000000   0.3333333  -0.5000000), wk =   0.0555556
        k(   13) = (   0.0000000  -0.5000000   0.0000000), wk =   0.0277778
        k(   14) = (   0.0000000  -0.5000000   0.1666667), wk =   0.0555556
        k(   15) = (   0.0000000  -0.5000000   0.3333333), wk =   0.0555556
[...]
        k(   23) = (   0.1666667   0.3333333   0.3333333), wk =   0.1111111
        k(   24) = (   0.1666667   0.3333333  -0.5000000), wk =   0.1111111
        k(   25) = (   0.3333333   0.3333333   0.0000000), wk =   0.0185185
        k(   26) = (   0.3333333   0.3333333   0.1666667), wk =   0.0370370
        k(   27) = (   0.3333333   0.3333333   0.3333333), wk =   0.0370370
        k(   28) = (   0.3333333   0.3333333  -0.5000000), wk =   0.0185185
        k(   29) = (   0.0000000  -0.1666667   0.1666667), wk =   0.0555556
        k(   30) = (   0.0000000  -0.1666667   0.3333333), wk =   0.0555556
        k(   31) = (   0.0000000  -0.3333333   0.1666667), wk =   0.0555556
        k(   32) = (   0.0000000  -0.3333333   0.3333333), wk =   0.0555556
        k(   33) = (  -0.1666667  -0.3333333   0.1666667), wk =   0.1111111
        k(   34) = (  -0.1666667  -0.3333333   0.3333333), wk =   0.1111111

     Check: negative core charge=   -0.000002

     Initial potential from superposition of free atoms

     starting charge     143.9702, renormalised to     144.0000
     Starting wfcs are  104 randomized atomic wfcs

     Self-consistent Calculation

     iteration #  1     ecut=    50.00 Ry     beta= 0.30
     Davidson diagonalization with overlap

     ethr =  1.00E-02,  avg # of iterations =  2.0

     total energy              =   -1445.87942147 Ry
     estimated scf accuracy    <       2.75002937 Ry

[...]

     total energy              =   -1446.48742516 Ry
     estimated scf accuracy    <       0.00000007 Ry

     iteration # 30     ecut=    50.00 Ry     beta= 0.30
     Davidson diagonalization with overlap

     ethr =  4.69E-11,  avg # of iterations =  5.6

     End of self-consistent calculation

          k = 0.0000 0.0000 0.0000 (  7485 PWs)   bands (ev):

   -10.5777  -9.8699  -9.8699  -9.8699  -9.6991  -9.5971  -9.5971  -9.5971
     1.6868   1.6868   1.6868   1.9227   1.9227   1.9227   1.9789   1.9789
     1.9923   2.0238   2.2065   2.2065   2.2065   2.2211   2.2211   2.4749
     2.4749   2.4749   2.6223   2.6223   2.6223   2.8561   2.8561   2.8561
     3.2158   3.2158   3.2669   3.2669   3.2669   3.4153   3.4153   3.4153
     3.4891   3.4891   3.5434   3.5434   3.5434   3.6013   3.6013   3.6013
     3.7261   4.1274   4.1274   4.1274   4.2774   4.2774   4.2774   4.8997
     4.8997   4.8997   5.2156   5.2156   5.2156   6.5296   6.5296   6.5296
     6.7713   6.7713   6.9816   6.9816   6.9816   7.7668   7.7668   7.7968

     occupation numbers
     1.0000   1.0000   1.0000   1.0000   1.0000   1.0000   1.0000   1.0000
     1.0000   1.0000   1.0000   1.0000   1.0000   1.0000   1.0000   1.0000
     1.0000   1.0000   1.0000   1.0000   1.0000   1.0000   1.0000   1.0000
     1.0000   1.0000   1.0000   1.0000   1.0000   1.0000   1.0000   1.0000
     1.0000   1.0000   1.0000   1.0000   1.0000   1.0000   1.0000   1.0000
     1.0000   1.0000   1.0000   1.0000   1.0000   1.0000   1.0000   1.0000
     1.0000   1.0000   1.0000   1.0000   1.0000   1.0000   1.0000   1.0000
     1.0000   1.0000   1.0000   1.0000   1.0000   1.0000   1.0000   1.0000
     1.0000   1.0000   1.0000   1.0000   1.0000   1.0000   1.0000   1.0000

[...]

          k = 0.0000-0.3849 0.4393 (  7403 PWs)   bands (ev):

[...]

          k =-0.1667-0.4811 0.2197 (  7417 PWs)   bands (ev):

[...]

          k =-0.1667-0.4811 0.4393 (  7404 PWs)   bands (ev):

   -10.1540 -10.0135  -9.9031  -9.8005  -9.7284  -9.7205  -9.6813  -9.6464
     1.5122   1.5575   1.5810   1.6172   1.6347   1.6424   1.7321   1.7851
     2.1069   2.1075   2.1427   2.1798   2.2022   2.2271   2.2413   2.2413
     2.3155   2.3428   2.3623   2.4331   2.4429   2.5384   2.6389   2.6701
     3.2663   3.2899   3.2948   3.2962   3.3182   3.3382   3.3494   3.3909
     3.4595   3.4683   3.4968   3.5031   3.5388   3.5943   3.6445   3.7505
     4.0636   4.2919   4.4237   4.6630   4.7347   4.8794   4.8822   5.1926
     5.5836   5.7264   5.7662   5.8502   5.8868   6.0850   6.1080   6.2942
     6.4657   6.4731   6.6886   6.8387   6.9920   7.0858   7.1061   7.2063

     occupation numbers
     1.0000   1.0000   1.0000   1.0000   1.0000   1.0000   1.0000   1.0000
     1.0000   1.0000   1.0000   1.0000   1.0000   1.0000   1.0000   1.0000
     1.0000   1.0000   1.0000   1.0000   1.0000   1.0000   1.0000   1.0000
     1.0000   1.0000   1.0000   1.0000   1.0000   1.0000   1.0000   1.0000
     1.0000   1.0000   1.0000   1.0000   1.0000   1.0000   1.0000   1.0000
     1.0000   1.0000   1.0000   1.0000   1.0000   1.0000   1.0000   1.0000
     1.0000   1.0000   1.0000   1.0000   1.0000   1.0000   1.0000   1.0000
     1.0000   1.0000   1.0000   1.0000   1.0000   1.0000   1.0000   1.0000
     1.0000   1.0000   1.0000   1.0000   1.0000   1.0000   1.0000   1.0000

     highest occupied level (ev):     7.7968

!    total energy              =   -1446.48742519 Ry
     estimated scf accuracy    <          3.7E-10 Ry

     The total energy is the sum of the following terms:
     one-electron contribution =    -591.89622972 Ry
     hartree contribution      =     464.29311979 Ry
     xc contribution           =    -438.73586129 Ry
     ewald contribution        =    -880.14845398 Ry

     convergence has been achieved in  30 iterations

     Forces acting on atoms (cartesian axes, Ry/au):

     atom    1 type  1   force =     0.00000076    0.00000044   -0.03272921
     atom    2 type  1   force =    -0.00000000   -0.00000130   -0.03273354
     atom    3 type  2   force =     0.00000017    0.00000010    0.03273116
     atom    4 type  2   force =    -0.00000000   -0.00000017    0.03273120
     atom    5 type  1   force =    -0.00000000   -0.00000000   -0.03272676
     atom    6 type  1   force =    -0.00000113    0.00000065   -0.03273354
     atom    7 type  2   force =     0.00000000    0.00000000    0.03273145
     atom    8 type  2   force =    -0.00000015    0.00000009    0.03273120
     atom    9 type  1   force =    -0.00000076    0.00000044   -0.03272921
     atom   10 type  1   force =     0.00000000    0.00000000   -0.03273537
     atom   11 type  2   force =    -0.00000017    0.00000010    0.03273116
     atom   12 type  2   force =    -0.00000000   -0.00000000    0.03273182
     atom   13 type  1   force =     0.00000000   -0.00000088   -0.03272921
     atom   14 type  1   force =     0.00000113    0.00000065   -0.03273354
     atom   15 type  2   force =     0.00000000   -0.00000020    0.03273116
     atom   16 type  2   force =     0.00000015    0.00000009    0.03273120
     The non-local contrib.  to forces
     atom    1 type  1   force =    -0.00000023   -0.00000013   -0.18991725
     atom    2 type  1   force =     0.00000000   -0.00000032   -0.18991996
     atom    3 type  2   force =    -0.00000003   -0.00000002   -0.13579473
     atom    4 type  2   force =     0.00000000    0.00000045   -0.13579549
     atom    5 type  1   force =     0.00000000    0.00000000   -0.18991706
     atom    6 type  1   force =    -0.00000028    0.00000016   -0.18991996
     atom    7 type  2   force =     0.00000000    0.00000000   -0.13579395
     atom    8 type  2   force =     0.00000039   -0.00000022   -0.13579549
     atom    9 type  1   force =     0.00000023   -0.00000013   -0.18991725
     atom   10 type  1   force =     0.00000000    0.00000000   -0.18991937
     atom   11 type  2   force =     0.00000003   -0.00000002   -0.13579473
     atom   12 type  2   force =     0.00000000    0.00000000   -0.13579558
     atom   13 type  1   force =     0.00000000    0.00000027   -0.18991725
     atom   14 type  1   force =     0.00000028    0.00000016   -0.18991996
     atom   15 type  2   force =     0.00000000    0.00000004   -0.13579473
     atom   16 type  2   force =    -0.00000039   -0.00000022   -0.13579549
     The ionic contribution  to forces
     atom    1 type  1   force =     0.00000000    0.00000001   -1.26205916
     atom    2 type  1   force =     0.00000001    0.00000000   -1.26205916
     atom    3 type  2   force =     0.00000000    0.00000001    1.26205916
     atom    4 type  2   force =     0.00000001   -0.00000000    1.26205916
     atom    5 type  1   force =     0.00000000    0.00000001   -1.26205916
     atom    6 type  1   force =     0.00000001    0.00000000   -1.26205916
     atom    7 type  2   force =     0.00000000    0.00000001    1.26205916
     atom    8 type  2   force =     0.00000001   -0.00000000    1.26205916
     atom    9 type  1   force =    -0.00000000   -0.00000000   -1.26205916
     atom   10 type  1   force =    -0.00000001   -0.00000001   -1.26205916
     atom   11 type  2   force =    -0.00000000   -0.00000000    1.26205916
     atom   12 type  2   force =    -0.00000001   -0.00000000    1.26205916
     atom   13 type  1   force =    -0.00000000   -0.00000000   -1.26205916
     atom   14 type  1   force =    -0.00000001   -0.00000001   -1.26205916
     atom   15 type  2   force =    -0.00000000   -0.00000000    1.26205916
     atom   16 type  2   force =    -0.00000001   -0.00000000    1.26205916
     The local contribution  to forces
     atom    1 type  1   force =    -0.00000025   -0.00000004    1.40411695
     atom    2 type  1   force =     0.00000009    0.00000130    1.40412424
     atom    3 type  2   force =    -0.00000049   -0.00000026   -1.09448204
     atom    4 type  2   force =     0.00000002    0.00000044   -1.09448471
     atom    5 type  1   force =     0.00000000    0.00000010    1.40411587
     atom    6 type  1   force =     0.00000117   -0.00000057    1.40412424
     atom    7 type  2   force =     0.00000000    0.00000003   -1.09448011
     atom    8 type  2   force =     0.00000040   -0.00000020   -1.09448471
     atom    9 type  1   force =     0.00000025   -0.00000004    1.40411695
     atom   10 type  1   force =    -0.00000009    0.00000005    1.40412450
     atom   11 type  2   force =     0.00000049   -0.00000026   -1.09448204
     atom   12 type  2   force =    -0.00000002    0.00000001   -1.09448442
     atom   13 type  1   force =     0.00000000    0.00000038    1.40411695
     atom   14 type  1   force =    -0.00000117   -0.00000057    1.40412424
     atom   15 type  2   force =     0.00000000    0.00000059   -1.09448204
     atom   16 type  2   force =    -0.00000040   -0.00000020   -1.09448471
     The core correction contribution to forces
     atom    1 type  1   force =     0.00000000    0.00000001    0.01512789
     atom    2 type  1   force =     0.00000001   -0.00000001    0.01512781
     atom    3 type  2   force =    -0.00000000   -0.00000000    0.00095083
     atom    4 type  2   force =    -0.00000000   -0.00000000    0.00095083
     atom    5 type  1   force =     0.00000000    0.00000001    0.01512787
     atom    6 type  1   force =    -0.00000000    0.00000001    0.01512781
     atom    7 type  2   force =     0.00000000   -0.00000000    0.00095082
     atom    8 type  2   force =    -0.00000000    0.00000000    0.00095083
     atom    9 type  1   force =    -0.00000000    0.00000001    0.01512789
     atom   10 type  1   force =    -0.00000001    0.00000001    0.01512783
     atom   11 type  2   force =     0.00000000   -0.00000000    0.00095083
     atom   12 type  2   force =     0.00000000   -0.00000000    0.00095083
     atom   13 type  1   force =    -0.00000000    0.00000001    0.01512789
     atom   14 type  1   force =     0.00000000    0.00000001    0.01512781
     atom   15 type  2   force =    -0.00000000    0.00000000    0.00095083
     atom   16 type  2   force =     0.00000000    0.00000000    0.00095083
     The Hubbard contrib.    to forces
     atom    1 type  1   force =     0.00000000    0.00000000    0.00000000
     atom    2 type  1   force =     0.00000000    0.00000000    0.00000000
     atom    3 type  2   force =     0.00000000    0.00000000    0.00000000
     atom    4 type  2   force =     0.00000000    0.00000000    0.00000000
     atom    5 type  1   force =     0.00000000    0.00000000    0.00000000
     atom    6 type  1   force =     0.00000000    0.00000000    0.00000000
     atom    7 type  2   force =     0.00000000    0.00000000    0.00000000
     atom    8 type  2   force =     0.00000000    0.00000000    0.00000000
     atom    9 type  1   force =     0.00000000    0.00000000    0.00000000
     atom   10 type  1   force =     0.00000000    0.00000000    0.00000000
     atom   11 type  2   force =     0.00000000    0.00000000    0.00000000
     atom   12 type  2   force =     0.00000000    0.00000000    0.00000000
     atom   13 type  1   force =     0.00000000    0.00000000    0.00000000
     atom   14 type  1   force =     0.00000000    0.00000000    0.00000000
     atom   15 type  2   force =     0.00000000    0.00000000    0.00000000
     atom   16 type  2   force =     0.00000000    0.00000000    0.00000000
     The SCF correction term to forces
     atom    1 type  1   force =     0.00000123    0.00000071    0.00000444
     atom    2 type  1   force =    -0.00000000   -0.00000228   -0.00000440
     atom    3 type  2   force =     0.00000069    0.00000040    0.00000001
     atom    4 type  2   force =    -0.00000000   -0.00000107    0.00000347
     atom    5 type  1   force =    -0.00000000   -0.00000000    0.00000780
     atom    6 type  1   force =    -0.00000197    0.00000114   -0.00000440
     atom    7 type  2   force =    -0.00000000   -0.00000000   -0.00000241
     atom    8 type  2   force =    -0.00000092    0.00000053    0.00000347
     atom    9 type  1   force =    -0.00000123    0.00000071    0.00000444
     atom   10 type  1   force =     0.00000000   -0.00000000   -0.00000710
     atom   11 type  2   force =    -0.00000069    0.00000040    0.00000001
     atom   12 type  2   force =     0.00000000   -0.00000000    0.00000390
     atom   13 type  1   force =     0.00000000   -0.00000142    0.00000444
     atom   14 type  1   force =     0.00000197    0.00000114   -0.00000440
     atom   15 type  2   force =     0.00000000   -0.00000080    0.00000001
     atom   16 type  2   force =     0.00000092    0.00000053    0.00000347

     Total force =     0.130925     Total SCF correction =     0.000018

     General routines

     Parallel routines

   This run was terminated on:  19:45:45  23Aug2025

   JOB DONE.
Note: The following floating-point exceptions are signalling: IEEE_INVALID_FLAG
Note: The following floating-point exceptions are signalling: IEEE_INVALID_FLAG
Note: The following floating-point exceptions are signalling: IEEE_INVALID_FLAG
Note: The following floating-point exceptions are signalling: IEEE_INVALID_FLAG
Note: The following floating-point exceptions are signalling: IEEE_INVALID_FLAG
Note: The following floating-point exceptions are signalling: IEEE_INVALID_FLAG
Note: The following floating-point exceptions are signalling: IEEE_INVALID_FLAG
Note: The following floating-point exceptions are signalling: IEEE_INVALID_FLAG
Note: The following floating-point exceptions are signalling: IEEE_INVALID_FLAG
Note: The following floating-point exceptions are signalling: IEEE_INVALID_FLAG
Note: The following floating-point exceptions are signalling: IEEE_INVALID_FLAG
Note: The following floating-point exceptions are signalling: IEEE_INVALID_FLAG
Note: The following floating-point exceptions are signalling: IEEE_INVALID_FLAG
Note: The following floating-point exceptions are signalling: IEEE_INVALID_FLAG
Note: The following floating-point exceptions are signalling: IEEE_INVALID_FLAG
Note: The following floating-point exceptions are signalling: IEEE_INVALID_FLAG
Note: The following floating-point exceptions are signalling: IEEE_INVALID_FLAG
Note: The following floating-point exceptions are signalling: IEEE_INVALID_FLAG
Note: The following floating-point exceptions are signalling: IEEE_INVALID_FLAG
Note: The following floating-point exceptions are signalling: IEEE_INVALID_FLAG
Note: The following floating-point exceptions are signalling: IEEE_INVALID_FLAG
Note: The following floating-point exceptions are signalling: IEEE_INVALID_FLAG
Note: The following floating-point exceptions are signalling: IEEE_INVALID_FLAG
Note: The following floating-point exceptions are signalling: IEEE_INVALID_FLAG
Note: The following floating-point exceptions are signalling: IEEE_INVALID_FLAG
Note: The following floating-point exceptions are signalling: IEEE_INVALID_FLAG
Note: The following floating-point exceptions are signalling: IEEE_INVALID_FLAG
Note: The following floating-point exceptions are signalling: IEEE_INVALID_FLAG
Note: The following floating-point exceptions are signalling: IEEE_INVALID_FLAG
Note: The following floating-point exceptions are signalling: IEEE_INVALID_FLAG
Note: The following floating-point exceptions are signalling: IEEE_INVALID_FLAG
Note: The following floating-point exceptions are signalling: IEEE_INVALID_FLAG