     Program PWSCF v.7.2 starts on 24Aug2025 at  4:47: 8

     Reading input from /home/jvc/QEspresso7.2/ZnO_database/scripts/cell221.in/ZnO-3.60-1.74-221.in
Warning: card &CELL ignored
Warning: card / ignored
Warning: card &FCP ignored
Warning: card / ignored
Warning: card &RISM ignored
Warning: card / ignored

     Current dimensions of program PWSCF are:
     Max number of different atomic species (ntypx) = 10
     Max number of k-points (npk) =  40000
     Max angular momentum in pseudopotentials (lmaxx) =  4
     file Zn.upf: wavefunction(s)  3D renormalized
     Found identity + (  0.0000 -0.5000  0.0000) symmetry
     This is a supercell, fractional translations are disabled
     Message from routine setup:
     using ibrav=0 with symmetry is DISCOURAGED, use correct ibrav instead

     K-points division:     npool     =       8
     band groups division:  nbgrp     =       4
     Subspace diagonalization in iterative solution of the eigenvalue problem:
     a serial algorithm will be used

     Using Slab Decomposition

     bravais-lattice index     =            0
     lattice parameter (alat)  =      13.5935  a.u.
     unit-cell volume          =    1896.3399 (a.u.)^3
     number of atoms/cell      =           16
     number of atomic types    =            2
     number of electrons       =       144.00
     number of Kohn-Sham states=           72
     kinetic-energy cutoff     =      50.0000  Ry
     charge density cutoff     =     400.0000  Ry
     scf convergence threshold =      1.0E-08
     mixing beta               =       0.3000
     number of iterations used =            8  plain     mixing
     Exchange-correlation= PBE
                           (   1   4   3   4   0   0   0)

     celldm(1)=  13.593479  celldm(2)=   0.000000  celldm(3)=   0.000000
     celldm(4)=   0.000000  celldm(5)=   0.000000  celldm(6)=   0.000000

     crystal axes: (cart. coord. in units of alat)
               a(1) = (   1.000000   0.000000   0.000000 )
               a(2) = (  -0.500000   0.866025   0.000000 )
               a(3) = (   0.000000   0.000000   0.871754 )

     reciprocal axes: (cart. coord. in units 2 pi/alat)
               b(1) = (  1.000000  0.577350 -0.000000 )
               b(2) = (  0.000000  1.154701  0.000000 )
               b(3) = (  0.000000 -0.000000  1.147113 )

     PseudoPot. # 1 for Zn read from file:
     /home/jvc/QEspresso7.2/ZnO_database/pseudos/Zn.upf
     MD5 check sum: 7f56cabf9682ed8c977c2f7d0c5985c5
     Pseudo is Ultrasoft + core correction, Zval = 12.0
     Generated using &quot;atomic&quot; code by A. Dal Corso  v.6.2.2
     Using radial grid of 1201 points,  6 beta functions with:
                l(1) =   0
                l(2) =   0
                l(3) =   1
                l(4) =   1
                l(5) =   2
                l(6) =   2
     Q(r) pseudized with 0 coefficients

     PseudoPot. # 2 for O  read from file:
     /home/jvc/QEspresso7.2/ZnO_database/pseudos/O.upf
     MD5 check sum: 91400c9766925bcf19f520983a725ff0
     Pseudo is Ultrasoft + core correction, Zval =  6.0
     Generated using &quot;atomic&quot; code by A. Dal Corso  v.6.3MaX
     Using radial grid of 1095 points,  4 beta functions with:
                l(1) =   0
                l(2) =   0
                l(3) =   1
                l(4) =   1
     Q(r) pseudized with 0 coefficients

     atomic species   valence    mass     pseudopotential
        Zn            12.00    65.38000     Zn( 1.00)
        O              6.00    15.99900     O ( 1.00)

      6 Sym. Ops. (no inversion) found

                                    s                        frac. trans.

      isym =  1     identity

 cryst.   s( 1) = (     1          0          0      )
                  (     0          1          0      )
                  (     0          0          1      )

 cart.    s( 1) = (  1.0000000  0.0000000  0.0000000 )
                  (  0.0000000  1.0000000  0.0000000 )
                  (  0.0000000  0.0000000  1.0000000 )

      isym =  2     120 deg rotation - cryst. axis [0,0,1]

[...]

      isym =  3     120 deg rotation - cryst. axis [0,0,-1]

[...]

      isym =  4     inv. 180 deg rotation - cart. axis [1,0,0]

[...]

      isym =  5     inv. 180 deg rotation - cryst. axis [0,1,0]

[...]

      isym =  6     inv. 180 deg rotation - cryst. axis [1,1,0]

 cryst.   s( 6) = (     0         -1          0      )
                  (    -1          0          0      )
                  (     0          0          1      )

 cart.    s( 6) = (  0.5000000 -0.8660254  0.0000000 )
                  ( -0.8660254 -0.5000000  0.0000000 )
                  (  0.0000000  0.0000000  1.0000000 )

   Cartesian axes

     site n.     atom                  positions (alat units)
         1           Zn  tau(   1) = (   0.2500000   0.1443376   0.4364291  )
         2           Zn  tau(   2) = (  -0.0000000   0.2886751   0.0005523  )
         3           O   tau(   3) = (   0.2500000   0.1443376   0.7668610  )
         4           O   tau(   4) = (  -0.0000000   0.2886751   0.3309842  )
         5           Zn  tau(   5) = (  -0.0000000   0.5773503   0.4364291  )
         6           Zn  tau(   6) = (  -0.2500000   0.7216878   0.0005523  )
         7           O   tau(   7) = (  -0.0000000   0.5773503   0.7668610  )
         8           O   tau(   8) = (  -0.2500000   0.7216878   0.3309842  )
         9           Zn  tau(   9) = (   0.7500000   0.1443376   0.4364291  )
        10           Zn  tau(  10) = (   0.5000000   0.2886751   0.0005523  )
        11           O   tau(  11) = (   0.7500000   0.1443376   0.7668610  )
        12           O   tau(  12) = (   0.5000000   0.2886751   0.3309842  )
        13           Zn  tau(  13) = (   0.5000000   0.5773503   0.4364291  )
        14           Zn  tau(  14) = (   0.2500000   0.7216878   0.0005523  )
        15           O   tau(  15) = (   0.5000000   0.5773503   0.7668610  )
        16           O   tau(  16) = (   0.2500000   0.7216878   0.3309842  )

   Crystallographic axes

     site n.     atom                  positions (cryst. coord.)
         1           Zn  tau(   1) = (  0.3333333  0.1666667  0.5006336  )
         2           Zn  tau(   2) = (  0.1666667  0.3333333  0.0006336  )
         3           O   tau(   3) = (  0.3333333  0.1666667  0.8796764  )
         4           O   tau(   4) = (  0.1666667  0.3333333  0.3796764  )
         5           Zn  tau(   5) = (  0.3333333  0.6666667  0.5006336  )
         6           Zn  tau(   6) = (  0.1666667  0.8333333  0.0006336  )
         7           O   tau(   7) = (  0.3333333  0.6666667  0.8796764  )
         8           O   tau(   8) = (  0.1666667  0.8333333  0.3796764  )
         9           Zn  tau(   9) = (  0.8333333  0.1666667  0.5006336  )
        10           Zn  tau(  10) = (  0.6666667  0.3333333  0.0006336  )
        11           O   tau(  11) = (  0.8333333  0.1666667  0.8796764  )
        12           O   tau(  12) = (  0.6666667  0.3333333  0.3796764  )
        13           Zn  tau(  13) = (  0.8333333  0.6666667  0.5006336  )
        14           Zn  tau(  14) = (  0.6666667  0.8333333  0.0006336  )
        15           O   tau(  15) = (  0.8333333  0.6666667  0.8796764  )
        16           O   tau(  16) = (  0.6666667  0.8333333  0.3796764  )

     number of k points=    34
                       cart. coord. in units 2pi/alat
        k(    1) = (   0.0000000   0.0000000   0.0000000), wk =   0.0092593
        k(    2) = (   0.0000000   0.0000000   0.1911855), wk =   0.0185185
        k(    3) = (   0.0000000   0.0000000   0.3823711), wk =   0.0185185
        k(    4) = (   0.0000000   0.0000000  -0.5735566), wk =   0.0092593
        k(    5) = (   0.0000000   0.1924501   0.0000000), wk =   0.0555556
        k(    6) = (   0.0000000   0.1924501   0.1911855), wk =   0.0555556
        k(    7) = (   0.0000000   0.1924501   0.3823711), wk =   0.0555556
        k(    8) = (   0.0000000   0.1924501  -0.5735566), wk =   0.0555556
        k(    9) = (   0.0000000   0.3849002   0.0000000), wk =   0.0555556
        k(   10) = (   0.0000000   0.3849002   0.1911855), wk =   0.0555556
        k(   11) = (   0.0000000   0.3849002   0.3823711), wk =   0.0555556
        k(   12) = (   0.0000000   0.3849002  -0.5735566), wk =   0.0555556
        k(   13) = (   0.0000000  -0.5773503   0.0000000), wk =   0.0277778
        k(   14) = (   0.0000000  -0.5773503   0.1911855), wk =   0.0555556
        k(   15) = (   0.0000000  -0.5773503   0.3823711), wk =   0.0555556
        k(   16) = (   0.0000000  -0.5773503  -0.5735566), wk =   0.0277778
        k(   17) = (   0.1666667   0.2886751   0.0000000), wk =   0.0555556
        k(   18) = (   0.1666667   0.2886751   0.1911855), wk =   0.1111111
        k(   19) = (   0.1666667   0.2886751   0.3823711), wk =   0.1111111
        k(   20) = (   0.1666667   0.2886751  -0.5735566), wk =   0.0555556
        k(   21) = (   0.1666667   0.4811252   0.0000000), wk =   0.1111111
        k(   22) = (   0.1666667   0.4811252   0.1911855), wk =   0.1111111
        k(   23) = (   0.1666667   0.4811252   0.3823711), wk =   0.1111111
        k(   24) = (   0.1666667   0.4811252  -0.5735566), wk =   0.1111111
        k(   25) = (   0.3333333   0.5773503   0.0000000), wk =   0.0185185
        k(   26) = (   0.3333333   0.5773503   0.1911855), wk =   0.0370370
        k(   27) = (   0.3333333   0.5773503   0.3823711), wk =   0.0370370
        k(   28) = (   0.3333333   0.5773503  -0.5735566), wk =   0.0185185
        k(   29) = (   0.0000000  -0.1924501   0.1911855), wk =   0.0555556
        k(   30) = (   0.0000000  -0.1924501   0.3823711), wk =   0.0555556
        k(   31) = (   0.0000000  -0.3849002   0.1911855), wk =   0.0555556
        k(   32) = (   0.0000000  -0.3849002   0.3823711), wk =   0.0555556
        k(   33) = (  -0.1666667  -0.4811252   0.1911855), wk =   0.1111111
        k(   34) = (  -0.1666667  -0.4811252   0.3823711), wk =   0.1111111

                       cryst. coord.
        k(    1) = (   0.0000000   0.0000000   0.0000000), wk =   0.0092593
        k(    2) = (   0.0000000   0.0000000   0.1666667), wk =   0.0185185
        k(    3) = (   0.0000000   0.0000000   0.3333333), wk =   0.0185185
        k(    4) = (   0.0000000   0.0000000  -0.5000000), wk =   0.0092593
        k(    5) = (   0.0000000   0.1666667   0.0000000), wk =   0.0555556
        k(    6) = (   0.0000000   0.1666667   0.1666667), wk =   0.0555556
        k(    7) = (   0.0000000   0.1666667   0.3333333), wk =   0.0555556
        k(    8) = (   0.0000000   0.1666667  -0.5000000), wk =   0.0555556
        k(    9) = (   0.0000000   0.3333333   0.0000000), wk =   0.0555556
        k(   10) = (   0.0000000   0.3333333   0.1666667), wk =   0.0555556
        k(   11) = (   0.0000000   0.3333333   0.3333333), wk =   0.0555556
        k(   12) = (   0.0000000   0.3333333  -0.5000000), wk =   0.0555556
        k(   13) = (   0.0000000  -0.5000000   0.0000000), wk =   0.0277778
        k(   14) = (   0.0000000  -0.5000000   0.1666667), wk =   0.0555556
        k(   15) = (   0.0000000  -0.5000000   0.3333333), wk =   0.0555556
[...]
        k(   26) = (   0.3333333   0.3333333   0.1666667), wk =   0.0370370
        k(   27) = (   0.3333333   0.3333333   0.3333333), wk =   0.0370370
        k(   28) = (   0.3333333   0.3333333  -0.5000000), wk =   0.0185185
        k(   29) = (   0.0000000  -0.1666667   0.1666667), wk =   0.0555556
        k(   30) = (   0.0000000  -0.1666667   0.3333333), wk =   0.0555556
        k(   31) = (   0.0000000  -0.3333333   0.1666667), wk =   0.0555556
        k(   32) = (   0.0000000  -0.3333333   0.3333333), wk =   0.0555556
        k(   33) = (  -0.1666667  -0.3333333   0.1666667), wk =   0.1111111
        k(   34) = (  -0.1666667  -0.3333333   0.3333333), wk =   0.1111111

     Check: negative core charge=   -0.000003

     Initial potential from superposition of free atoms

     starting charge     143.9702, renormalised to     144.0000
     Starting wfcs are  104 randomized atomic wfcs

     Self-consistent Calculation

     iteration #  1     ecut=    50.00 Ry     beta= 0.30
     Davidson diagonalization with overlap

     ethr =  1.00E-02,  avg # of iterations =  1.1

     total energy              =   -1445.08026911 Ry
     estimated scf accuracy    <       3.69793217 Ry

[...]

     c_bands:  1 eigenvalues not converged
     ethr =  4.02E-08,  avg # of iterations =  6.4

[...]

     ethr =  1.29E-09,  avg # of iterations =  9.8

     total energy              =   -1445.99271923 Ry
     estimated scf accuracy    <       0.00000002 Ry

     iteration # 21     ecut=    50.00 Ry     beta= 0.30
     Davidson diagonalization with overlap

     c_bands:  1 eigenvalues not converged
     ethr =  1.72E-11,  avg # of iterations = 10.6

     End of self-consistent calculation

          k = 0.0000 0.0000 0.0000 ( 11379 PWs)   bands (ev):

   -13.2234 -12.9935 -12.9326 -12.9326 -12.9326 -12.8626 -12.8626 -12.8626
    -2.1767  -2.1767  -2.1502  -2.1384  -2.1384  -2.1384  -2.1140  -2.1140
    -2.0546  -2.0546  -2.0546  -1.9867  -1.9867  -1.9867  -1.8941  -1.8941
    -1.8941  -1.8837  -1.8837  -1.8837  -1.7964  -1.7964  -1.7964  -1.7878
    -1.7878  -1.7723  -1.7304  -1.7304  -1.7136  -1.7136  -1.7136  -1.7002
    -1.7002  -1.7002  -1.6784  -1.6784  -1.6784  -1.6620  -1.6620  -1.6620
    -0.5199  -0.3438  -0.3438  -0.3438   0.0526   0.0526   0.0526   1.0039
     1.0039   1.0039   1.5817   1.5817   1.5817   1.9188   1.9188   1.9189
     2.1564   2.1564   2.1564   2.3400   2.3400   2.4452   2.6592   2.6592

     occupation numbers
     1.0000   1.0000   1.0000   1.0000   1.0000   1.0000   1.0000   1.0000
     1.0000   1.0000   1.0000   1.0000   1.0000   1.0000   1.0000   1.0000
     1.0000   1.0000   1.0000   1.0000   1.0000   1.0000   1.0000   1.0000
     1.0000   1.0000   1.0000   1.0000   1.0000   1.0000   1.0000   1.0000
     1.0000   1.0000   1.0000   1.0000   1.0000   1.0000   1.0000   1.0000
     1.0000   1.0000   1.0000   1.0000   1.0000   1.0000   1.0000   1.0000
     1.0000   1.0000   1.0000   1.0000   1.0000   1.0000   1.0000   1.0000
     1.0000   1.0000   1.0000   1.0000   1.0000   1.0000   1.0000   1.0000
     1.0000   1.0000   1.0000   1.0000   1.0000   1.0000   1.0000   1.0000

[...]

          k = 0.0000-0.3849 0.3824 ( 11316 PWs)   bands (ev):

[...]

          k =-0.1667-0.4811 0.1912 ( 11324 PWs)   bands (ev):

[...]

          k =-0.1667-0.4811 0.3824 ( 11316 PWs)   bands (ev):

   -13.0695 -13.0072 -12.9785 -12.9599 -12.9345 -12.9036 -12.8874 -12.8687
    -2.1537  -2.1356  -2.1141  -2.0998  -2.0974  -2.0941  -2.0885  -2.0685
    -2.0667  -2.0561  -2.0260  -2.0116  -2.0048  -2.0045  -1.9746  -1.9707
    -1.9662  -1.9445  -1.9380  -1.9335  -1.9169  -1.9131  -1.8355  -1.8281
    -1.7831  -1.7803  -1.7729  -1.7672  -1.7614  -1.7520  -1.7477  -1.7389
    -1.7347  -1.7298  -1.7167  -1.7083  -1.6955  -1.6663  -1.6224  -1.5989
    -0.1321  -0.0522   0.0291   0.1239   0.1901   0.2108   0.4258   0.7886
     0.9411   1.3742   1.4021   1.4161   1.5623   1.6236   1.7118   1.8620
     1.8808   1.9335   2.0614   2.0632   2.0729   2.1559   2.1642   2.3125

     occupation numbers
     1.0000   1.0000   1.0000   1.0000   1.0000   1.0000   1.0000   1.0000
     1.0000   1.0000   1.0000   1.0000   1.0000   1.0000   1.0000   1.0000
     1.0000   1.0000   1.0000   1.0000   1.0000   1.0000   1.0000   1.0000
     1.0000   1.0000   1.0000   1.0000   1.0000   1.0000   1.0000   1.0000
     1.0000   1.0000   1.0000   1.0000   1.0000   1.0000   1.0000   1.0000
     1.0000   1.0000   1.0000   1.0000   1.0000   1.0000   1.0000   1.0000
     1.0000   1.0000   1.0000   1.0000   1.0000   1.0000   1.0000   1.0000
     1.0000   1.0000   1.0000   1.0000   1.0000   1.0000   1.0000   1.0000
     1.0000   1.0000   1.0000   1.0000   1.0000   1.0000   1.0000   1.0000

     highest occupied level (ev):     2.6592

!    total energy              =   -1445.99271925 Ry
     estimated scf accuracy    <          8.6E-09 Ry

     The total energy is the sum of the following terms:
     one-electron contribution =    -778.31666002 Ry
     hartree contribution      =     532.33456245 Ry
     xc contribution           =    -435.76036078 Ry
     ewald contribution        =    -764.25026091 Ry

     convergence has been achieved in  21 iterations

     Forces acting on atoms (cartesian axes, Ry/au):

     atom    1 type  1   force =    -0.00000463   -0.00000268   -0.01418375
     atom    2 type  1   force =     0.00000000    0.00000568   -0.01418304
     atom    3 type  2   force =     0.00000014    0.00000008    0.01418358
     atom    4 type  2   force =     0.00000000    0.00000019    0.01418313
     atom    5 type  1   force =     0.00000000   -0.00000000   -0.01418317
     atom    6 type  1   force =     0.00000492   -0.00000284   -0.01418304
     atom    7 type  2   force =     0.00000000    0.00000000    0.01418365
     atom    8 type  2   force =     0.00000016   -0.00000009    0.01418313
     atom    9 type  1   force =     0.00000463   -0.00000268   -0.01418375
     atom   10 type  1   force =     0.00000000    0.00000000   -0.01418363
     atom   11 type  2   force =    -0.00000014    0.00000008    0.01418358
     atom   12 type  2   force =     0.00000000    0.00000000    0.01418337
     atom   13 type  1   force =     0.00000000    0.00000535   -0.01418375
     atom   14 type  1   force =    -0.00000492   -0.00000284   -0.01418304
     atom   15 type  2   force =    -0.00000000   -0.00000016    0.01418358
     atom   16 type  2   force =    -0.00000016   -0.00000009    0.01418313
     The non-local contrib.  to forces
     atom    1 type  1   force =    -0.00000072   -0.00000042    0.16830781
     atom    2 type  1   force =     0.00000000    0.00000181    0.16830892
     atom    3 type  2   force =     0.00000054    0.00000031    0.20879748
     atom    4 type  2   force =     0.00000000   -0.00000117    0.20880195
     atom    5 type  1   force =     0.00000000    0.00000000    0.16830810
     atom    6 type  1   force =     0.00000157   -0.00000090    0.16830892
     atom    7 type  2   force =     0.00000000    0.00000000    0.20879960
     atom    8 type  2   force =    -0.00000102    0.00000059    0.20880195
     atom    9 type  1   force =     0.00000072   -0.00000042    0.16830781
     atom   10 type  1   force =     0.00000000    0.00000000    0.16831018
     atom   11 type  2   force =    -0.00000054    0.00000031    0.20879748
     atom   12 type  2   force =     0.00000000    0.00000000    0.20880339
     atom   13 type  1   force =     0.00000000    0.00000083    0.16830781
     atom   14 type  1   force =    -0.00000157   -0.00000090    0.16830892
     atom   15 type  2   force =     0.00000000   -0.00000063    0.20879748
     atom   16 type  2   force =     0.00000102    0.00000059    0.20880195
     The ionic contribution  to forces
     atom    1 type  1   force =     0.00000000    0.00000002    1.30007236
     atom    2 type  1   force =     0.00000001    0.00000002    1.30007236
     atom    3 type  2   force =    -0.00000000    0.00000001   -1.30007236
     atom    4 type  2   force =     0.00000001    0.00000001   -1.30007236
     atom    5 type  1   force =     0.00000000   -0.00000001    1.30007235
     atom    6 type  1   force =    -0.00000000   -0.00000002    1.30007236
     atom    7 type  2   force =     0.00000000   -0.00000001   -1.30007235
     atom    8 type  2   force =    -0.00000000   -0.00000001   -1.30007236
     atom    9 type  1   force =    -0.00000002    0.00000002    1.30007236
     atom   10 type  1   force =     0.00000001    0.00000001    1.30007235
     atom   11 type  2   force =    -0.00000001    0.00000001   -1.30007236
     atom   12 type  2   force =     0.00000001    0.00000000   -1.30007235
     atom   13 type  1   force =     0.00000000   -0.00000002    1.30007235
     atom   14 type  1   force =    -0.00000001   -0.00000002    1.30007236
     atom   15 type  2   force =     0.00000000   -0.00000001   -1.30007235
     atom   16 type  2   force =    -0.00000001   -0.00000001   -1.30007236
     The local contribution  to forces
     atom    1 type  1   force =     0.00000369    0.00000224   -1.47361537
     atom    2 type  1   force =     0.00000010   -0.00000571   -1.47361315
     atom    3 type  2   force =    -0.00000058   -0.00000031    1.10747119
     atom    4 type  2   force =     0.00000002    0.00000023    1.10747045
     atom    5 type  1   force =     0.00000010   -0.00000006   -1.47361628
     atom    6 type  1   force =    -0.00000500    0.00000277   -1.47361315
     atom    7 type  2   force =     0.00000002   -0.00000001    1.10746845
     atom    8 type  2   force =     0.00000018   -0.00000013    1.10747045
     atom    9 type  1   force =    -0.00000388    0.00000224   -1.47361537
     atom   10 type  1   force =     0.00000010    0.00000006   -1.47361453
     atom   11 type  2   force =     0.00000053   -0.00000031    1.10747119
     atom   12 type  2   force =     0.00000002    0.00000001    1.10746798
     atom   13 type  1   force =     0.00000010   -0.00000431   -1.47361537
     atom   14 type  1   force =     0.00000500    0.00000277   -1.47361315
     atom   15 type  2   force =     0.00000002    0.00000066    1.10747119
     atom   16 type  2   force =    -0.00000018   -0.00000013    1.10747045
     The core correction contribution to forces
     atom    1 type  1   force =    -0.00000004   -0.00000001   -0.00897301
     atom    2 type  1   force =     0.00000001    0.00000007   -0.00897627
     atom    3 type  2   force =    -0.00000001   -0.00000000   -0.00199310
     atom    4 type  2   force =    -0.00000000    0.00000002   -0.00199582
     atom    5 type  1   force =     0.00000001   -0.00000001   -0.00897294
     atom    6 type  1   force =     0.00000005   -0.00000004   -0.00897627
     atom    7 type  2   force =    -0.00000000    0.00000000   -0.00199313
     atom    8 type  2   force =     0.00000001   -0.00000001   -0.00199582
     atom    9 type  1   force =     0.00000001   -0.00000001   -0.00897301
     atom   10 type  1   force =     0.00000001    0.00000001   -0.00897624
     atom   11 type  2   force =     0.00000001   -0.00000000   -0.00199310
     atom   12 type  2   force =    -0.00000000   -0.00000000   -0.00199585
     atom   13 type  1   force =     0.00000001    0.00000004   -0.00897301
     atom   14 type  1   force =    -0.00000005   -0.00000004   -0.00897627
     atom   15 type  2   force =    -0.00000000    0.00000001   -0.00199310
     atom   16 type  2   force =    -0.00000001   -0.00000001   -0.00199582
     The Hubbard contrib.    to forces
     atom    1 type  1   force =     0.00000000    0.00000000    0.00000000
     atom    2 type  1   force =     0.00000000    0.00000000    0.00000000
     atom    3 type  2   force =     0.00000000    0.00000000    0.00000000
     atom    4 type  2   force =     0.00000000    0.00000000    0.00000000
     atom    5 type  1   force =     0.00000000    0.00000000    0.00000000
     atom    6 type  1   force =     0.00000000    0.00000000    0.00000000
     atom    7 type  2   force =     0.00000000    0.00000000    0.00000000
     atom    8 type  2   force =     0.00000000    0.00000000    0.00000000
     atom    9 type  1   force =     0.00000000    0.00000000    0.00000000
     atom   10 type  1   force =     0.00000000    0.00000000    0.00000000
     atom   11 type  2   force =     0.00000000    0.00000000    0.00000000
     atom   12 type  2   force =     0.00000000    0.00000000    0.00000000
     atom   13 type  1   force =     0.00000000    0.00000000    0.00000000
     atom   14 type  1   force =     0.00000000    0.00000000    0.00000000
     atom   15 type  2   force =     0.00000000    0.00000000    0.00000000
     atom   16 type  2   force =     0.00000000    0.00000000    0.00000000
     The SCF correction term to forces
     atom    1 type  1   force =    -0.00000769   -0.00000444    0.00003516
     atom    2 type  1   force =    -0.00000000    0.00000951    0.00003580
     atom    3 type  2   force =     0.00000015    0.00000009   -0.00000895
     atom    4 type  2   force =    -0.00000000    0.00000111   -0.00001040
     atom    5 type  1   force =    -0.00000000    0.00000000    0.00003628
     atom    6 type  1   force =     0.00000824   -0.00000476    0.00003580
     atom    7 type  2   force =    -0.00000000    0.00000000   -0.00000822
     atom    8 type  2   force =     0.00000096   -0.00000056   -0.00001040
     atom    9 type  1   force =     0.00000769   -0.00000444    0.00003516
     atom   10 type  1   force =    -0.00000000   -0.00000000    0.00003531
     atom   11 type  2   force =    -0.00000015    0.00000009   -0.00000895
     atom   12 type  2   force =    -0.00000000   -0.00000000   -0.00000910
     atom   13 type  1   force =    -0.00000000    0.00000888    0.00003516
     atom   14 type  1   force =    -0.00000824   -0.00000476    0.00003580
     atom   15 type  2   force =    -0.00000000   -0.00000017   -0.00000895
     atom   16 type  2   force =    -0.00000096   -0.00000056   -0.00001040

     Total force =     0.056734     Total SCF correction =     0.000107

     General routines

     Parallel routines

   This run was terminated on:   4:54: 9  24Aug2025

   JOB DONE.
Note: The following floating-point exceptions are signalling: IEEE_INVALID_FLAG
Note: The following floating-point exceptions are signalling: IEEE_INVALID_FLAG
Note: The following floating-point exceptions are signalling: IEEE_INVALID_FLAG
Note: The following floating-point exceptions are signalling: IEEE_INVALID_FLAG
Note: The following floating-point exceptions are signalling: IEEE_INVALID_FLAG
Note: The following floating-point exceptions are signalling: IEEE_INVALID_FLAG
Note: The following floating-point exceptions are signalling: IEEE_INVALID_FLAG
Note: The following floating-point exceptions are signalling: IEEE_INVALID_FLAG
Note: The following floating-point exceptions are signalling: IEEE_INVALID_FLAG
Note: The following floating-point exceptions are signalling: IEEE_INVALID_FLAG
Note: The following floating-point exceptions are signalling: IEEE_INVALID_FLAG
Note: The following floating-point exceptions are signalling: IEEE_INVALID_FLAG
Note: The following floating-point exceptions are signalling: IEEE_INVALID_FLAG
Note: The following floating-point exceptions are signalling: IEEE_INVALID_FLAG IEEE_DENORMAL
Note: The following floating-point exceptions are signalling: IEEE_INVALID_FLAG
Note: The following floating-point exceptions are signalling: IEEE_INVALID_FLAG
Note: The following floating-point exceptions are signalling: IEEE_INVALID_FLAG
Note: The following floating-point exceptions are signalling: IEEE_INVALID_FLAG
Note: The following floating-point exceptions are signalling: IEEE_INVALID_FLAG
Note: The following floating-point exceptions are signalling: IEEE_INVALID_FLAG
Note: The following floating-point exceptions are signalling: IEEE_INVALID_FLAG
Note: The following floating-point exceptions are signalling: IEEE_INVALID_FLAG
Note: The following floating-point exceptions are signalling: IEEE_INVALID_FLAG
Note: The following floating-point exceptions are signalling: IEEE_INVALID_FLAG
Note: The following floating-point exceptions are signalling: IEEE_INVALID_FLAG
Note: The following floating-point exceptions are signalling: IEEE_INVALID_FLAG
Note: The following floating-point exceptions are signalling: IEEE_INVALID_FLAG
Note: The following floating-point exceptions are signalling: IEEE_INVALID_FLAG
Note: The following floating-point exceptions are signalling: IEEE_INVALID_FLAG
Note: The following floating-point exceptions are signalling: IEEE_INVALID_FLAG
Note: The following floating-point exceptions are signalling: IEEE_INVALID_FLAG
Note: The following floating-point exceptions are signalling: IEEE_INVALID_FLAG IEEE_DENORMAL