     Program PWSCF v.7.2 starts on 23Aug2025 at 19:53:30

     Reading input from /home/jvc/QEspresso7.2/ZnO_database/scripts/cell221.in/ZnO-3.27-1.58-221.in
Warning: card &CELL ignored
Warning: card / ignored
Warning: card &FCP ignored
Warning: card / ignored
Warning: card &RISM ignored
Warning: card / ignored

     Current dimensions of program PWSCF are:
     Max number of different atomic species (ntypx) = 10
     Max number of k-points (npk) =  40000
     Max angular momentum in pseudopotentials (lmaxx) =  4
     file Zn.upf: wavefunction(s)  3D renormalized
     Found identity + ( -0.0000 -0.5000  0.0000) symmetry
     This is a supercell, fractional translations are disabled
     Message from routine setup:
     using ibrav=0 with symmetry is DISCOURAGED, use correct ibrav instead

     K-points division:     npool     =       8
     band groups division:  nbgrp     =       4
     Subspace diagonalization in iterative solution of the eigenvalue problem:
     a serial algorithm will be used

     Using Slab Decomposition

     bravais-lattice index     =            0
     lattice parameter (alat)  =      12.3577  a.u.
     unit-cell volume          =    1292.8271 (a.u.)^3
     number of atoms/cell      =           16
     number of atomic types    =            2
     number of electrons       =       144.00
     number of Kohn-Sham states=           72
     kinetic-energy cutoff     =      50.0000  Ry
     charge density cutoff     =     400.0000  Ry
     scf convergence threshold =      1.0E-08
     mixing beta               =       0.3000
     number of iterations used =            8  plain     mixing
     Exchange-correlation= PBE
                           (   1   4   3   4   0   0   0)

     celldm(1)=  12.357708  celldm(2)=   0.000000  celldm(3)=   0.000000
     celldm(4)=   0.000000  celldm(5)=   0.000000  celldm(6)=   0.000000

     crystal axes: (cart. coord. in units of alat)
               a(1) = (   1.000000   0.000000   0.000000 )
               a(2) = (  -0.500000   0.866025   0.000000 )
               a(3) = (   0.000000   0.000000   0.791036 )

     reciprocal axes: (cart. coord. in units 2 pi/alat)
               b(1) = (  1.000000  0.577350 -0.000000 )
               b(2) = (  0.000000  1.154701  0.000000 )
               b(3) = (  0.000000 -0.000000  1.264166 )

     PseudoPot. # 1 for Zn read from file:
     /home/jvc/QEspresso7.2/ZnO_database/pseudos/Zn.upf
     MD5 check sum: 7f56cabf9682ed8c977c2f7d0c5985c5
     Pseudo is Ultrasoft + core correction, Zval = 12.0
     Generated using &quot;atomic&quot; code by A. Dal Corso  v.6.2.2
     Using radial grid of 1201 points,  6 beta functions with:
                l(1) =   0
                l(2) =   0
                l(3) =   1
                l(4) =   1
                l(5) =   2
                l(6) =   2
     Q(r) pseudized with 0 coefficients

     PseudoPot. # 2 for O  read from file:
     /home/jvc/QEspresso7.2/ZnO_database/pseudos/O.upf
     MD5 check sum: 91400c9766925bcf19f520983a725ff0
     Pseudo is Ultrasoft + core correction, Zval =  6.0
     Generated using &quot;atomic&quot; code by A. Dal Corso  v.6.3MaX
     Using radial grid of 1095 points,  4 beta functions with:
                l(1) =   0
                l(2) =   0
                l(3) =   1
                l(4) =   1
     Q(r) pseudized with 0 coefficients

     atomic species   valence    mass     pseudopotential
        Zn            12.00    65.38000     Zn( 1.00)
        O              6.00    15.99900     O ( 1.00)

      6 Sym. Ops. (no inversion) found

                                    s                        frac. trans.

      isym =  1     identity

 cryst.   s( 1) = (     1          0          0      )
                  (     0          1          0      )
                  (     0          0          1      )

 cart.    s( 1) = (  1.0000000  0.0000000  0.0000000 )
                  (  0.0000000  1.0000000  0.0000000 )
                  (  0.0000000  0.0000000  1.0000000 )

      isym =  2     120 deg rotation - cryst. axis [0,0,1]

[...]

      isym =  3     120 deg rotation - cryst. axis [0,0,-1]

[...]

      isym =  4     inv. 180 deg rotation - cart. axis [1,0,0]

[...]

      isym =  5     inv. 180 deg rotation - cryst. axis [0,1,0]

[...]

      isym =  6     inv. 180 deg rotation - cryst. axis [1,1,0]

 cryst.   s( 6) = (     0         -1          0      )
                  (    -1          0          0      )
                  (     0          0          1      )

 cart.    s( 6) = (  0.5000000 -0.8660254  0.0000000 )
                  ( -0.8660254 -0.5000000  0.0000000 )
                  (  0.0000000  0.0000000  1.0000000 )

   Cartesian axes

     site n.     atom                  positions (alat units)
         1           Zn  tau(   1) = (   0.2500000   0.1443376   0.3960190  )
         2           Zn  tau(   2) = (  -0.0000000   0.2886751   0.0005012  )
         3           O   tau(   3) = (   0.2500000   0.1443376   0.6958554  )
         4           O   tau(   4) = (  -0.0000000   0.2886751   0.3003376  )
         5           Zn  tau(   5) = (   0.0000000   0.5773503   0.3960190  )
         6           Zn  tau(   6) = (  -0.2500000   0.7216878   0.0005012  )
         7           O   tau(   7) = (   0.0000000   0.5773503   0.6958554  )
         8           O   tau(   8) = (  -0.2500000   0.7216878   0.3003376  )
         9           Zn  tau(   9) = (   0.7500000   0.1443376   0.3960190  )
        10           Zn  tau(  10) = (   0.5000000   0.2886751   0.0005012  )
        11           O   tau(  11) = (   0.7500000   0.1443376   0.6958554  )
        12           O   tau(  12) = (   0.5000000   0.2886751   0.3003376  )
        13           Zn  tau(  13) = (   0.5000000   0.5773503   0.3960190  )
        14           Zn  tau(  14) = (   0.2500000   0.7216878   0.0005012  )
        15           O   tau(  15) = (   0.5000000   0.5773503   0.6958554  )
        16           O   tau(  16) = (   0.2500000   0.7216878   0.3003376  )

   Crystallographic axes

     site n.     atom                  positions (cryst. coord.)
         1           Zn  tau(   1) = (  0.3333333  0.1666667  0.5006336  )
         2           Zn  tau(   2) = (  0.1666667  0.3333333  0.0006336  )
         3           O   tau(   3) = (  0.3333333  0.1666667  0.8796764  )
         4           O   tau(   4) = (  0.1666667  0.3333333  0.3796764  )
         5           Zn  tau(   5) = (  0.3333333  0.6666667  0.5006336  )
         6           Zn  tau(   6) = (  0.1666667  0.8333333  0.0006336  )
         7           O   tau(   7) = (  0.3333333  0.6666667  0.8796764  )
         8           O   tau(   8) = (  0.1666667  0.8333333  0.3796764  )
         9           Zn  tau(   9) = (  0.8333333  0.1666667  0.5006336  )
        10           Zn  tau(  10) = (  0.6666667  0.3333333  0.0006336  )
        11           O   tau(  11) = (  0.8333333  0.1666667  0.8796764  )
        12           O   tau(  12) = (  0.6666667  0.3333333  0.3796764  )
        13           Zn  tau(  13) = (  0.8333333  0.6666667  0.5006336  )
        14           Zn  tau(  14) = (  0.6666667  0.8333333  0.0006336  )
        15           O   tau(  15) = (  0.8333333  0.6666667  0.8796764  )
        16           O   tau(  16) = (  0.6666667  0.8333333  0.3796764  )

     number of k points=    34
                       cart. coord. in units 2pi/alat
        k(    1) = (   0.0000000   0.0000000   0.0000000), wk =   0.0092593
        k(    2) = (   0.0000000   0.0000000   0.2106943), wk =   0.0185185
        k(    3) = (   0.0000000   0.0000000   0.4213885), wk =   0.0185185
        k(    4) = (   0.0000000   0.0000000  -0.6320828), wk =   0.0092593
        k(    5) = (   0.0000000   0.1924501   0.0000000), wk =   0.0555556
        k(    6) = (   0.0000000   0.1924501   0.2106943), wk =   0.0555556
        k(    7) = (   0.0000000   0.1924501   0.4213885), wk =   0.0555556
        k(    8) = (   0.0000000   0.1924501  -0.6320828), wk =   0.0555556
        k(    9) = (   0.0000000   0.3849002   0.0000000), wk =   0.0555556
        k(   10) = (   0.0000000   0.3849002   0.2106943), wk =   0.0555556
        k(   11) = (   0.0000000   0.3849002   0.4213885), wk =   0.0555556
        k(   12) = (   0.0000000   0.3849002  -0.6320828), wk =   0.0555556
        k(   13) = (   0.0000000  -0.5773503   0.0000000), wk =   0.0277778
        k(   14) = (   0.0000000  -0.5773503   0.2106943), wk =   0.0555556
        k(   15) = (   0.0000000  -0.5773503   0.4213885), wk =   0.0555556
        k(   16) = (   0.0000000  -0.5773503  -0.6320828), wk =   0.0277778
        k(   17) = (   0.1666667   0.2886751   0.0000000), wk =   0.0555556
        k(   18) = (   0.1666667   0.2886751   0.2106943), wk =   0.1111111
        k(   19) = (   0.1666667   0.2886751   0.4213885), wk =   0.1111111
        k(   20) = (   0.1666667   0.2886751  -0.6320828), wk =   0.0555556
        k(   21) = (   0.1666667   0.4811252   0.0000000), wk =   0.1111111
        k(   22) = (   0.1666667   0.4811252   0.2106943), wk =   0.1111111
        k(   23) = (   0.1666667   0.4811252   0.4213885), wk =   0.1111111
        k(   24) = (   0.1666667   0.4811252  -0.6320828), wk =   0.1111111
        k(   25) = (   0.3333333   0.5773503   0.0000000), wk =   0.0185185
        k(   26) = (   0.3333333   0.5773503   0.2106943), wk =   0.0370370
        k(   27) = (   0.3333333   0.5773503   0.4213885), wk =   0.0370370
        k(   28) = (   0.3333333   0.5773503  -0.6320828), wk =   0.0185185
        k(   29) = (   0.0000000  -0.1924501   0.2106943), wk =   0.0555556
        k(   30) = (   0.0000000  -0.1924501   0.4213885), wk =   0.0555556
        k(   31) = (   0.0000000  -0.3849002   0.2106943), wk =   0.0555556
        k(   32) = (   0.0000000  -0.3849002   0.4213885), wk =   0.0555556
        k(   33) = (  -0.1666667  -0.4811252   0.2106943), wk =   0.1111111
        k(   34) = (  -0.1666667  -0.4811252   0.4213885), wk =   0.1111111

                       cryst. coord.
        k(    1) = (   0.0000000   0.0000000   0.0000000), wk =   0.0092593
        k(    2) = (   0.0000000   0.0000000   0.1666667), wk =   0.0185185
        k(    3) = (   0.0000000   0.0000000   0.3333333), wk =   0.0185185
        k(    4) = (   0.0000000   0.0000000  -0.5000000), wk =   0.0092593
        k(    5) = (   0.0000000   0.1666667   0.0000000), wk =   0.0555556
        k(    6) = (   0.0000000   0.1666667   0.1666667), wk =   0.0555556
        k(    7) = (   0.0000000   0.1666667   0.3333333), wk =   0.0555556
        k(    8) = (   0.0000000   0.1666667  -0.5000000), wk =   0.0555556
        k(    9) = (   0.0000000   0.3333333   0.0000000), wk =   0.0555556
        k(   10) = (   0.0000000   0.3333333   0.1666667), wk =   0.0555556
        k(   11) = (   0.0000000   0.3333333   0.3333333), wk =   0.0555556
        k(   12) = (   0.0000000   0.3333333  -0.5000000), wk =   0.0555556
        k(   13) = (   0.0000000  -0.5000000   0.0000000), wk =   0.0277778
        k(   14) = (   0.0000000  -0.5000000   0.1666667), wk =   0.0555556
        k(   15) = (   0.0000000  -0.5000000   0.3333333), wk =   0.0555556
[...]
        k(   23) = (   0.1666667   0.3333333   0.3333333), wk =   0.1111111
        k(   24) = (   0.1666667   0.3333333  -0.5000000), wk =   0.1111111
        k(   25) = (   0.3333333   0.3333333   0.0000000), wk =   0.0185185
        k(   26) = (   0.3333333   0.3333333   0.1666667), wk =   0.0370370
        k(   27) = (   0.3333333   0.3333333   0.3333333), wk =   0.0370370
        k(   28) = (   0.3333333   0.3333333  -0.5000000), wk =   0.0185185
        k(   29) = (   0.0000000  -0.1666667   0.1666667), wk =   0.0555556
        k(   30) = (   0.0000000  -0.1666667   0.3333333), wk =   0.0555556
        k(   31) = (   0.0000000  -0.3333333   0.1666667), wk =   0.0555556
        k(   32) = (   0.0000000  -0.3333333   0.3333333), wk =   0.0555556
        k(   33) = (  -0.1666667  -0.3333333   0.1666667), wk =   0.1111111
        k(   34) = (  -0.1666667  -0.3333333   0.3333333), wk =   0.1111111

     Check: negative core charge=   -0.000002

     Initial potential from superposition of free atoms

     starting charge     143.9702, renormalised to     144.0000
     Starting wfcs are  104 randomized atomic wfcs

     Self-consistent Calculation

     iteration #  1     ecut=    50.00 Ry     beta= 0.30
     Davidson diagonalization with overlap

     ethr =  1.00E-02,  avg # of iterations =  2.0

     total energy              =   -1445.92090318 Ry
     estimated scf accuracy    <       2.75163296 Ry

[...]

     total energy              =   -1446.54059881 Ry
     estimated scf accuracy    <       0.00000001 Ry

     iteration # 38     ecut=    50.00 Ry     beta= 0.30
     Davidson diagonalization with overlap

     ethr =  6.96E-12,  avg # of iterations =  4.6

     End of self-consistent calculation

          k = 0.0000 0.0000 0.0000 (  7679 PWs)   bands (ev):

   -10.8611 -10.1933 -10.1933 -10.1933 -10.1192  -9.9648  -9.9648  -9.9648
     1.3022   1.3022   1.3022   1.5207   1.5207   1.5207   1.5316   1.5316
     1.5650   1.6271   1.7347   1.7347   1.7723   1.7723   1.7723   2.1223
     2.1223   2.1223   2.1624   2.1624   2.1624   2.3303   2.3303   2.3303
     2.6840   2.6840   2.7229   2.7229   2.7229   2.8569   2.8569   2.8569
     2.9044   2.9044   2.9512   2.9512   2.9512   3.0191   3.0191   3.0191
     3.1573   3.5035   3.5035   3.5035   3.6959   3.6959   3.6959   4.3735
     4.3735   4.3735   4.8738   4.8738   4.8738   5.9201   5.9201   5.9201
     6.3311   6.3311   6.3660   6.3660   6.3660   7.1235   7.1655   7.1655

     occupation numbers
     1.0000   1.0000   1.0000   1.0000   1.0000   1.0000   1.0000   1.0000
     1.0000   1.0000   1.0000   1.0000   1.0000   1.0000   1.0000   1.0000
     1.0000   1.0000   1.0000   1.0000   1.0000   1.0000   1.0000   1.0000
     1.0000   1.0000   1.0000   1.0000   1.0000   1.0000   1.0000   1.0000
     1.0000   1.0000   1.0000   1.0000   1.0000   1.0000   1.0000   1.0000
     1.0000   1.0000   1.0000   1.0000   1.0000   1.0000   1.0000   1.0000
     1.0000   1.0000   1.0000   1.0000   1.0000   1.0000   1.0000   1.0000
     1.0000   1.0000   1.0000   1.0000   1.0000   1.0000   1.0000   1.0000
     1.0000   1.0000   1.0000   1.0000   1.0000   1.0000   1.0000   1.0000

[...]

          k = 0.0000-0.3849 0.4214 (  7741 PWs)   bands (ev):

[...]

          k =-0.1667-0.4811 0.2107 (  7715 PWs)   bands (ev):

[...]

          k =-0.1667-0.4811 0.4214 (  7721 PWs)   bands (ev):

   -10.4772 -10.3416 -10.2360 -10.1797 -10.1020 -10.0649 -10.0498 -10.0029
     1.1665   1.2233   1.2271   1.2841   1.2973   1.3174   1.4178   1.4850
     1.6764   1.7025   1.7047   1.7501   1.7768   1.8026   1.8046   1.8289
     1.8526   1.9090   1.9362   1.9764   1.9883   2.0711   2.2055   2.2240
     2.7213   2.7303   2.7321   2.7372   2.7596   2.7782   2.7888   2.8279
     2.8738   2.8840   2.9129   2.9170   2.9526   3.0087   3.0555   3.1643
     3.4687   3.6978   3.8596   4.0787   4.2402   4.2517   4.2906   4.5919
     5.1015   5.1274   5.1711   5.2335   5.2479   5.5258   5.6361   5.6432
     5.8908   6.0006   6.0095   6.2639   6.2945   6.3864   6.4955   6.5512

     occupation numbers
     1.0000   1.0000   1.0000   1.0000   1.0000   1.0000   1.0000   1.0000
     1.0000   1.0000   1.0000   1.0000   1.0000   1.0000   1.0000   1.0000
     1.0000   1.0000   1.0000   1.0000   1.0000   1.0000   1.0000   1.0000
     1.0000   1.0000   1.0000   1.0000   1.0000   1.0000   1.0000   1.0000
     1.0000   1.0000   1.0000   1.0000   1.0000   1.0000   1.0000   1.0000
     1.0000   1.0000   1.0000   1.0000   1.0000   1.0000   1.0000   1.0000
     1.0000   1.0000   1.0000   1.0000   1.0000   1.0000   1.0000   1.0000
     1.0000   1.0000   1.0000   1.0000   1.0000   1.0000   1.0000   1.0000
     1.0000   1.0000   1.0000   1.0000   1.0000   1.0000   1.0000   1.0000

     highest occupied level (ev):     7.1655

!    total energy              =   -1446.54059881 Ry
     estimated scf accuracy    <          2.4E-09 Ry

     The total energy is the sum of the following terms:
     one-electron contribution =    -609.23174465 Ry
     hartree contribution      =     470.07844702 Ry
     xc contribution           =    -438.35290004 Ry
     ewald contribution        =    -869.03440114 Ry

     convergence has been achieved in  38 iterations

     Forces acting on atoms (cartesian axes, Ry/au):

     atom    1 type  1   force =     0.00000081    0.00000047   -0.00741734
     atom    2 type  1   force =     0.00000000   -0.00000115   -0.00742156
     atom    3 type  2   force =     0.00000010    0.00000006    0.00742018
     atom    4 type  2   force =     0.00000000    0.00000017    0.00742028
     atom    5 type  1   force =     0.00000000    0.00000000   -0.00742126
     atom    6 type  1   force =    -0.00000099    0.00000057   -0.00742156
     atom    7 type  2   force =     0.00000000    0.00000000    0.00742020
     atom    8 type  2   force =     0.00000014   -0.00000008    0.00742028
     atom    9 type  1   force =    -0.00000081    0.00000047   -0.00741734
     atom   10 type  1   force =     0.00000000    0.00000000   -0.00742388
     atom   11 type  2   force =    -0.00000010    0.00000006    0.00742018
     atom   12 type  2   force =    -0.00000000   -0.00000000    0.00742029
     atom   13 type  1   force =     0.00000000   -0.00000093   -0.00741734
     atom   14 type  1   force =     0.00000099    0.00000057   -0.00742156
     atom   15 type  2   force =     0.00000000   -0.00000011    0.00742018
     atom   16 type  2   force =    -0.00000014   -0.00000008    0.00742028
     The non-local contrib.  to forces
     atom    1 type  1   force =     0.00000015    0.00000008   -0.06326927
     atom    2 type  1   force =     0.00000000   -0.00000125   -0.06327174
     atom    3 type  2   force =    -0.00000038   -0.00000022   -0.04262976
     atom    4 type  2   force =     0.00000000    0.00000046   -0.04262899
     atom    5 type  1   force =     0.00000000   -0.00000000   -0.06327134
     atom    6 type  1   force =    -0.00000108    0.00000062   -0.06327174
     atom    7 type  2   force =     0.00000000   -0.00000000   -0.04262998
     atom    8 type  2   force =     0.00000040   -0.00000023   -0.04262899
     atom    9 type  1   force =    -0.00000015    0.00000008   -0.06326927
     atom   10 type  1   force =     0.00000000   -0.00000000   -0.06327277
     atom   11 type  2   force =     0.00000038   -0.00000022   -0.04262976
     atom   12 type  2   force =     0.00000000   -0.00000000   -0.04262908
     atom   13 type  1   force =     0.00000000   -0.00000017   -0.06326927
     atom   14 type  1   force =     0.00000108    0.00000062   -0.06327174
     atom   15 type  2   force =     0.00000000    0.00000044   -0.04262976
     atom   16 type  2   force =    -0.00000040   -0.00000023   -0.04262899
     The ionic contribution  to forces
     atom    1 type  1   force =     0.00000000    0.00000001   -0.35823079
     atom    2 type  1   force =     0.00000001    0.00000000   -0.35823079
     atom    3 type  2   force =     0.00000000    0.00000001    0.35823079
     atom    4 type  2   force =     0.00000001   -0.00000000    0.35823079
     atom    5 type  1   force =     0.00000000    0.00000001   -0.35823079
     atom    6 type  1   force =     0.00000001    0.00000000   -0.35823079
     atom    7 type  2   force =     0.00000000    0.00000001    0.35823079
     atom    8 type  2   force =     0.00000001   -0.00000000    0.35823079
     atom    9 type  1   force =    -0.00000000   -0.00000000   -0.35823079
     atom   10 type  1   force =    -0.00000001   -0.00000001   -0.35823079
     atom   11 type  2   force =    -0.00000000   -0.00000000    0.35823079
     atom   12 type  2   force =    -0.00000001   -0.00000000    0.35823079
     atom   13 type  1   force =    -0.00000000   -0.00000000   -0.35823079
     atom   14 type  1   force =    -0.00000001   -0.00000001   -0.35823079
     atom   15 type  2   force =    -0.00000000   -0.00000000    0.35823079
     atom   16 type  2   force =    -0.00000001   -0.00000000    0.35823079
     The local contribution  to forces
     atom    1 type  1   force =    -0.00000031   -0.00000008    0.40919715
     atom    2 type  1   force =     0.00000009    0.00000335    0.40920495
     atom    3 type  2   force =     0.00000038    0.00000025   -0.30848418
     atom    4 type  2   force =     0.00000002   -0.00000050   -0.30848393
     atom    5 type  1   force =     0.00000000    0.00000010    0.40920230
     atom    6 type  1   force =     0.00000294   -0.00000160    0.40920495
     atom    7 type  2   force =     0.00000000    0.00000003   -0.30848470
     atom    8 type  2   force =    -0.00000042    0.00000027   -0.30848393
     atom    9 type  1   force =     0.00000031   -0.00000008    0.40919715
     atom   10 type  1   force =    -0.00000009    0.00000005    0.40920769
     atom   11 type  2   force =    -0.00000038    0.00000025   -0.30848418
     atom   12 type  2   force =    -0.00000002    0.00000001   -0.30848454
     atom   13 type  1   force =    -0.00000000    0.00000045    0.40919715
     atom   14 type  1   force =    -0.00000294   -0.00000160    0.40920495
     atom   15 type  2   force =     0.00000000   -0.00000042   -0.30848418
     atom   16 type  2   force =     0.00000042    0.00000027   -0.30848393
     The core correction contribution to forces
     atom    1 type  1   force =    -0.00000001    0.00000001    0.00487782
     atom    2 type  1   force =     0.00000001   -0.00000007    0.00487766
     atom    3 type  2   force =     0.00000001    0.00000000    0.00030281
     atom    4 type  2   force =    -0.00000000   -0.00000001    0.00030280
     atom    5 type  1   force =    -0.00000000    0.00000001    0.00487777
     atom    6 type  1   force =    -0.00000005    0.00000004    0.00487766
     atom    7 type  2   force =     0.00000000   -0.00000000    0.00030281
     atom    8 type  2   force =    -0.00000001    0.00000000    0.00030280
     atom    9 type  1   force =     0.00000001    0.00000001    0.00487782
     atom   10 type  1   force =    -0.00000001    0.00000001    0.00487764
     atom   11 type  2   force =    -0.00000001    0.00000000    0.00030281
     atom   12 type  2   force =     0.00000000   -0.00000000    0.00030280
     atom   13 type  1   force =    -0.00000000    0.00000003    0.00487782
     atom   14 type  1   force =     0.00000005    0.00000004    0.00487766
     atom   15 type  2   force =    -0.00000000   -0.00000001    0.00030281
     atom   16 type  2   force =     0.00000001    0.00000000    0.00030280
     The Hubbard contrib.    to forces
     atom    1 type  1   force =     0.00000000    0.00000000    0.00000000
     atom    2 type  1   force =     0.00000000    0.00000000    0.00000000
     atom    3 type  2   force =     0.00000000    0.00000000    0.00000000
     atom    4 type  2   force =     0.00000000    0.00000000    0.00000000
     atom    5 type  1   force =     0.00000000    0.00000000    0.00000000
     atom    6 type  1   force =     0.00000000    0.00000000    0.00000000
     atom    7 type  2   force =     0.00000000    0.00000000    0.00000000
     atom    8 type  2   force =     0.00000000    0.00000000    0.00000000
     atom    9 type  1   force =     0.00000000    0.00000000    0.00000000
     atom   10 type  1   force =     0.00000000    0.00000000    0.00000000
     atom   11 type  2   force =     0.00000000    0.00000000    0.00000000
     atom   12 type  2   force =     0.00000000    0.00000000    0.00000000
     atom   13 type  1   force =     0.00000000    0.00000000    0.00000000
     atom   14 type  1   force =     0.00000000    0.00000000    0.00000000
     atom   15 type  2   force =     0.00000000    0.00000000    0.00000000
     atom   16 type  2   force =     0.00000000    0.00000000    0.00000000
     The SCF correction term to forces
     atom    1 type  1   force =     0.00000097    0.00000056    0.00000729
     atom    2 type  1   force =     0.00000000   -0.00000319   -0.00000211
     atom    3 type  2   force =     0.00000009    0.00000005    0.00000006
     atom    4 type  2   force =     0.00000000    0.00000020   -0.00000085
     atom    5 type  1   force =     0.00000000    0.00000000    0.00000034
     atom    6 type  1   force =    -0.00000276    0.00000159   -0.00000211
     atom    7 type  2   force =     0.00000000    0.00000000    0.00000082
     atom    8 type  2   force =     0.00000017   -0.00000010   -0.00000085
     atom    9 type  1   force =    -0.00000097    0.00000056    0.00000729
     atom   10 type  1   force =    -0.00000000    0.00000000   -0.00000613
     atom   11 type  2   force =    -0.00000009    0.00000005    0.00000006
     atom   12 type  2   force =    -0.00000000    0.00000000   -0.00000015
     atom   13 type  1   force =    -0.00000000   -0.00000113    0.00000729
     atom   14 type  1   force =     0.00000276    0.00000159   -0.00000211
     atom   15 type  2   force =    -0.00000000   -0.00000010    0.00000006
     atom   16 type  2   force =    -0.00000017   -0.00000010   -0.00000085

     Total force =     0.029681     Total SCF correction =     0.000016

     General routines

     Parallel routines

   This run was terminated on:  20: 1:10  23Aug2025

   JOB DONE.
Note: The following floating-point exceptions are signalling: IEEE_INVALID_FLAG
Note: The following floating-point exceptions are signalling: IEEE_INVALID_FLAG
Note: The following floating-point exceptions are signalling: IEEE_INVALID_FLAG
Note: The following floating-point exceptions are signalling: IEEE_INVALID_FLAG
Note: The following floating-point exceptions are signalling: IEEE_INVALID_FLAG
Note: The following floating-point exceptions are signalling: IEEE_INVALID_FLAG
Note: The following floating-point exceptions are signalling: IEEE_INVALID_FLAG
Note: The following floating-point exceptions are signalling: IEEE_INVALID_FLAG
Note: The following floating-point exceptions are signalling: IEEE_INVALID_FLAG
Note: The following floating-point exceptions are signalling: IEEE_INVALID_FLAG
Note: The following floating-point exceptions are signalling: IEEE_INVALID_FLAG
Note: The following floating-point exceptions are signalling: IEEE_INVALID_FLAG
Note: The following floating-point exceptions are signalling: IEEE_INVALID_FLAG
Note: The following floating-point exceptions are signalling: IEEE_INVALID_FLAG
Note: The following floating-point exceptions are signalling: IEEE_INVALID_FLAG
Note: The following floating-point exceptions are signalling: IEEE_INVALID_FLAG
Note: The following floating-point exceptions are signalling: IEEE_INVALID_FLAG
Note: The following floating-point exceptions are signalling: IEEE_INVALID_FLAG
Note: The following floating-point exceptions are signalling: IEEE_INVALID_FLAG
Note: The following floating-point exceptions are signalling: IEEE_INVALID_FLAG
Note: The following floating-point exceptions are signalling: IEEE_INVALID_FLAG
Note: The following floating-point exceptions are signalling: IEEE_INVALID_FLAG
Note: The following floating-point exceptions are signalling: IEEE_INVALID_FLAG
Note: The following floating-point exceptions are signalling: IEEE_INVALID_FLAG
Note: The following floating-point exceptions are signalling: IEEE_INVALID_FLAG
Note: The following floating-point exceptions are signalling: IEEE_INVALID_FLAG
Note: The following floating-point exceptions are signalling: IEEE_INVALID_FLAG
Note: The following floating-point exceptions are signalling: IEEE_INVALID_FLAG
Note: The following floating-point exceptions are signalling: IEEE_INVALID_FLAG
Note: The following floating-point exceptions are signalling: IEEE_INVALID_FLAG
Note: The following floating-point exceptions are signalling: IEEE_INVALID_FLAG
Note: The following floating-point exceptions are signalling: IEEE_INVALID_FLAG