     Program PWSCF v.7.2 starts on 23Aug2025 at 14:54:29

     Reading input from /home/jvc/QEspresso7.2/ZnO_database/scripts/cell221.in/ZnO-2.94-1.49-221.in
Warning: card &CELL ignored
Warning: card / ignored
Warning: card &FCP ignored
Warning: card / ignored
Warning: card &RISM ignored
Warning: card / ignored

     Current dimensions of program PWSCF are:
     Max number of different atomic species (ntypx) = 10
     Max number of k-points (npk) =  40000
     Max angular momentum in pseudopotentials (lmaxx) =  4
     file Zn.upf: wavefunction(s)  3D renormalized
     Found identity + (  0.0000 -0.5000  0.0000) symmetry
     This is a supercell, fractional translations are disabled
     Message from routine setup:
     using ibrav=0 with symmetry is DISCOURAGED, use correct ibrav instead

     K-points division:     npool     =       8
     band groups division:  nbgrp     =       4
     Subspace diagonalization in iterative solution of the eigenvalue problem:
     a serial algorithm will be used

     Using Slab Decomposition

     bravais-lattice index     =            0
     lattice parameter (alat)  =      11.1219  a.u.
     unit-cell volume          =     884.7686 (a.u.)^3
     number of atoms/cell      =           16
     number of atomic types    =            2
     number of electrons       =       144.00
     number of Kohn-Sham states=           72
     kinetic-energy cutoff     =      50.0000  Ry
     charge density cutoff     =     400.0000  Ry
     scf convergence threshold =      1.0E-08
     mixing beta               =       0.3000
     number of iterations used =            8  plain     mixing
     Exchange-correlation= PBE
                           (   1   4   3   4   0   0   0)

     celldm(1)=  11.121937  celldm(2)=   0.000000  celldm(3)=   0.000000
     celldm(4)=   0.000000  celldm(5)=   0.000000  celldm(6)=   0.000000

     crystal axes: (cart. coord. in units of alat)
               a(1) = (   1.000000   0.000000   0.000000 )
               a(2) = (  -0.500000   0.866025   0.000000 )
               a(3) = (   0.000000   0.000000   0.742605 )

     reciprocal axes: (cart. coord. in units 2 pi/alat)
               b(1) = (  1.000000  0.577350 -0.000000 )
               b(2) = (  0.000000  1.154701  0.000000 )
               b(3) = (  0.000000 -0.000000  1.346611 )

     PseudoPot. # 1 for Zn read from file:
     /home/jvc/QEspresso7.2/ZnO_database/pseudos/Zn.upf
     MD5 check sum: 7f56cabf9682ed8c977c2f7d0c5985c5
     Pseudo is Ultrasoft + core correction, Zval = 12.0
     Generated using &quot;atomic&quot; code by A. Dal Corso  v.6.2.2
     Using radial grid of 1201 points,  6 beta functions with:
                l(1) =   0
                l(2) =   0
                l(3) =   1
                l(4) =   1
                l(5) =   2
                l(6) =   2
     Q(r) pseudized with 0 coefficients

     PseudoPot. # 2 for O  read from file:
     /home/jvc/QEspresso7.2/ZnO_database/pseudos/O.upf
     MD5 check sum: 91400c9766925bcf19f520983a725ff0
     Pseudo is Ultrasoft + core correction, Zval =  6.0
     Generated using &quot;atomic&quot; code by A. Dal Corso  v.6.3MaX
     Using radial grid of 1095 points,  4 beta functions with:
                l(1) =   0
                l(2) =   0
                l(3) =   1
                l(4) =   1
     Q(r) pseudized with 0 coefficients

     atomic species   valence    mass     pseudopotential
        Zn            12.00    65.38000     Zn( 1.00)
        O              6.00    15.99900     O ( 1.00)

      6 Sym. Ops. (no inversion) found

                                    s                        frac. trans.

      isym =  1     identity

 cryst.   s( 1) = (     1          0          0      )
                  (     0          1          0      )
                  (     0          0          1      )

 cart.    s( 1) = (  1.0000000  0.0000000  0.0000000 )
                  (  0.0000000  1.0000000  0.0000000 )
                  (  0.0000000  0.0000000  1.0000000 )

      isym =  2     120 deg rotation - cryst. axis [0,0,1]

[...]

      isym =  3     120 deg rotation - cryst. axis [0,0,-1]

[...]

      isym =  4     inv. 180 deg rotation - cart. axis [1,0,0]

[...]

      isym =  5     inv. 180 deg rotation - cryst. axis [0,1,0]

[...]

      isym =  6     inv. 180 deg rotation - cryst. axis [1,1,0]

 cryst.   s( 6) = (     0         -1          0      )
                  (    -1          0          0      )
                  (     0          0          1      )

 cart.    s( 6) = (  0.5000000 -0.8660254  0.0000000 )
                  ( -0.8660254 -0.5000000  0.0000000 )
                  (  0.0000000  0.0000000  1.0000000 )

   Cartesian axes

     site n.     atom                  positions (alat units)
         1           Zn  tau(   1) = (   0.2500000   0.1443376   0.3717729  )
         2           Zn  tau(   2) = (  -0.0000000   0.2886751   0.0004705  )
         3           O   tau(   3) = (   0.2500000   0.1443376   0.6532520  )
         4           O   tau(   4) = (  -0.0000000   0.2886751   0.2819495  )
         5           Zn  tau(   5) = (   0.0000000   0.5773503   0.3717729  )
         6           Zn  tau(   6) = (  -0.2500000   0.7216878   0.0004705  )
         7           O   tau(   7) = (   0.0000000   0.5773503   0.6532520  )
         8           O   tau(   8) = (  -0.2500000   0.7216878   0.2819495  )
         9           Zn  tau(   9) = (   0.7500000   0.1443376   0.3717729  )
        10           Zn  tau(  10) = (   0.5000000   0.2886751   0.0004705  )
        11           O   tau(  11) = (   0.7500000   0.1443376   0.6532520  )
        12           O   tau(  12) = (   0.5000000   0.2886751   0.2819495  )
        13           Zn  tau(  13) = (   0.5000000   0.5773503   0.3717729  )
        14           Zn  tau(  14) = (   0.2500000   0.7216878   0.0004705  )
        15           O   tau(  15) = (   0.5000000   0.5773503   0.6532520  )
        16           O   tau(  16) = (   0.2500000   0.7216878   0.2819495  )

   Crystallographic axes

     site n.     atom                  positions (cryst. coord.)
         1           Zn  tau(   1) = (  0.3333333  0.1666667  0.5006336  )
         2           Zn  tau(   2) = (  0.1666667  0.3333333  0.0006336  )
         3           O   tau(   3) = (  0.3333333  0.1666667  0.8796764  )
         4           O   tau(   4) = (  0.1666667  0.3333333  0.3796764  )
         5           Zn  tau(   5) = (  0.3333333  0.6666667  0.5006336  )
         6           Zn  tau(   6) = (  0.1666667  0.8333333  0.0006336  )
         7           O   tau(   7) = (  0.3333333  0.6666667  0.8796764  )
         8           O   tau(   8) = (  0.1666667  0.8333333  0.3796764  )
         9           Zn  tau(   9) = (  0.8333333  0.1666667  0.5006336  )
        10           Zn  tau(  10) = (  0.6666667  0.3333333  0.0006336  )
        11           O   tau(  11) = (  0.8333333  0.1666667  0.8796764  )
        12           O   tau(  12) = (  0.6666667  0.3333333  0.3796764  )
        13           Zn  tau(  13) = (  0.8333333  0.6666667  0.5006336  )
        14           Zn  tau(  14) = (  0.6666667  0.8333333  0.0006336  )
        15           O   tau(  15) = (  0.8333333  0.6666667  0.8796764  )
        16           O   tau(  16) = (  0.6666667  0.8333333  0.3796764  )

     number of k points=    34
                       cart. coord. in units 2pi/alat
        k(    1) = (   0.0000000   0.0000000   0.0000000), wk =   0.0092593
        k(    2) = (   0.0000000   0.0000000   0.2244352), wk =   0.0185185
        k(    3) = (   0.0000000   0.0000000   0.4488704), wk =   0.0185185
        k(    4) = (   0.0000000   0.0000000  -0.6733056), wk =   0.0092593
        k(    5) = (   0.0000000   0.1924501   0.0000000), wk =   0.0555556
        k(    6) = (   0.0000000   0.1924501   0.2244352), wk =   0.0555556
        k(    7) = (   0.0000000   0.1924501   0.4488704), wk =   0.0555556
        k(    8) = (   0.0000000   0.1924501  -0.6733056), wk =   0.0555556
        k(    9) = (   0.0000000   0.3849002   0.0000000), wk =   0.0555556
        k(   10) = (   0.0000000   0.3849002   0.2244352), wk =   0.0555556
        k(   11) = (   0.0000000   0.3849002   0.4488704), wk =   0.0555556
        k(   12) = (   0.0000000   0.3849002  -0.6733056), wk =   0.0555556
        k(   13) = (   0.0000000  -0.5773503   0.0000000), wk =   0.0277778
        k(   14) = (   0.0000000  -0.5773503   0.2244352), wk =   0.0555556
        k(   15) = (   0.0000000  -0.5773503   0.4488704), wk =   0.0555556
        k(   16) = (   0.0000000  -0.5773503  -0.6733056), wk =   0.0277778
        k(   17) = (   0.1666667   0.2886751   0.0000000), wk =   0.0555556
        k(   18) = (   0.1666667   0.2886751   0.2244352), wk =   0.1111111
        k(   19) = (   0.1666667   0.2886751   0.4488704), wk =   0.1111111
        k(   20) = (   0.1666667   0.2886751  -0.6733056), wk =   0.0555556
        k(   21) = (   0.1666667   0.4811252   0.0000000), wk =   0.1111111
        k(   22) = (   0.1666667   0.4811252   0.2244352), wk =   0.1111111
        k(   23) = (   0.1666667   0.4811252   0.4488704), wk =   0.1111111
        k(   24) = (   0.1666667   0.4811252  -0.6733056), wk =   0.1111111
        k(   25) = (   0.3333333   0.5773503   0.0000000), wk =   0.0185185
        k(   26) = (   0.3333333   0.5773503   0.2244352), wk =   0.0370370
        k(   27) = (   0.3333333   0.5773503   0.4488704), wk =   0.0370370
        k(   28) = (   0.3333333   0.5773503  -0.6733056), wk =   0.0185185
        k(   29) = (   0.0000000  -0.1924501   0.2244352), wk =   0.0555556
        k(   30) = (   0.0000000  -0.1924501   0.4488704), wk =   0.0555556
        k(   31) = (   0.0000000  -0.3849002   0.2244352), wk =   0.0555556
        k(   32) = (   0.0000000  -0.3849002   0.4488704), wk =   0.0555556
        k(   33) = (  -0.1666667  -0.4811252   0.2244352), wk =   0.1111111
        k(   34) = (  -0.1666667  -0.4811252   0.4488704), wk =   0.1111111

                       cryst. coord.
        k(    1) = (   0.0000000   0.0000000   0.0000000), wk =   0.0092593
        k(    2) = (   0.0000000   0.0000000   0.1666667), wk =   0.0185185
        k(    3) = (   0.0000000   0.0000000   0.3333333), wk =   0.0185185
        k(    4) = (   0.0000000   0.0000000  -0.5000000), wk =   0.0092593
        k(    5) = (   0.0000000   0.1666667   0.0000000), wk =   0.0555556
        k(    6) = (   0.0000000   0.1666667   0.1666667), wk =   0.0555556
        k(    7) = (   0.0000000   0.1666667   0.3333333), wk =   0.0555556
        k(    8) = (   0.0000000   0.1666667  -0.5000000), wk =   0.0555556
        k(    9) = (   0.0000000   0.3333333   0.0000000), wk =   0.0555556
        k(   10) = (   0.0000000   0.3333333   0.1666667), wk =   0.0555556
        k(   11) = (   0.0000000   0.3333333   0.3333333), wk =   0.0555556
        k(   12) = (   0.0000000   0.3333333  -0.5000000), wk =   0.0555556
        k(   13) = (   0.0000000  -0.5000000   0.0000000), wk =   0.0277778
        k(   14) = (   0.0000000  -0.5000000   0.1666667), wk =   0.0555556
        k(   15) = (   0.0000000  -0.5000000   0.3333333), wk =   0.0555556
[...]
        k(   25) = (   0.3333333   0.3333333   0.0000000), wk =   0.0185185
        k(   26) = (   0.3333333   0.3333333   0.1666667), wk =   0.0370370
        k(   27) = (   0.3333333   0.3333333   0.3333333), wk =   0.0370370
        k(   28) = (   0.3333333   0.3333333  -0.5000000), wk =   0.0185185
        k(   29) = (   0.0000000  -0.1666667   0.1666667), wk =   0.0555556
        k(   30) = (   0.0000000  -0.1666667   0.3333333), wk =   0.0555556
        k(   31) = (   0.0000000  -0.3333333   0.1666667), wk =   0.0555556
        k(   32) = (   0.0000000  -0.3333333   0.3333333), wk =   0.0555556
        k(   33) = (  -0.1666667  -0.3333333   0.1666667), wk =   0.1111111
        k(   34) = (  -0.1666667  -0.3333333   0.3333333), wk =   0.1111111

     Initial potential from superposition of free atoms

     starting charge     143.9702, renormalised to     144.0000
     Starting wfcs are  104 randomized atomic wfcs

     Self-consistent Calculation

     iteration #  1     ecut=    50.00 Ry     beta= 0.30
     Davidson diagonalization with overlap

     ethr =  1.00E-02,  avg # of iterations =  2.7

     total energy              =   -1444.54518919 Ry
     estimated scf accuracy    <       2.89956058 Ry

[...]

     c_bands:  1 eigenvalues not converged
     c_bands:  1 eigenvalues not converged
     ethr =  1.82E-07,  avg # of iterations = 15.2

[...]

     total energy              =   -1445.04850605 Ry
     estimated scf accuracy    <       0.00000002 Ry

     iteration # 18     ecut=    50.00 Ry     beta= 0.30
     Davidson diagonalization with overlap

     ethr =  1.29E-11,  avg # of iterations =  4.4

     End of self-consistent calculation

          k = 0.0000 0.0000 0.0000 (  5335 PWs)   bands (ev):

    -7.7747  -6.4633  -6.4633  -6.4633  -6.0944  -5.9440  -5.9440  -5.9440
     5.0853   5.0853   5.0853   5.1061   5.1061   5.1061   5.2185   5.8200
     5.8200   5.9133   6.1740   6.1740   6.1740   6.2219   6.2219   6.2937
     6.2937   6.2937   6.9405   6.9405   6.9405   7.2025   7.2025   7.2025
     8.2676   8.2676   8.3635   8.3635   8.3635   8.7034   8.7034   8.7034
     8.8498   8.8498   8.9823   8.9823   8.9823   9.0235   9.0235   9.0235
     9.2556   9.2556   9.2556   9.3295   9.7773   9.7773   9.7773  10.1445
    10.1445  10.1445  10.3582  10.3582  10.3582  12.4686  12.4686  12.4686
    12.5436  12.5436  12.8783  12.8783  12.8783  14.1308  14.1499  14.1499

     occupation numbers
     1.0000   1.0000   1.0000   1.0000   1.0000   1.0000   1.0000   1.0000
     1.0000   1.0000   1.0000   1.0000   1.0000   1.0000   1.0000   1.0000
     1.0000   1.0000   1.0000   1.0000   1.0000   1.0000   1.0000   1.0000
     1.0000   1.0000   1.0000   1.0000   1.0000   1.0000   1.0000   1.0000
     1.0000   1.0000   1.0000   1.0000   1.0000   1.0000   1.0000   1.0000
     1.0000   1.0000   1.0000   1.0000   1.0000   1.0000   1.0000   1.0000
     1.0000   1.0000   1.0000   1.0000   1.0000   1.0000   1.0000   1.0000
     1.0000   1.0000   1.0000   1.0000   1.0000   1.0000   1.0000   1.0000
     1.0000   1.0000   1.0000   1.0000   1.0000   1.0000   1.0000   1.0000

[...]

          k = 0.0000-0.3849 0.4489 (  5278 PWs)   bands (ev):

[...]

          k =-0.1667-0.4811 0.2244 (  5274 PWs)   bands (ev):

[...]

          k =-0.1667-0.4811 0.4489 (  5274 PWs)   bands (ev):

    -6.9868  -6.7235  -6.5143  -6.3018  -6.1675  -6.1631  -6.0801  -6.0186
     4.7945   4.8232   4.8871   4.8910   4.9023   5.0234   5.0549   5.0806
     5.8062   5.9914   5.9974   6.0419   6.0474   6.0674   6.0907   6.1423
     6.1839   6.3359   6.3503   6.5223   6.5286   6.6837   6.8465   6.8876
     8.3269   8.4050   8.4110   8.4177   8.4961   8.5252   8.5606   8.6515
     8.8075   8.8234   8.8643   8.8727   8.9130   8.9890   9.0863   9.2648
     9.5405   9.7831   9.9941  10.0819  10.4180  10.6352  10.8633  11.0183
    11.0533  11.1905  11.4663  11.5212  11.5665  11.6259  11.9221  12.0525
    12.1953  12.2489  12.5819  12.7452  13.0422  13.1399  13.2018  13.3672

     occupation numbers
     1.0000   1.0000   1.0000   1.0000   1.0000   1.0000   1.0000   1.0000
     1.0000   1.0000   1.0000   1.0000   1.0000   1.0000   1.0000   1.0000
     1.0000   1.0000   1.0000   1.0000   1.0000   1.0000   1.0000   1.0000
     1.0000   1.0000   1.0000   1.0000   1.0000   1.0000   1.0000   1.0000
     1.0000   1.0000   1.0000   1.0000   1.0000   1.0000   1.0000   1.0000
     1.0000   1.0000   1.0000   1.0000   1.0000   1.0000   1.0000   1.0000
     1.0000   1.0000   1.0000   1.0000   1.0000   1.0000   1.0000   1.0000
     1.0000   1.0000   1.0000   1.0000   1.0000   1.0000   1.0000   1.0000
     1.0000   1.0000   1.0000   1.0000   1.0000   1.0000   1.0000   1.0000

     highest occupied level (ev):    14.1499

!    total energy              =   -1445.04850606 Ry
     estimated scf accuracy    <          1.6E-10 Ry

     The total energy is the sum of the following terms:
     one-electron contribution =    -428.70762868 Ry
     hartree contribution      =     410.12957701 Ry
     xc contribution           =    -442.44254053 Ry
     ewald contribution        =    -984.02791386 Ry

     convergence has been achieved in  18 iterations

     Forces acting on atoms (cartesian axes, Ry/au):

     atom    1 type  1   force =    -0.00000091   -0.00000053   -0.15381622
     atom    2 type  1   force =    -0.00000000    0.00000044   -0.15382195
     atom    3 type  2   force =    -0.00000018   -0.00000011    0.15381901
     atom    4 type  2   force =     0.00000000    0.00000066    0.15381929
     atom    5 type  1   force =     0.00000000   -0.00000000   -0.15381877
     atom    6 type  1   force =     0.00000038   -0.00000022   -0.15382195
     atom    7 type  2   force =     0.00000000   -0.00000000    0.15381906
     atom    8 type  2   force =     0.00000057   -0.00000033    0.15381929
     atom    9 type  1   force =     0.00000091   -0.00000053   -0.15381622
     atom   10 type  1   force =     0.00000000    0.00000000   -0.15381970
     atom   11 type  2   force =     0.00000018   -0.00000011    0.15381901
     atom   12 type  2   force =     0.00000000    0.00000000    0.15381900
     atom   13 type  1   force =     0.00000000    0.00000105   -0.15381622
     atom   14 type  1   force =    -0.00000038   -0.00000022   -0.15382195
     atom   15 type  2   force =     0.00000000    0.00000021    0.15381901
     atom   16 type  2   force =    -0.00000057   -0.00000033    0.15381929
     The non-local contrib.  to forces
     atom    1 type  1   force =    -0.00000021   -0.00000012   -0.30115912
     atom    2 type  1   force =    -0.00000000   -0.00000005   -0.30116155
     atom    3 type  2   force =     0.00000050    0.00000029   -0.15036698
     atom    4 type  2   force =     0.00000000    0.00000039   -0.15036842
     atom    5 type  1   force =     0.00000000    0.00000000   -0.30115987
     atom    6 type  1   force =    -0.00000004    0.00000002   -0.30116155
     atom    7 type  2   force =     0.00000000   -0.00000000   -0.15036758
     atom    8 type  2   force =     0.00000034   -0.00000020   -0.15036842
     atom    9 type  1   force =     0.00000021   -0.00000012   -0.30115912
     atom   10 type  1   force =     0.00000000   -0.00000000   -0.30116156
     atom   11 type  2   force =    -0.00000050    0.00000029   -0.15036698
     atom   12 type  2   force =     0.00000000    0.00000000   -0.15036855
     atom   13 type  1   force =     0.00000000    0.00000024   -0.30115912
     atom   14 type  1   force =     0.00000004    0.00000002   -0.30116155
     atom   15 type  2   force =    -0.00000000   -0.00000058   -0.15036698
     atom   16 type  2   force =    -0.00000034   -0.00000020   -0.15036842
     The ionic contribution  to forces
     atom    1 type  1   force =    -0.00000001    0.00000001   -2.15847727
     atom    2 type  1   force =     0.00000001    0.00000001   -2.15847727
     atom    3 type  2   force =    -0.00000001    0.00000001    2.15847727
     atom    4 type  2   force =     0.00000000    0.00000000    2.15847727
     atom    5 type  1   force =     0.00000000   -0.00000000   -2.15847728
     atom    6 type  1   force =    -0.00000000   -0.00000002   -2.15847727
     atom    7 type  2   force =     0.00000000    0.00000000    2.15847728
     atom    8 type  2   force =    -0.00000000   -0.00000001    2.15847727
     atom    9 type  1   force =    -0.00000001    0.00000001   -2.15847727
     atom   10 type  1   force =     0.00000001    0.00000001   -2.15847727
     atom   11 type  2   force =    -0.00000001    0.00000001    2.15847727
     atom   12 type  2   force =     0.00000000    0.00000000    2.15847727
     atom   13 type  1   force =     0.00000000   -0.00000000   -2.15847728
     atom   14 type  1   force =    -0.00000000   -0.00000002   -2.15847727
     atom   15 type  2   force =     0.00000000    0.00000000    2.15847728
     atom   16 type  2   force =    -0.00000000   -0.00000001    2.15847727
     The local contribution  to forces
     atom    1 type  1   force =     0.00000117    0.00000076    2.27256102
     atom    2 type  1   force =     0.00000007   -0.00000012    2.27256659
     atom    3 type  2   force =     0.00000069    0.00000042   -1.85481634
     atom    4 type  2   force =     0.00000002   -0.00000237   -1.85481998
     atom    5 type  1   force =    -0.00000000    0.00000009    2.27256302
     atom    6 type  1   force =    -0.00000014   -0.00000001    2.27256659
     atom    7 type  2   force =    -0.00000000    0.00000002   -1.85481644
     atom    8 type  2   force =    -0.00000207    0.00000117   -1.85481998
     atom    9 type  1   force =    -0.00000117    0.00000076    2.27256102
     atom   10 type  1   force =     0.00000007    0.00000004    2.27256599
     atom   11 type  2   force =    -0.00000069    0.00000042   -1.85481634
     atom   12 type  2   force =     0.00000002    0.00000001   -1.85481940
     atom   13 type  1   force =    -0.00000000   -0.00000127    2.27256102
     atom   14 type  1   force =     0.00000014   -0.00000001    2.27256659
     atom   15 type  2   force =    -0.00000000   -0.00000077   -1.85481634
     atom   16 type  2   force =     0.00000207    0.00000117   -1.85481998
     The core correction contribution to forces
     atom    1 type  1   force =    -0.00000001    0.00000000    0.03325373
     atom    2 type  1   force =     0.00000001    0.00000002    0.03325383
     atom    3 type  2   force =    -0.00000001   -0.00000000    0.00053168
     atom    4 type  2   force =    -0.00000000   -0.00000001    0.00053169
     atom    5 type  1   force =    -0.00000000    0.00000001    0.03325377
     atom    6 type  1   force =     0.00000001   -0.00000002    0.03325383
     atom    7 type  2   force =    -0.00000000   -0.00000000    0.00053169
     atom    8 type  2   force =    -0.00000001    0.00000001    0.00053169
     atom    9 type  1   force =     0.00000001    0.00000000    0.03325373
     atom   10 type  1   force =     0.00000001    0.00000001    0.03325378
     atom   11 type  2   force =     0.00000001   -0.00000000    0.00053168
     atom   12 type  2   force =    -0.00000000   -0.00000000    0.00053170
     atom   13 type  1   force =    -0.00000000    0.00000003    0.03325373
     atom   14 type  1   force =    -0.00000001   -0.00000002    0.03325383
     atom   15 type  2   force =    -0.00000000    0.00000001    0.00053168
     atom   16 type  2   force =     0.00000001    0.00000001    0.00053169
     The Hubbard contrib.    to forces
     atom    1 type  1   force =     0.00000000    0.00000000    0.00000000
     atom    2 type  1   force =     0.00000000    0.00000000    0.00000000
     atom    3 type  2   force =     0.00000000    0.00000000    0.00000000
     atom    4 type  2   force =     0.00000000    0.00000000    0.00000000
     atom    5 type  1   force =     0.00000000    0.00000000    0.00000000
     atom    6 type  1   force =     0.00000000    0.00000000    0.00000000
     atom    7 type  2   force =     0.00000000    0.00000000    0.00000000
     atom    8 type  2   force =     0.00000000    0.00000000    0.00000000
     atom    9 type  1   force =     0.00000000    0.00000000    0.00000000
     atom   10 type  1   force =     0.00000000    0.00000000    0.00000000
     atom   11 type  2   force =     0.00000000    0.00000000    0.00000000
     atom   12 type  2   force =     0.00000000    0.00000000    0.00000000
     atom   13 type  1   force =     0.00000000    0.00000000    0.00000000
     atom   14 type  1   force =     0.00000000    0.00000000    0.00000000
     atom   15 type  2   force =     0.00000000    0.00000000    0.00000000
     atom   16 type  2   force =     0.00000000    0.00000000    0.00000000
     The SCF correction term to forces
     atom    1 type  1   force =    -0.00000187   -0.00000108    0.00000833
     atom    2 type  1   force =     0.00000000    0.00000057   -0.00000063
     atom    3 type  2   force =    -0.00000137   -0.00000079   -0.00000371
     atom    4 type  2   force =     0.00000000    0.00000265    0.00000164
     atom    5 type  1   force =     0.00000000    0.00000000    0.00000449
     atom    6 type  1   force =     0.00000050   -0.00000029   -0.00000063
     atom    7 type  2   force =     0.00000000    0.00000000   -0.00000298
     atom    8 type  2   force =     0.00000229   -0.00000132    0.00000164
     atom    9 type  1   force =     0.00000187   -0.00000108    0.00000833
     atom   10 type  1   force =     0.00000000    0.00000000    0.00000227
     atom   11 type  2   force =     0.00000137   -0.00000079   -0.00000371
     atom   12 type  2   force =     0.00000000    0.00000000    0.00000089
     atom   13 type  1   force =     0.00000000    0.00000216    0.00000833
     atom   14 type  1   force =    -0.00000050   -0.00000029   -0.00000063
     atom   15 type  2   force =     0.00000000    0.00000158   -0.00000371
     atom   16 type  2   force =    -0.00000229   -0.00000132    0.00000164

     Total force =     0.615276     Total SCF correction =     0.000018

     General routines

     Parallel routines

   This run was terminated on:  14:57:52  23Aug2025

   JOB DONE.
Note: The following floating-point exceptions are signalling: IEEE_INVALID_FLAG
Note: The following floating-point exceptions are signalling: IEEE_INVALID_FLAG
Note: The following floating-point exceptions are signalling: IEEE_INVALID_FLAG
Note: The following floating-point exceptions are signalling: IEEE_INVALID_FLAG
Note: The following floating-point exceptions are signalling: IEEE_INVALID_FLAG
Note: The following floating-point exceptions are signalling: IEEE_INVALID_FLAG
Note: The following floating-point exceptions are signalling: IEEE_INVALID_FLAG
Note: The following floating-point exceptions are signalling: IEEE_INVALID_FLAG
Note: The following floating-point exceptions are signalling: IEEE_INVALID_FLAG
Note: The following floating-point exceptions are signalling: IEEE_INVALID_FLAG
Note: The following floating-point exceptions are signalling: IEEE_INVALID_FLAG
Note: The following floating-point exceptions are signalling: IEEE_INVALID_FLAG
Note: The following floating-point exceptions are signalling: IEEE_INVALID_FLAG
Note: The following floating-point exceptions are signalling: IEEE_INVALID_FLAG
Note: The following floating-point exceptions are signalling: IEEE_INVALID_FLAG
Note: The following floating-point exceptions are signalling: IEEE_INVALID_FLAG
Note: The following floating-point exceptions are signalling: IEEE_INVALID_FLAG
Note: The following floating-point exceptions are signalling: IEEE_INVALID_FLAG
Note: The following floating-point exceptions are signalling: IEEE_INVALID_FLAG
Note: The following floating-point exceptions are signalling: IEEE_INVALID_FLAG
Note: The following floating-point exceptions are signalling: IEEE_INVALID_FLAG
Note: The following floating-point exceptions are signalling: IEEE_INVALID_FLAG
Note: The following floating-point exceptions are signalling: IEEE_INVALID_FLAG
Note: The following floating-point exceptions are signalling: IEEE_INVALID_FLAG
Note: The following floating-point exceptions are signalling: IEEE_INVALID_FLAG
Note: The following floating-point exceptions are signalling: IEEE_INVALID_FLAG
Note: The following floating-point exceptions are signalling: IEEE_INVALID_FLAG
Note: The following floating-point exceptions are signalling: IEEE_INVALID_FLAG
Note: The following floating-point exceptions are signalling: IEEE_INVALID_FLAG
Note: The following floating-point exceptions are signalling: IEEE_INVALID_FLAG
Note: The following floating-point exceptions are signalling: IEEE_INVALID_FLAG
Note: The following floating-point exceptions are signalling: IEEE_INVALID_FLAG