     Program PWSCF v.7.2 starts on 27Aug2025 at 12:23:55

     Reading input from /home/jvc/QEspresso7.2/ZnO_database/scripts/cell331.in/ZnO-3.53-1.58-331.in
Warning: card &CELL ignored
Warning: card / ignored
Warning: card &FCP ignored
Warning: card / ignored
Warning: card &RISM ignored
Warning: card / ignored

     Current dimensions of program PWSCF are:
     Max number of different atomic species (ntypx) = 10
     Max number of k-points (npk) =  40000
     Max angular momentum in pseudopotentials (lmaxx) =  4
     file Zn.upf: wavefunction(s)  3D renormalized
     Found identity + ( -0.0000  0.3333  0.0000) symmetry
     This is a supercell, fractional translations are disabled
     Message from routine setup:
     using ibrav=0 with symmetry is DISCOURAGED, use correct ibrav instead

     K-points division:     npool     =      16
     band groups division:  nbgrp     =       4
     Subspace diagonalization in iterative solution of the eigenvalue problem:
     a serial algorithm will be used

     Using Slab Decomposition

     bravais-lattice index     =            0
     lattice parameter (alat)  =      20.0195  a.u.
     unit-cell volume          =    3664.3270 (a.u.)^3
     number of atoms/cell      =           36
     number of atomic types    =            2
     number of electrons       =       324.00
     number of Kohn-Sham states=          162
     kinetic-energy cutoff     =      50.0000  Ry
     charge density cutoff     =     400.0000  Ry
     scf convergence threshold =      1.0E-08
     mixing beta               =       0.3000
     number of iterations used =            8  plain     mixing
     Exchange-correlation= PBE
                           (   1   4   3   4   0   0   0)

     celldm(1)=  20.019487  celldm(2)=   0.000000  celldm(3)=   0.000000
     celldm(4)=   0.000000  celldm(5)=   0.000000  celldm(6)=   0.000000

     crystal axes: (cart. coord. in units of alat)
               a(1) = (   1.000000   0.000000   0.000000 )
               a(2) = (  -0.500000   0.866025   0.000000 )
               a(3) = (   0.000000   0.000000   0.527357 )

     reciprocal axes: (cart. coord. in units 2 pi/alat)
               b(1) = (  1.000000  0.577350 -0.000000 )
               b(2) = (  0.000000  1.154701  0.000000 )
               b(3) = (  0.000000 -0.000000  1.896248 )

     PseudoPot. # 1 for Zn read from file:
     /home/jvc/QEspresso7.2/ZnO_database/pseudos/Zn.upf
     MD5 check sum: 7f56cabf9682ed8c977c2f7d0c5985c5
     Pseudo is Ultrasoft + core correction, Zval = 12.0
     Generated using &quot;atomic&quot; code by A. Dal Corso  v.6.2.2
     Using radial grid of 1201 points,  6 beta functions with:
                l(1) =   0
                l(2) =   0
                l(3) =   1
                l(4) =   1
                l(5) =   2
                l(6) =   2
     Q(r) pseudized with 0 coefficients

     PseudoPot. # 2 for O  read from file:
     /home/jvc/QEspresso7.2/ZnO_database/pseudos/O.upf
     MD5 check sum: 91400c9766925bcf19f520983a725ff0
     Pseudo is Ultrasoft + core correction, Zval =  6.0
     Generated using &quot;atomic&quot; code by A. Dal Corso  v.6.3MaX
     Using radial grid of 1095 points,  4 beta functions with:
                l(1) =   0
                l(2) =   0
                l(3) =   1
                l(4) =   1
     Q(r) pseudized with 0 coefficients

     atomic species   valence    mass     pseudopotential
        Zn            12.00    65.38000     Zn( 1.00)
        O              6.00    15.99900     O ( 1.00)

      6 Sym. Ops. (no inversion) found

                                    s                        frac. trans.

      isym =  1     identity

 cryst.   s( 1) = (     1          0          0      )
                  (     0          1          0      )
                  (     0          0          1      )

 cart.    s( 1) = (  1.0000000  0.0000000  0.0000000 )
                  (  0.0000000  1.0000000  0.0000000 )
                  (  0.0000000  0.0000000  1.0000000 )

      isym =  2     120 deg rotation - cryst. axis [0,0,1]

[...]

      isym =  3     120 deg rotation - cryst. axis [0,0,-1]

[...]

      isym =  4     inv. 180 deg rotation - cart. axis [1,0,0]

[...]

      isym =  5     inv. 180 deg rotation - cryst. axis [0,1,0]

[...]

      isym =  6     inv. 180 deg rotation - cryst. axis [1,1,0]

 cryst.   s( 6) = (     0         -1          0      )
                  (    -1          0          0      )
                  (     0          0          1      )

 cart.    s( 6) = (  0.5000000 -0.8660254  0.0000000 )
                  ( -0.8660254 -0.5000000  0.0000000 )
                  (  0.0000000  0.0000000  1.0000000 )

   Cartesian axes

     site n.     atom                  positions (alat units)
         1           Zn  tau(   1) = (   0.1666667   0.0962250   0.2640127  )
         2           Zn  tau(   2) = (   0.0000000   0.1924501   0.0003341  )
         3           O   tau(   3) = (   0.1666667   0.0962250   0.4639036  )
         4           O   tau(   4) = (   0.0000000   0.1924501   0.2002250  )
         5           Zn  tau(   5) = (   0.0000000   0.3849002   0.2640127  )
         6           Zn  tau(   6) = (  -0.1666667   0.4811252   0.0003341  )
         7           O   tau(   7) = (   0.0000000   0.3849002   0.4639036  )
         8           O   tau(   8) = (  -0.1666667   0.4811252   0.2002250  )
         9           Zn  tau(   9) = (  -0.1666667   0.6735753   0.2640127  )
        10           Zn  tau(  10) = (  -0.3333333   0.7698004   0.0003341  )
        11           O   tau(  11) = (  -0.1666667   0.6735753   0.4639036  )
        12           O   tau(  12) = (  -0.3333333   0.7698004   0.2002250  )
        13           Zn  tau(  13) = (   0.5000000   0.0962250   0.2640127  )
        14           Zn  tau(  14) = (   0.3333333   0.1924501   0.0003341  )
        15           O   tau(  15) = (   0.5000000   0.0962250   0.4639036  )
        16           O   tau(  16) = (   0.3333333   0.1924501   0.2002250  )
        17           Zn  tau(  17) = (   0.3333333   0.3849002   0.2640127  )
        18           Zn  tau(  18) = (   0.1666667   0.4811252   0.0003341  )
        19           O   tau(  19) = (   0.3333333   0.3849002   0.4639036  )
        20           O   tau(  20) = (   0.1666667   0.4811252   0.2002250  )
        21           Zn  tau(  21) = (   0.1666667   0.6735753   0.2640127  )
        22           Zn  tau(  22) = (  -0.0000000   0.7698004   0.0003341  )
        23           O   tau(  23) = (   0.1666667   0.6735753   0.4639036  )
        24           O   tau(  24) = (  -0.0000000   0.7698004   0.2002250  )
        25           Zn  tau(  25) = (   0.8333333   0.0962250   0.2640127  )
        26           Zn  tau(  26) = (   0.6666667   0.1924501   0.0003341  )
        27           O   tau(  27) = (   0.8333333   0.0962250   0.4639036  )
        28           O   tau(  28) = (   0.6666667   0.1924501   0.2002250  )
        29           Zn  tau(  29) = (   0.6666667   0.3849002   0.2640127  )
        30           Zn  tau(  30) = (   0.5000000   0.4811252   0.0003341  )
        31           O   tau(  31) = (   0.6666667   0.3849002   0.4639036  )
        32           O   tau(  32) = (   0.5000000   0.4811252   0.2002250  )
        33           Zn  tau(  33) = (   0.5000000   0.6735753   0.2640127  )
        34           Zn  tau(  34) = (   0.3333333   0.7698004   0.0003341  )
        35           O   tau(  35) = (   0.5000000   0.6735753   0.4639036  )
        36           O   tau(  36) = (   0.3333333   0.7698004   0.2002250  )

   Crystallographic axes

     site n.     atom                  positions (cryst. coord.)
         1           Zn  tau(   1) = (  0.2222222  0.1111111  0.5006336  )
         2           Zn  tau(   2) = (  0.1111111  0.2222222  0.0006336  )
         3           O   tau(   3) = (  0.2222222  0.1111111  0.8796764  )
         4           O   tau(   4) = (  0.1111111  0.2222222  0.3796764  )
         5           Zn  tau(   5) = (  0.2222222  0.4444444  0.5006336  )
         6           Zn  tau(   6) = (  0.1111111  0.5555556  0.0006336  )
         7           O   tau(   7) = (  0.2222222  0.4444444  0.8796764  )
         8           O   tau(   8) = (  0.1111111  0.5555556  0.3796764  )
         9           Zn  tau(   9) = (  0.2222222  0.7777778  0.5006336  )
        10           Zn  tau(  10) = (  0.1111111  0.8888889  0.0006336  )
        11           O   tau(  11) = (  0.2222222  0.7777778  0.8796764  )
        12           O   tau(  12) = (  0.1111111  0.8888889  0.3796764  )
        13           Zn  tau(  13) = (  0.5555556  0.1111111  0.5006336  )
        14           Zn  tau(  14) = (  0.4444444  0.2222222  0.0006336  )
        15           O   tau(  15) = (  0.5555556  0.1111111  0.8796764  )
        16           O   tau(  16) = (  0.4444444  0.2222222  0.3796764  )
        17           Zn  tau(  17) = (  0.5555556  0.4444444  0.5006336  )
        18           Zn  tau(  18) = (  0.4444444  0.5555556  0.0006336  )
        19           O   tau(  19) = (  0.5555556  0.4444444  0.8796764  )
        20           O   tau(  20) = (  0.4444444  0.5555556  0.3796764  )
        21           Zn  tau(  21) = (  0.5555556  0.7777778  0.5006336  )
        22           Zn  tau(  22) = (  0.4444444  0.8888889  0.0006336  )
        23           O   tau(  23) = (  0.5555556  0.7777778  0.8796764  )
        24           O   tau(  24) = (  0.4444444  0.8888889  0.3796764  )
        25           Zn  tau(  25) = (  0.8888889  0.1111111  0.5006336  )
        26           Zn  tau(  26) = (  0.7777778  0.2222222  0.0006336  )
        27           O   tau(  27) = (  0.8888889  0.1111111  0.8796764  )
        28           O   tau(  28) = (  0.7777778  0.2222222  0.3796764  )
        29           Zn  tau(  29) = (  0.8888889  0.4444444  0.5006336  )
        30           Zn  tau(  30) = (  0.7777778  0.5555556  0.0006336  )
        31           O   tau(  31) = (  0.8888889  0.4444444  0.8796764  )
        32           O   tau(  32) = (  0.7777778  0.5555556  0.3796764  )
        33           Zn  tau(  33) = (  0.8888889  0.7777778  0.5006336  )
        34           Zn  tau(  34) = (  0.7777778  0.8888889  0.0006336  )
        35           O   tau(  35) = (  0.8888889  0.7777778  0.8796764  )
        36           O   tau(  36) = (  0.7777778  0.8888889  0.3796764  )

     number of k points=    34
                       cart. coord. in units 2pi/alat
        k(    1) = (   0.0000000   0.0000000   0.0000000), wk =   0.0092593
        k(    2) = (   0.0000000   0.0000000   0.3160414), wk =   0.0185185
        k(    3) = (   0.0000000   0.0000000   0.6320828), wk =   0.0185185
        k(    4) = (   0.0000000   0.0000000  -0.9481242), wk =   0.0092593
        k(    5) = (   0.0000000   0.1924501   0.0000000), wk =   0.0555556
        k(    6) = (   0.0000000   0.1924501   0.3160414), wk =   0.0555556
        k(    7) = (   0.0000000   0.1924501   0.6320828), wk =   0.0555556
        k(    8) = (   0.0000000   0.1924501  -0.9481242), wk =   0.0555556
        k(    9) = (   0.0000000   0.3849002   0.0000000), wk =   0.0555556
[...]
     atom   34 type  1   force =    -0.00000001   -0.00000001   -0.30712516
     atom   35 type  2   force =    -0.00000000   -0.00000001    0.30712516
     atom   36 type  2   force =    -0.00000000   -0.00000000    0.30712516
     The local contribution  to forces
     atom    1 type  1   force =    -0.00002322   -0.00001341    0.35981068
     atom    2 type  1   force =     0.00000000   -0.00002894    0.35980762
     atom    3 type  2   force =    -0.00000783   -0.00000452   -0.26216891
     atom    4 type  2   force =     0.00000000   -0.00000801   -0.26216932
     atom    5 type  1   force =     0.00000000   -0.00000953    0.35980609
     atom    6 type  1   force =     0.00000132    0.00000060    0.35981398
     atom    7 type  2   force =    -0.00000000   -0.00000286   -0.26217007
     atom    8 type  2   force =    -0.00000020   -0.00000016   -0.26217106
     atom    9 type  1   force =    -0.00000825    0.00000476    0.35980609
     atom   10 type  1   force =    -0.00002506    0.00001447    0.35980762
     atom   11 type  2   force =    -0.00000248    0.00000143   -0.26217007
     atom   12 type  2   force =    -0.00000694    0.00000400   -0.26216932
     atom   13 type  1   force =    -0.00000014   -0.00001755    0.35980701
     atom   14 type  1   force =    -0.00002704   -0.00001561    0.35981216
     atom   15 type  2   force =    -0.00000004   -0.00000688   -0.26217069
     atom   16 type  2   force =    -0.00000685   -0.00000395   -0.26217128
     atom   17 type  1   force =    -0.00001541    0.00000889    0.35980701
     atom   18 type  1   force =    -0.00000104    0.00000060    0.35981398
     atom   19 type  2   force =    -0.00000601    0.00000347   -0.26217069
     atom   20 type  2   force =     0.00000027   -0.00000016   -0.26217106
     atom   21 type  1   force =     0.00000825    0.00000476    0.35980609
     atom   22 type  1   force =     0.00000014   -0.00000144    0.35981398
     atom   23 type  2   force =     0.00000248    0.00000143   -0.26217007
     atom   24 type  2   force =     0.00000004    0.00000025   -0.26217106
     atom   25 type  1   force =     0.00002322   -0.00001341    0.35981068
     atom   26 type  1   force =     0.00002704   -0.00001561    0.35981216
     atom   27 type  2   force =     0.00000783   -0.00000452   -0.26216891
     atom   28 type  2   force =     0.00000685   -0.00000395   -0.26217128
     atom   29 type  1   force =     0.00001512    0.00000889    0.35980701
     atom   30 type  1   force =     0.00000000    0.00003123    0.35981216
     atom   31 type  2   force =     0.00000594    0.00000347   -0.26217069
     atom   32 type  2   force =     0.00000000    0.00000790   -0.26217128
     atom   33 type  1   force =     0.00000000    0.00002681    0.35981068
     atom   34 type  1   force =     0.00002506    0.00001447    0.35980762
     atom   35 type  2   force =     0.00000000    0.00000904   -0.26216891
     atom   36 type  2   force =     0.00000694    0.00000400   -0.26216932
     The core correction contribution to forces
     atom    1 type  1   force =     0.00000025    0.00000015    0.00345749
     atom    2 type  1   force =    -0.00000000    0.00000028    0.00345759
     atom    3 type  2   force =     0.00000008    0.00000005    0.00038317
     atom    4 type  2   force =    -0.00000000    0.00000006    0.00038317
     atom    5 type  1   force =     0.00000000    0.00000014    0.00345780
     atom    6 type  1   force =    -0.00000010   -0.00000008    0.00345750
     atom    7 type  2   force =     0.00000000    0.00000005    0.00038318
     atom    8 type  2   force =    -0.00000002   -0.00000001    0.00038314
     atom    9 type  1   force =     0.00000012   -0.00000007    0.00345780
     atom   10 type  1   force =     0.00000024   -0.00000014    0.00345759
     atom   11 type  2   force =     0.00000004   -0.00000003    0.00038318
     atom   12 type  2   force =     0.00000005   -0.00000003    0.00038317
     atom   13 type  1   force =    -0.00000002    0.00000017    0.00345787
     atom   14 type  1   force =     0.00000036    0.00000021    0.00345769
     atom   15 type  2   force =     0.00000000    0.00000004    0.00038315
     atom   16 type  2   force =     0.00000007    0.00000004    0.00038316
     atom   17 type  1   force =     0.00000012   -0.00000007    0.00345787
     atom   18 type  1   force =     0.00000014   -0.00000008    0.00345750
     atom   19 type  2   force =     0.00000003   -0.00000002    0.00038315
     atom   20 type  2   force =     0.00000002   -0.00000001    0.00038314
     atom   21 type  1   force =    -0.00000012   -0.00000007    0.00345780
     atom   22 type  1   force =     0.00000002    0.00000013    0.00345750
     atom   23 type  2   force =    -0.00000004   -0.00000003    0.00038318
     atom   24 type  2   force =    -0.00000000    0.00000002    0.00038314
     atom   25 type  1   force =    -0.00000025    0.00000015    0.00345749
     atom   26 type  1   force =    -0.00000036    0.00000021    0.00345769
     atom   27 type  2   force =    -0.00000008    0.00000005    0.00038317
     atom   28 type  2   force =    -0.00000007    0.00000004    0.00038316
     atom   29 type  1   force =    -0.00000016   -0.00000007    0.00345787
     atom   30 type  1   force =    -0.00000000   -0.00000041    0.00345769
     atom   31 type  2   force =    -0.00000003   -0.00000002    0.00038315
     atom   32 type  2   force =    -0.00000000   -0.00000008    0.00038316
     atom   33 type  1   force =     0.00000000   -0.00000029    0.00345749
     atom   34 type  1   force =    -0.00000024   -0.00000014    0.00345759
     atom   35 type  2   force =     0.00000000   -0.00000009    0.00038317
     atom   36 type  2   force =    -0.00000005   -0.00000003    0.00038317
     The Hubbard contrib.    to forces
     atom    1 type  1   force =     0.00000000    0.00000000    0.00000000
     atom    2 type  1   force =     0.00000000    0.00000000    0.00000000
     atom    3 type  2   force =     0.00000000    0.00000000    0.00000000
     atom    4 type  2   force =     0.00000000    0.00000000    0.00000000
     atom    5 type  1   force =     0.00000000    0.00000000    0.00000000
     atom    6 type  1   force =     0.00000000    0.00000000    0.00000000
     atom    7 type  2   force =     0.00000000    0.00000000    0.00000000
     atom    8 type  2   force =     0.00000000    0.00000000    0.00000000
     atom    9 type  1   force =     0.00000000    0.00000000    0.00000000
     atom   10 type  1   force =     0.00000000    0.00000000    0.00000000
     atom   11 type  2   force =     0.00000000    0.00000000    0.00000000
     atom   12 type  2   force =     0.00000000    0.00000000    0.00000000
     atom   13 type  1   force =     0.00000000    0.00000000    0.00000000
     atom   14 type  1   force =     0.00000000    0.00000000    0.00000000
     atom   15 type  2   force =     0.00000000    0.00000000    0.00000000
     atom   16 type  2   force =     0.00000000    0.00000000    0.00000000
     atom   17 type  1   force =     0.00000000    0.00000000    0.00000000
     atom   18 type  1   force =     0.00000000    0.00000000    0.00000000
     atom   19 type  2   force =     0.00000000    0.00000000    0.00000000
     atom   20 type  2   force =     0.00000000    0.00000000    0.00000000
     atom   21 type  1   force =     0.00000000    0.00000000    0.00000000
     atom   22 type  1   force =     0.00000000    0.00000000    0.00000000
     atom   23 type  2   force =     0.00000000    0.00000000    0.00000000
     atom   24 type  2   force =     0.00000000    0.00000000    0.00000000
     atom   25 type  1   force =     0.00000000    0.00000000    0.00000000
     atom   26 type  1   force =     0.00000000    0.00000000    0.00000000
     atom   27 type  2   force =     0.00000000    0.00000000    0.00000000
     atom   28 type  2   force =     0.00000000    0.00000000    0.00000000
     atom   29 type  1   force =     0.00000000    0.00000000    0.00000000
     atom   30 type  1   force =     0.00000000    0.00000000    0.00000000
     atom   31 type  2   force =     0.00000000    0.00000000    0.00000000
     atom   32 type  2   force =     0.00000000    0.00000000    0.00000000
     atom   33 type  1   force =     0.00000000    0.00000000    0.00000000
     atom   34 type  1   force =     0.00000000    0.00000000    0.00000000
     atom   35 type  2   force =     0.00000000    0.00000000    0.00000000
     atom   36 type  2   force =     0.00000000    0.00000000    0.00000000
     The SCF correction term to forces
     atom    1 type  1   force =     0.00002987    0.00001725   -0.00000177
     atom    2 type  1   force =    -0.00000000    0.00003661    0.00000214
     atom    3 type  2   force =     0.00001414    0.00000817   -0.00000101
     atom    4 type  2   force =    -0.00000000    0.00001278   -0.00000066
     atom    5 type  1   force =    -0.00000000    0.00001392    0.00000637
     atom    6 type  1   force =    -0.00000341   -0.00000197   -0.00000537
     atom    7 type  2   force =     0.00000000    0.00000765   -0.00000014
     atom    8 type  2   force =    -0.00000180   -0.00000104   -0.00000014
     atom    9 type  1   force =     0.00001205   -0.00000696    0.00000637
     atom   10 type  1   force =     0.00003170   -0.00001830    0.00000214
     atom   11 type  2   force =     0.00000663   -0.00000383   -0.00000014
     atom   12 type  2   force =     0.00001107   -0.00000639   -0.00000066
     atom   13 type  1   force =     0.00000000    0.00002137    0.00000598
     atom   14 type  1   force =     0.00003658    0.00002112   -0.00000217
     atom   15 type  2   force =     0.00000000    0.00000927   -0.00000000
     atom   16 type  2   force =     0.00001295    0.00000748    0.00000023
     atom   17 type  1   force =     0.00001850   -0.00001068    0.00000598
     atom   18 type  1   force =     0.00000341   -0.00000197   -0.00000537
     atom   19 type  2   force =     0.00000803   -0.00000463   -0.00000000
     atom   20 type  2   force =     0.00000180   -0.00000104   -0.00000014
     atom   21 type  1   force =    -0.00001205   -0.00000696    0.00000637
     atom   22 type  1   force =    -0.00000000    0.00000394   -0.00000537
     atom   23 type  2   force =    -0.00000663   -0.00000383   -0.00000014
     atom   24 type  2   force =    -0.00000000    0.00000208   -0.00000014
     atom   25 type  1   force =    -0.00002987    0.00001725   -0.00000177
     atom   26 type  1   force =    -0.00003658    0.00002112   -0.00000217
     atom   27 type  2   force =    -0.00001414    0.00000817   -0.00000101
     atom   28 type  2   force =    -0.00001295    0.00000748    0.00000023
     atom   29 type  1   force =    -0.00001850   -0.00001068    0.00000598
     atom   30 type  1   force =     0.00000000   -0.00004224   -0.00000217
     atom   31 type  2   force =    -0.00000803   -0.00000463   -0.00000000
     atom   32 type  2   force =    -0.00000000   -0.00001496    0.00000023
     atom   33 type  1   force =     0.00000000   -0.00003449   -0.00000177
     atom   34 type  1   force =    -0.00003170   -0.00001830    0.00000214
     atom   35 type  2   force =     0.00000000   -0.00001633   -0.00000101
     atom   36 type  2   force =    -0.00001107   -0.00000639   -0.00000066

     Total force =     0.000808     Total SCF correction =     0.000133
     SCF correction compared to forces is large: reduce conv_thr to get better values

     General routines

     Parallel routines

   This run was terminated on:  13:21:16  27Aug2025

   JOB DONE.
Note: The following floating-point exceptions are signalling: IEEE_INVALID_FLAG
Note: The following floating-point exceptions are signalling: IEEE_INVALID_FLAG
Note: The following floating-point exceptions are signalling: IEEE_INVALID_FLAG
Note: The following floating-point exceptions are signalling: IEEE_INVALID_FLAG
Note: The following floating-point exceptions are signalling: IEEE_INVALID_FLAG
Note: The following floating-point exceptions are signalling: IEEE_INVALID_FLAG
Note: The following floating-point exceptions are signalling: IEEE_INVALID_FLAG
Note: The following floating-point exceptions are signalling: IEEE_INVALID_FLAG
Note: The following floating-point exceptions are signalling: IEEE_INVALID_FLAG
Note: The following floating-point exceptions are signalling: IEEE_INVALID_FLAG
Note: The following floating-point exceptions are signalling: IEEE_INVALID_FLAG
Note: The following floating-point exceptions are signalling: IEEE_INVALID_FLAG
Note: The following floating-point exceptions are signalling: IEEE_INVALID_FLAG
Note: The following floating-point exceptions are signalling: IEEE_INVALID_FLAG
Note: The following floating-point exceptions are signalling: IEEE_INVALID_FLAG
Note: The following floating-point exceptions are signalling: IEEE_INVALID_FLAG
Note: The following floating-point exceptions are signalling: IEEE_INVALID_FLAG
Note: The following floating-point exceptions are signalling: IEEE_INVALID_FLAG
Note: The following floating-point exceptions are signalling: IEEE_INVALID_FLAG
Note: The following floating-point exceptions are signalling: IEEE_INVALID_FLAG
Note: The following floating-point exceptions are signalling: IEEE_INVALID_FLAG
Note: The following floating-point exceptions are signalling: IEEE_INVALID_FLAG
Note: The following floating-point exceptions are signalling: IEEE_INVALID_FLAG
Note: The following floating-point exceptions are signalling: IEEE_INVALID_FLAG
Note: The following floating-point exceptions are signalling: IEEE_INVALID_FLAG
Note: The following floating-point exceptions are signalling: IEEE_INVALID_FLAG
Note: The following floating-point exceptions are signalling: IEEE_INVALID_FLAG
Note: The following floating-point exceptions are signalling: IEEE_INVALID_FLAG
Note: The following floating-point exceptions are signalling: IEEE_INVALID_FLAG
Note: The following floating-point exceptions are signalling: IEEE_INVALID_FLAG
Note: The following floating-point exceptions are signalling: IEEE_INVALID_FLAG
Note: The following floating-point exceptions are signalling: IEEE_INVALID_FLAG
Note: The following floating-point exceptions are signalling: IEEE_INVALID_FLAG
Note: The following floating-point exceptions are signalling: IEEE_INVALID_FLAG
Note: The following floating-point exceptions are signalling: IEEE_INVALID_FLAG
Note: The following floating-point exceptions are signalling: IEEE_INVALID_FLAG
Note: The following floating-point exceptions are signalling: IEEE_INVALID_FLAG
Note: The following floating-point exceptions are signalling: IEEE_INVALID_FLAG
Note: The following floating-point exceptions are signalling: IEEE_INVALID_FLAG
Note: The following floating-point exceptions are signalling: IEEE_INVALID_FLAG
Note: The following floating-point exceptions are signalling: IEEE_INVALID_FLAG
Note: The following floating-point exceptions are signalling: IEEE_INVALID_FLAG
Note: The following floating-point exceptions are signalling: IEEE_INVALID_FLAG
Note: The following floating-point exceptions are signalling: IEEE_INVALID_FLAG
Note: The following floating-point exceptions are signalling: IEEE_INVALID_FLAG
Note: The following floating-point exceptions are signalling: IEEE_INVALID_FLAG
Note: The following floating-point exceptions are signalling: IEEE_INVALID_FLAG
Note: The following floating-point exceptions are signalling: IEEE_INVALID_FLAG
Note: The following floating-point exceptions are signalling: IEEE_INVALID_FLAG
Note: The following floating-point exceptions are signalling: IEEE_INVALID_FLAG
Note: The following floating-point exceptions are signalling: IEEE_INVALID_FLAG
Note: The following floating-point exceptions are signalling: IEEE_INVALID_FLAG
Note: The following floating-point exceptions are signalling: IEEE_INVALID_FLAG
Note: The following floating-point exceptions are signalling: IEEE_INVALID_FLAG
Note: The following floating-point exceptions are signalling: IEEE_INVALID_FLAG
Note: The following floating-point exceptions are signalling: IEEE_INVALID_FLAG
Note: The following floating-point exceptions are signalling: IEEE_INVALID_FLAG
Note: The following floating-point exceptions are signalling: IEEE_INVALID_FLAG
Note: The following floating-point exceptions are signalling: IEEE_INVALID_FLAG
Note: The following floating-point exceptions are signalling: IEEE_INVALID_FLAG
Note: The following floating-point exceptions are signalling: IEEE_INVALID_FLAG
Note: The following floating-point exceptions are signalling: IEEE_INVALID_FLAG
Note: The following floating-point exceptions are signalling: IEEE_INVALID_FLAG
Note: The following floating-point exceptions are signalling: IEEE_INVALID_FLAG