     Program PWSCF v.7.2 starts on 24Aug2025 at 16:31:58

     Reading input from /home/jvc/QEspresso7.2/ZnO_database/scripts/cell331.in/ZnO-3.01-1.58-331.in
Warning: card &CELL ignored
Warning: card / ignored
Warning: card &FCP ignored
Warning: card / ignored
Warning: card &RISM ignored
Warning: card / ignored

     Current dimensions of program PWSCF are:
     Max number of different atomic species (ntypx) = 10
     Max number of k-points (npk) =  40000
     Max angular momentum in pseudopotentials (lmaxx) =  4
     file Zn.upf: wavefunction(s)  3D renormalized
     Found identity + (  0.0000  0.3333  0.0000) symmetry
     This is a supercell, fractional translations are disabled
     Message from routine setup:
     using ibrav=0 with symmetry is DISCOURAGED, use correct ibrav instead

     K-points division:     npool     =       8
     band groups division:  nbgrp     =       4
     Subspace diagonalization in iterative solution of the eigenvalue problem:
     a serial algorithm will be used

     Using Slab Decomposition

     bravais-lattice index     =            0
     lattice parameter (alat)  =      17.0536  a.u.
     unit-cell volume          =    2265.0951 (a.u.)^3
     number of atoms/cell      =           36
     number of atomic types    =            2
     number of electrons       =       324.00
     number of Kohn-Sham states=          162
     kinetic-energy cutoff     =      50.0000  Ry
     charge density cutoff     =     400.0000  Ry
     scf convergence threshold =      1.0E-08
     mixing beta               =       0.3000
     number of iterations used =            8  plain     mixing
     Exchange-correlation= PBE
                           (   1   4   3   4   0   0   0)

     celldm(1)=  17.053637  celldm(2)=   0.000000  celldm(3)=   0.000000
     celldm(4)=   0.000000  celldm(5)=   0.000000  celldm(6)=   0.000000

     crystal axes: (cart. coord. in units of alat)
               a(1) = (   1.000000   0.000000   0.000000 )
               a(2) = (  -0.500000   0.866025   0.000000 )
               a(3) = (   0.000000   0.000000   0.527357 )

     reciprocal axes: (cart. coord. in units 2 pi/alat)
               b(1) = (  1.000000  0.577350 -0.000000 )
               b(2) = (  0.000000  1.154701  0.000000 )
               b(3) = (  0.000000 -0.000000  1.896248 )

     PseudoPot. # 1 for Zn read from file:
     /home/jvc/QEspresso7.2/ZnO_database/pseudos/Zn.upf
     MD5 check sum: 7f56cabf9682ed8c977c2f7d0c5985c5
     Pseudo is Ultrasoft + core correction, Zval = 12.0
     Generated using &quot;atomic&quot; code by A. Dal Corso  v.6.2.2
     Using radial grid of 1201 points,  6 beta functions with:
                l(1) =   0
                l(2) =   0
                l(3) =   1
                l(4) =   1
                l(5) =   2
                l(6) =   2
     Q(r) pseudized with 0 coefficients

     PseudoPot. # 2 for O  read from file:
     /home/jvc/QEspresso7.2/ZnO_database/pseudos/O.upf
     MD5 check sum: 91400c9766925bcf19f520983a725ff0
     Pseudo is Ultrasoft + core correction, Zval =  6.0
     Generated using &quot;atomic&quot; code by A. Dal Corso  v.6.3MaX
     Using radial grid of 1095 points,  4 beta functions with:
                l(1) =   0
                l(2) =   0
                l(3) =   1
                l(4) =   1
     Q(r) pseudized with 0 coefficients

     atomic species   valence    mass     pseudopotential
        Zn            12.00    65.38000     Zn( 1.00)
        O              6.00    15.99900     O ( 1.00)

      6 Sym. Ops. (no inversion) found

                                    s                        frac. trans.

      isym =  1     identity

 cryst.   s( 1) = (     1          0          0      )
                  (     0          1          0      )
                  (     0          0          1      )

 cart.    s( 1) = (  1.0000000  0.0000000  0.0000000 )
                  (  0.0000000  1.0000000  0.0000000 )
                  (  0.0000000  0.0000000  1.0000000 )

      isym =  2     120 deg rotation - cryst. axis [0,0,1]

[...]

      isym =  3     120 deg rotation - cryst. axis [0,0,-1]

[...]

      isym =  4     inv. 180 deg rotation - cart. axis [1,0,0]

[...]

      isym =  5     inv. 180 deg rotation - cryst. axis [0,1,0]

[...]

      isym =  6     inv. 180 deg rotation - cryst. axis [1,1,0]

 cryst.   s( 6) = (     0         -1          0      )
                  (    -1          0          0      )
                  (     0          0          1      )

 cart.    s( 6) = (  0.5000000 -0.8660254  0.0000000 )
                  ( -0.8660254 -0.5000000  0.0000000 )
                  (  0.0000000  0.0000000  1.0000000 )

   Cartesian axes

     site n.     atom                  positions (alat units)
         1           Zn  tau(   1) = (   0.1666667   0.0962250   0.2640127  )
         2           Zn  tau(   2) = (  -0.0000000   0.1924501   0.0003341  )
         3           O   tau(   3) = (   0.1666667   0.0962250   0.4639036  )
         4           O   tau(   4) = (  -0.0000000   0.1924501   0.2002250  )
         5           Zn  tau(   5) = (  -0.0000000   0.3849002   0.2640127  )
         6           Zn  tau(   6) = (  -0.1666667   0.4811252   0.0003341  )
         7           O   tau(   7) = (  -0.0000000   0.3849002   0.4639036  )
         8           O   tau(   8) = (  -0.1666667   0.4811252   0.2002250  )
         9           Zn  tau(   9) = (  -0.1666667   0.6735753   0.2640127  )
        10           Zn  tau(  10) = (  -0.3333333   0.7698004   0.0003341  )
        11           O   tau(  11) = (  -0.1666667   0.6735753   0.4639036  )
        12           O   tau(  12) = (  -0.3333333   0.7698004   0.2002250  )
        13           Zn  tau(  13) = (   0.5000000   0.0962250   0.2640127  )
        14           Zn  tau(  14) = (   0.3333333   0.1924501   0.0003341  )
        15           O   tau(  15) = (   0.5000000   0.0962250   0.4639036  )
        16           O   tau(  16) = (   0.3333333   0.1924501   0.2002250  )
        17           Zn  tau(  17) = (   0.3333333   0.3849002   0.2640127  )
        18           Zn  tau(  18) = (   0.1666667   0.4811252   0.0003341  )
        19           O   tau(  19) = (   0.3333333   0.3849002   0.4639036  )
        20           O   tau(  20) = (   0.1666667   0.4811252   0.2002250  )
        21           Zn  tau(  21) = (   0.1666667   0.6735753   0.2640127  )
        22           Zn  tau(  22) = (  -0.0000000   0.7698004   0.0003341  )
        23           O   tau(  23) = (   0.1666667   0.6735753   0.4639036  )
        24           O   tau(  24) = (  -0.0000000   0.7698004   0.2002250  )
        25           Zn  tau(  25) = (   0.8333333   0.0962250   0.2640127  )
        26           Zn  tau(  26) = (   0.6666667   0.1924501   0.0003341  )
        27           O   tau(  27) = (   0.8333333   0.0962250   0.4639036  )
        28           O   tau(  28) = (   0.6666667   0.1924501   0.2002250  )
        29           Zn  tau(  29) = (   0.6666667   0.3849002   0.2640127  )
        30           Zn  tau(  30) = (   0.5000000   0.4811252   0.0003341  )
        31           O   tau(  31) = (   0.6666667   0.3849002   0.4639036  )
        32           O   tau(  32) = (   0.5000000   0.4811252   0.2002250  )
        33           Zn  tau(  33) = (   0.5000000   0.6735753   0.2640127  )
        34           Zn  tau(  34) = (   0.3333333   0.7698004   0.0003341  )
        35           O   tau(  35) = (   0.5000000   0.6735753   0.4639036  )
        36           O   tau(  36) = (   0.3333333   0.7698004   0.2002250  )

   Crystallographic axes

     site n.     atom                  positions (cryst. coord.)
         1           Zn  tau(   1) = (  0.2222222  0.1111111  0.5006336  )
         2           Zn  tau(   2) = (  0.1111111  0.2222222  0.0006336  )
         3           O   tau(   3) = (  0.2222222  0.1111111  0.8796764  )
         4           O   tau(   4) = (  0.1111111  0.2222222  0.3796764  )
         5           Zn  tau(   5) = (  0.2222222  0.4444444  0.5006336  )
         6           Zn  tau(   6) = (  0.1111111  0.5555556  0.0006336  )
         7           O   tau(   7) = (  0.2222222  0.4444444  0.8796764  )
         8           O   tau(   8) = (  0.1111111  0.5555556  0.3796764  )
         9           Zn  tau(   9) = (  0.2222222  0.7777778  0.5006336  )
        10           Zn  tau(  10) = (  0.1111111  0.8888889  0.0006336  )
        11           O   tau(  11) = (  0.2222222  0.7777778  0.8796764  )
        12           O   tau(  12) = (  0.1111111  0.8888889  0.3796764  )
        13           Zn  tau(  13) = (  0.5555556  0.1111111  0.5006336  )
        14           Zn  tau(  14) = (  0.4444444  0.2222222  0.0006336  )
        15           O   tau(  15) = (  0.5555556  0.1111111  0.8796764  )
        16           O   tau(  16) = (  0.4444444  0.2222222  0.3796764  )
        17           Zn  tau(  17) = (  0.5555556  0.4444444  0.5006336  )
        18           Zn  tau(  18) = (  0.4444444  0.5555556  0.0006336  )
        19           O   tau(  19) = (  0.5555556  0.4444444  0.8796764  )
        20           O   tau(  20) = (  0.4444444  0.5555556  0.3796764  )
        21           Zn  tau(  21) = (  0.5555556  0.7777778  0.5006336  )
        22           Zn  tau(  22) = (  0.4444444  0.8888889  0.0006336  )
        23           O   tau(  23) = (  0.5555556  0.7777778  0.8796764  )
        24           O   tau(  24) = (  0.4444444  0.8888889  0.3796764  )
        25           Zn  tau(  25) = (  0.8888889  0.1111111  0.5006336  )
        26           Zn  tau(  26) = (  0.7777778  0.2222222  0.0006336  )
        27           O   tau(  27) = (  0.8888889  0.1111111  0.8796764  )
        28           O   tau(  28) = (  0.7777778  0.2222222  0.3796764  )
        29           Zn  tau(  29) = (  0.8888889  0.4444444  0.5006336  )
        30           Zn  tau(  30) = (  0.7777778  0.5555556  0.0006336  )
        31           O   tau(  31) = (  0.8888889  0.4444444  0.8796764  )
        32           O   tau(  32) = (  0.7777778  0.5555556  0.3796764  )
        33           Zn  tau(  33) = (  0.8888889  0.7777778  0.5006336  )
        34           Zn  tau(  34) = (  0.7777778  0.8888889  0.0006336  )
        35           O   tau(  35) = (  0.8888889  0.7777778  0.8796764  )
        36           O   tau(  36) = (  0.7777778  0.8888889  0.3796764  )

     number of k points=    34
                       cart. coord. in units 2pi/alat
        k(    1) = (   0.0000000   0.0000000   0.0000000), wk =   0.0092593
        k(    2) = (   0.0000000   0.0000000   0.3160414), wk =   0.0185185
        k(    3) = (   0.0000000   0.0000000   0.6320828), wk =   0.0185185
        k(    4) = (   0.0000000   0.0000000  -0.9481242), wk =   0.0092593
        k(    5) = (   0.0000000   0.1924501   0.0000000), wk =   0.0555556
        k(    6) = (   0.0000000   0.1924501   0.3160414), wk =   0.0555556
        k(    7) = (   0.0000000   0.1924501   0.6320828), wk =   0.0555556
        k(    8) = (   0.0000000   0.1924501  -0.9481242), wk =   0.0555556
        k(    9) = (   0.0000000   0.3849002   0.0000000), wk =   0.0555556
[...]
     atom   35 type  2   force =     0.00000000   -0.00000069   -0.04130677
     atom   36 type  2   force =    -0.00000165   -0.00000095   -0.04130655
     The ionic contribution  to forces
     atom    1 type  1   force =     0.00000001    0.00000001   -0.42324053
     atom    2 type  1   force =     0.00000001    0.00000002   -0.42324053
     atom    3 type  2   force =     0.00000001    0.00000001    0.42324053
     atom    4 type  2   force =     0.00000000    0.00000001    0.42324053
     atom    5 type  1   force =     0.00000000    0.00000002   -0.42324054
     atom    6 type  1   force =     0.00000001   -0.00000000   -0.42324054
     atom    7 type  2   force =    -0.00000000    0.00000001    0.42324054
     atom    8 type  2   force =     0.00000001   -0.00000000    0.42324054
     atom    9 type  1   force =     0.00000001   -0.00000001   -0.42324053
     atom   10 type  1   force =     0.00000001   -0.00000000   -0.42324053
     atom   11 type  2   force =     0.00000001   -0.00000000    0.42324053
     atom   12 type  2   force =     0.00000000   -0.00000000    0.42324053
     atom   13 type  1   force =    -0.00000001    0.00000001   -0.42324054
     atom   14 type  1   force =     0.00000001    0.00000001   -0.42324054
     atom   15 type  2   force =    -0.00000001    0.00000001    0.42324054
     atom   16 type  2   force =     0.00000001    0.00000000    0.42324054
     atom   17 type  1   force =    -0.00000002    0.00000001   -0.42324054
     atom   18 type  1   force =     0.00000002   -0.00000001   -0.42324054
     atom   19 type  2   force =    -0.00000001    0.00000001    0.42324054
     atom   20 type  2   force =     0.00000001   -0.00000001    0.42324054
     atom   21 type  1   force =    -0.00000001   -0.00000001   -0.42324054
     atom   22 type  1   force =     0.00000001   -0.00000001   -0.42324054
     atom   23 type  2   force =    -0.00000001   -0.00000000    0.42324054
     atom   24 type  2   force =     0.00000001   -0.00000001    0.42324054
     atom   25 type  1   force =    -0.00000001    0.00000000   -0.42324053
     atom   26 type  1   force =    -0.00000001    0.00000001   -0.42324053
     atom   27 type  2   force =    -0.00000000    0.00000000    0.42324053
     atom   28 type  2   force =    -0.00000001    0.00000000    0.42324053
     atom   29 type  1   force =    -0.00000001    0.00000000   -0.42324054
     atom   30 type  1   force =    -0.00000000   -0.00000002   -0.42324054
     atom   31 type  2   force =    -0.00000001    0.00000000    0.42324054
     atom   32 type  2   force =     0.00000000   -0.00000001    0.42324054
     atom   33 type  1   force =    -0.00000001   -0.00000002   -0.42324053
     atom   34 type  1   force =    -0.00000001   -0.00000001   -0.42324053
     atom   35 type  2   force =    -0.00000000   -0.00000001    0.42324053
     atom   36 type  2   force =    -0.00000001   -0.00000001    0.42324053
     The local contribution  to forces
     atom    1 type  1   force =     0.00000486    0.00000280    0.46793153
     atom    2 type  1   force =     0.00000000    0.00001562    0.46794894
     atom    3 type  2   force =     0.00000349    0.00000201   -0.36123421
     atom    4 type  2   force =     0.00000000    0.00000353   -0.36123593
     atom    5 type  1   force =     0.00000000    0.00000637    0.46794095
     atom    6 type  1   force =     0.00001022    0.00000577    0.46794251
     atom    7 type  2   force =     0.00000000    0.00000362   -0.36123450
     atom    8 type  2   force =     0.00000218    0.00000122   -0.36123471
     atom    9 type  1   force =     0.00000552   -0.00000318    0.46794095
     atom   10 type  1   force =     0.00001353   -0.00000781    0.46794894
     atom   11 type  2   force =     0.00000313   -0.00000181   -0.36123450
     atom   12 type  2   force =     0.00000306   -0.00000176   -0.36123593
     atom   13 type  1   force =    -0.00000012   -0.00000221    0.46793566
     atom   14 type  1   force =     0.00000284    0.00000164    0.46794851
     atom   15 type  2   force =    -0.00000003   -0.00000095   -0.36123459
     atom   16 type  2   force =    -0.00000050   -0.00000029   -0.36123511
     atom   17 type  1   force =    -0.00000208    0.00000120    0.46793566
     atom   18 type  1   force =    -0.00000999    0.00000577    0.46794251
     atom   19 type  2   force =    -0.00000087    0.00000050   -0.36123459
     atom   20 type  2   force =    -0.00000212    0.00000122   -0.36123471
     atom   21 type  1   force =    -0.00000552   -0.00000318    0.46794095
     atom   22 type  1   force =     0.00000012   -0.00001174    0.46794251
     atom   23 type  2   force =    -0.00000313   -0.00000181   -0.36123450
     atom   24 type  2   force =     0.00000003   -0.00000250   -0.36123471
     atom   25 type  1   force =    -0.00000486    0.00000280    0.46793153
     atom   26 type  1   force =    -0.00000284    0.00000164    0.46794851
     atom   27 type  2   force =    -0.00000349    0.00000201   -0.36123421
     atom   28 type  2   force =     0.00000050   -0.00000029   -0.36123511
     atom   29 type  1   force =     0.00000185    0.00000120    0.46793566
     atom   30 type  1   force =    -0.00000000   -0.00000327    0.46794851
     atom   31 type  2   force =     0.00000081    0.00000050   -0.36123459
     atom   32 type  2   force =     0.00000000    0.00000058   -0.36123511
     atom   33 type  1   force =     0.00000000   -0.00000561    0.46793153
     atom   34 type  1   force =    -0.00001353   -0.00000781    0.46794894
     atom   35 type  2   force =    -0.00000000   -0.00000402   -0.36123421
     atom   36 type  2   force =    -0.00000306   -0.00000176   -0.36123593
     The core correction contribution to forces
     atom    1 type  1   force =     0.00000000    0.00000000    0.00720514
     atom    2 type  1   force =    -0.00000000   -0.00000023    0.00720483
     atom    3 type  2   force =    -0.00000000   -0.00000000    0.00022519
     atom    4 type  2   force =    -0.00000000   -0.00000002    0.00022518
     atom    5 type  1   force =     0.00000000   -0.00000004    0.00720492
     atom    6 type  1   force =    -0.00000009   -0.00000007    0.00720487
     atom    7 type  2   force =     0.00000000   -0.00000002    0.00022519
     atom    8 type  2   force =    -0.00000001   -0.00000001    0.00022519
     atom    9 type  1   force =    -0.00000003    0.00000002    0.00720492
     atom   10 type  1   force =    -0.00000020    0.00000011    0.00720483
     atom   11 type  2   force =    -0.00000002    0.00000001    0.00022519
     atom   12 type  2   force =    -0.00000002    0.00000001    0.00022518
     atom   13 type  1   force =    -0.00000002    0.00000004    0.00720507
     atom   14 type  1   force =    -0.00000009   -0.00000005    0.00720479
     atom   15 type  2   force =     0.00000000    0.00000001    0.00022519
     atom   16 type  2   force =    -0.00000001   -0.00000001    0.00022519
     atom   17 type  1   force =     0.00000001   -0.00000001    0.00720507
     atom   18 type  1   force =     0.00000012   -0.00000007    0.00720487
     atom   19 type  2   force =     0.00000001   -0.00000001    0.00022519
     atom   20 type  2   force =     0.00000001   -0.00000001    0.00022519
     atom   21 type  1   force =     0.00000003    0.00000002    0.00720492
     atom   22 type  1   force =     0.00000002    0.00000011    0.00720487
     atom   23 type  2   force =     0.00000002    0.00000001    0.00022519
     atom   24 type  2   force =    -0.00000000    0.00000001    0.00022519
     atom   25 type  1   force =    -0.00000000    0.00000000    0.00720514
     atom   26 type  1   force =     0.00000009   -0.00000005    0.00720479
     atom   27 type  2   force =     0.00000000   -0.00000000    0.00022519
     atom   28 type  2   force =     0.00000001   -0.00000001    0.00022519
     atom   29 type  1   force =    -0.00000004   -0.00000001    0.00720507
     atom   30 type  1   force =    -0.00000000    0.00000010    0.00720479
     atom   31 type  2   force =    -0.00000001   -0.00000001    0.00022519
     atom   32 type  2   force =    -0.00000000    0.00000001    0.00022519
     atom   33 type  1   force =     0.00000000   -0.00000000    0.00720514
     atom   34 type  1   force =     0.00000020    0.00000011    0.00720483
     atom   35 type  2   force =     0.00000000    0.00000000    0.00022519
     atom   36 type  2   force =     0.00000002    0.00000001    0.00022518
     The Hubbard contrib.    to forces
     atom    1 type  1   force =     0.00000000    0.00000000    0.00000000
     atom    2 type  1   force =     0.00000000    0.00000000    0.00000000
     atom    3 type  2   force =     0.00000000    0.00000000    0.00000000
     atom    4 type  2   force =     0.00000000    0.00000000    0.00000000
     atom    5 type  1   force =     0.00000000    0.00000000    0.00000000
     atom    6 type  1   force =     0.00000000    0.00000000    0.00000000
     atom    7 type  2   force =     0.00000000    0.00000000    0.00000000
     atom    8 type  2   force =     0.00000000    0.00000000    0.00000000
     atom    9 type  1   force =     0.00000000    0.00000000    0.00000000
     atom   10 type  1   force =     0.00000000    0.00000000    0.00000000
     atom   11 type  2   force =     0.00000000    0.00000000    0.00000000
     atom   12 type  2   force =     0.00000000    0.00000000    0.00000000
     atom   13 type  1   force =     0.00000000    0.00000000    0.00000000
     atom   14 type  1   force =     0.00000000    0.00000000    0.00000000
     atom   15 type  2   force =     0.00000000    0.00000000    0.00000000
     atom   16 type  2   force =     0.00000000    0.00000000    0.00000000
     atom   17 type  1   force =     0.00000000    0.00000000    0.00000000
     atom   18 type  1   force =     0.00000000    0.00000000    0.00000000
     atom   19 type  2   force =     0.00000000    0.00000000    0.00000000
     atom   20 type  2   force =     0.00000000    0.00000000    0.00000000
     atom   21 type  1   force =     0.00000000    0.00000000    0.00000000
     atom   22 type  1   force =     0.00000000    0.00000000    0.00000000
     atom   23 type  2   force =     0.00000000    0.00000000    0.00000000
     atom   24 type  2   force =     0.00000000    0.00000000    0.00000000
     atom   25 type  1   force =     0.00000000    0.00000000    0.00000000
     atom   26 type  1   force =     0.00000000    0.00000000    0.00000000
     atom   27 type  2   force =     0.00000000    0.00000000    0.00000000
     atom   28 type  2   force =     0.00000000    0.00000000    0.00000000
     atom   29 type  1   force =     0.00000000    0.00000000    0.00000000
     atom   30 type  1   force =     0.00000000    0.00000000    0.00000000
     atom   31 type  2   force =     0.00000000    0.00000000    0.00000000
     atom   32 type  2   force =     0.00000000    0.00000000    0.00000000
     atom   33 type  1   force =     0.00000000    0.00000000    0.00000000
     atom   34 type  1   force =     0.00000000    0.00000000    0.00000000
     atom   35 type  2   force =     0.00000000    0.00000000    0.00000000
     atom   36 type  2   force =     0.00000000    0.00000000    0.00000000
     The SCF correction term to forces
     atom    1 type  1   force =    -0.00000559   -0.00000323    0.00001286
     atom    2 type  1   force =     0.00000000   -0.00002100   -0.00001216
     atom    3 type  2   force =    -0.00000434   -0.00000251   -0.00000053
     atom    4 type  2   force =     0.00000000   -0.00000521    0.00000136
     atom    5 type  1   force =     0.00000000   -0.00000744   -0.00000142
     atom    6 type  1   force =    -0.00001290   -0.00000745   -0.00000384
     atom    7 type  2   force =    -0.00000000   -0.00000535    0.00000003
     atom    8 type  2   force =    -0.00000309   -0.00000178   -0.00000006
     atom    9 type  1   force =    -0.00000644    0.00000372   -0.00000142
     atom   10 type  1   force =    -0.00001819    0.00001050   -0.00001216
     atom   11 type  2   force =    -0.00000463    0.00000267    0.00000003
     atom   12 type  2   force =    -0.00000451    0.00000261    0.00000136
     atom   13 type  1   force =    -0.00000000    0.00000312    0.00000614
     atom   14 type  1   force =    -0.00000446   -0.00000258   -0.00001170
     atom   15 type  2   force =    -0.00000000    0.00000186   -0.00000006
     atom   16 type  2   force =     0.00000018    0.00000010    0.00000050
     atom   17 type  1   force =     0.00000270   -0.00000156    0.00000614
     atom   18 type  1   force =     0.00001290   -0.00000745   -0.00000384
     atom   19 type  2   force =     0.00000161   -0.00000093   -0.00000006
     atom   20 type  2   force =     0.00000309   -0.00000178   -0.00000006
     atom   21 type  1   force =     0.00000644    0.00000372   -0.00000142
     atom   22 type  1   force =     0.00000000    0.00001490   -0.00000384
     atom   23 type  2   force =     0.00000463    0.00000267    0.00000003
     atom   24 type  2   force =    -0.00000000    0.00000357   -0.00000006
     atom   25 type  1   force =     0.00000559   -0.00000323    0.00001286
     atom   26 type  1   force =     0.00000446   -0.00000258   -0.00001170
     atom   27 type  2   force =     0.00000434   -0.00000251   -0.00000053
     atom   28 type  2   force =    -0.00000018    0.00000010    0.00000050
     atom   29 type  1   force =    -0.00000270   -0.00000156    0.00000614
     atom   30 type  1   force =    -0.00000000    0.00000516   -0.00001170
     atom   31 type  2   force =    -0.00000161   -0.00000093   -0.00000006
     atom   32 type  2   force =     0.00000000   -0.00000021    0.00000050
     atom   33 type  1   force =    -0.00000000    0.00000645    0.00001286
     atom   34 type  1   force =     0.00001819    0.00001050   -0.00001216
     atom   35 type  2   force =    -0.00000000    0.00000502   -0.00000053
     atom   36 type  2   force =     0.00000451    0.00000261    0.00000136

     Total force =     0.125554     Total SCF correction =     0.000065

     General routines

     Parallel routines

   This run was terminated on:  17: 3:44  24Aug2025

   JOB DONE.
Note: The following floating-point exceptions are signalling: IEEE_INVALID_FLAG
Note: The following floating-point exceptions are signalling: IEEE_INVALID_FLAG
Note: The following floating-point exceptions are signalling: IEEE_INVALID_FLAG
Note: The following floating-point exceptions are signalling: IEEE_INVALID_FLAG
Note: The following floating-point exceptions are signalling: IEEE_INVALID_FLAG
Note: The following floating-point exceptions are signalling: IEEE_INVALID_FLAG
Note: The following floating-point exceptions are signalling: IEEE_INVALID_FLAG
Note: The following floating-point exceptions are signalling: IEEE_INVALID_FLAG
Note: The following floating-point exceptions are signalling: IEEE_INVALID_FLAG
Note: The following floating-point exceptions are signalling: IEEE_INVALID_FLAG
Note: The following floating-point exceptions are signalling: IEEE_INVALID_FLAG
Note: The following floating-point exceptions are signalling: IEEE_INVALID_FLAG
Note: The following floating-point exceptions are signalling: IEEE_INVALID_FLAG
Note: The following floating-point exceptions are signalling: IEEE_INVALID_FLAG
Note: The following floating-point exceptions are signalling: IEEE_INVALID_FLAG
Note: The following floating-point exceptions are signalling: IEEE_INVALID_FLAG
Note: The following floating-point exceptions are signalling: IEEE_INVALID_FLAG
Note: The following floating-point exceptions are signalling: IEEE_INVALID_FLAG
Note: The following floating-point exceptions are signalling: IEEE_INVALID_FLAG
Note: The following floating-point exceptions are signalling: IEEE_INVALID_FLAG
Note: The following floating-point exceptions are signalling: IEEE_INVALID_FLAG
Note: The following floating-point exceptions are signalling: IEEE_INVALID_FLAG
Note: The following floating-point exceptions are signalling: IEEE_INVALID_FLAG
Note: The following floating-point exceptions are signalling: IEEE_INVALID_FLAG
Note: The following floating-point exceptions are signalling: IEEE_INVALID_FLAG
Note: The following floating-point exceptions are signalling: IEEE_INVALID_FLAG
Note: The following floating-point exceptions are signalling: IEEE_INVALID_FLAG
Note: The following floating-point exceptions are signalling: IEEE_INVALID_FLAG
Note: The following floating-point exceptions are signalling: IEEE_INVALID_FLAG
Note: The following floating-point exceptions are signalling: IEEE_INVALID_FLAG
Note: The following floating-point exceptions are signalling: IEEE_INVALID_FLAG
Note: The following floating-point exceptions are signalling: IEEE_INVALID_FLAG