     Program PWSCF v.7.2 starts on 24Aug2025 at 15:47:22

     Reading input from /home/jvc/QEspresso7.2/ZnO_database/scripts/cell331.in/ZnO-3.01-1.52-331.in
Warning: card &CELL ignored
Warning: card / ignored
Warning: card &FCP ignored
Warning: card / ignored
Warning: card &RISM ignored
Warning: card / ignored

     Current dimensions of program PWSCF are:
     Max number of different atomic species (ntypx) = 10
     Max number of k-points (npk) =  40000
     Max angular momentum in pseudopotentials (lmaxx) =  4
     file Zn.upf: wavefunction(s)  3D renormalized
     Found identity + (  0.0000  0.3333  0.0000) symmetry
     This is a supercell, fractional translations are disabled
     Message from routine setup:
     using ibrav=0 with symmetry is DISCOURAGED, use correct ibrav instead

     K-points division:     npool     =       8
     band groups division:  nbgrp     =       4
     Subspace diagonalization in iterative solution of the eigenvalue problem:
     a serial algorithm will be used

     Using Slab Decomposition

     bravais-lattice index     =            0
     lattice parameter (alat)  =      17.0536  a.u.
     unit-cell volume          =    2172.6422 (a.u.)^3
     number of atoms/cell      =           36
     number of atomic types    =            2
     number of electrons       =       324.00
     number of Kohn-Sham states=          162
     kinetic-energy cutoff     =      50.0000  Ry
     charge density cutoff     =     400.0000  Ry
     scf convergence threshold =      1.0E-08
     mixing beta               =       0.3000
     number of iterations used =            8  plain     mixing
     Exchange-correlation= PBE
                           (   1   4   3   4   0   0   0)

     celldm(1)=  17.053637  celldm(2)=   0.000000  celldm(3)=   0.000000
     celldm(4)=   0.000000  celldm(5)=   0.000000  celldm(6)=   0.000000

     crystal axes: (cart. coord. in units of alat)
               a(1) = (   1.000000   0.000000   0.000000 )
               a(2) = (  -0.500000   0.866025   0.000000 )
               a(3) = (   0.000000   0.000000   0.505832 )

     reciprocal axes: (cart. coord. in units 2 pi/alat)
               b(1) = (  1.000000  0.577350 -0.000000 )
               b(2) = (  0.000000  1.154701  0.000000 )
               b(3) = (  0.000000 -0.000000  1.976940 )

     PseudoPot. # 1 for Zn read from file:
     /home/jvc/QEspresso7.2/ZnO_database/pseudos/Zn.upf
     MD5 check sum: 7f56cabf9682ed8c977c2f7d0c5985c5
     Pseudo is Ultrasoft + core correction, Zval = 12.0
     Generated using &quot;atomic&quot; code by A. Dal Corso  v.6.2.2
     Using radial grid of 1201 points,  6 beta functions with:
                l(1) =   0
                l(2) =   0
                l(3) =   1
                l(4) =   1
                l(5) =   2
                l(6) =   2
     Q(r) pseudized with 0 coefficients

     PseudoPot. # 2 for O  read from file:
     /home/jvc/QEspresso7.2/ZnO_database/pseudos/O.upf
     MD5 check sum: 91400c9766925bcf19f520983a725ff0
     Pseudo is Ultrasoft + core correction, Zval =  6.0
     Generated using &quot;atomic&quot; code by A. Dal Corso  v.6.3MaX
     Using radial grid of 1095 points,  4 beta functions with:
                l(1) =   0
                l(2) =   0
                l(3) =   1
                l(4) =   1
     Q(r) pseudized with 0 coefficients

     atomic species   valence    mass     pseudopotential
        Zn            12.00    65.38000     Zn( 1.00)
        O              6.00    15.99900     O ( 1.00)

      6 Sym. Ops. (no inversion) found

                                    s                        frac. trans.

      isym =  1     identity

 cryst.   s( 1) = (     1          0          0      )
                  (     0          1          0      )
                  (     0          0          1      )

 cart.    s( 1) = (  1.0000000 -0.0000000  0.0000000 )
                  (  0.0000000  1.0000000  0.0000000 )
                  (  0.0000000  0.0000000  1.0000000 )

      isym =  2     120 deg rotation - cryst. axis [0,0,1]

[...]

      isym =  3     120 deg rotation - cryst. axis [0,0,-1]

[...]

      isym =  4     inv. 180 deg rotation - cart. axis [1,0,0]

[...]

      isym =  5     inv. 180 deg rotation - cryst. axis [0,1,0]

[...]

      isym =  6     inv. 180 deg rotation - cryst. axis [1,1,0]

 cryst.   s( 6) = (     0         -1          0      )
                  (    -1          0          0      )
                  (     0          0          1      )

 cart.    s( 6) = (  0.5000000 -0.8660254  0.0000000 )
                  ( -0.8660254 -0.5000000  0.0000000 )
                  (  0.0000000  0.0000000  1.0000000 )

   Cartesian axes

     site n.     atom                  positions (alat units)
         1           Zn  tau(   1) = (   0.1666667   0.0962250   0.2532366  )
         2           Zn  tau(   2) = (  -0.0000000   0.1924501   0.0003205  )
         3           O   tau(   3) = (   0.1666667   0.0962250   0.4449687  )
         4           O   tau(   4) = (  -0.0000000   0.1924501   0.1920526  )
         5           Zn  tau(   5) = (  -0.0000000   0.3849002   0.2532366  )
         6           Zn  tau(   6) = (  -0.1666667   0.4811252   0.0003205  )
         7           O   tau(   7) = (  -0.0000000   0.3849002   0.4449687  )
         8           O   tau(   8) = (  -0.1666667   0.4811252   0.1920526  )
         9           Zn  tau(   9) = (  -0.1666667   0.6735753   0.2532366  )
        10           Zn  tau(  10) = (  -0.3333333   0.7698004   0.0003205  )
        11           O   tau(  11) = (  -0.1666667   0.6735753   0.4449687  )
        12           O   tau(  12) = (  -0.3333333   0.7698004   0.1920526  )
        13           Zn  tau(  13) = (   0.5000000   0.0962250   0.2532366  )
        14           Zn  tau(  14) = (   0.3333333   0.1924501   0.0003205  )
        15           O   tau(  15) = (   0.5000000   0.0962250   0.4449687  )
        16           O   tau(  16) = (   0.3333333   0.1924501   0.1920526  )
        17           Zn  tau(  17) = (   0.3333333   0.3849002   0.2532366  )
        18           Zn  tau(  18) = (   0.1666667   0.4811252   0.0003205  )
        19           O   tau(  19) = (   0.3333333   0.3849002   0.4449687  )
        20           O   tau(  20) = (   0.1666667   0.4811252   0.1920526  )
        21           Zn  tau(  21) = (   0.1666667   0.6735753   0.2532366  )
        22           Zn  tau(  22) = (  -0.0000000   0.7698004   0.0003205  )
        23           O   tau(  23) = (   0.1666667   0.6735753   0.4449687  )
        24           O   tau(  24) = (  -0.0000000   0.7698004   0.1920526  )
        25           Zn  tau(  25) = (   0.8333333   0.0962250   0.2532366  )
        26           Zn  tau(  26) = (   0.6666667   0.1924501   0.0003205  )
        27           O   tau(  27) = (   0.8333333   0.0962250   0.4449687  )
        28           O   tau(  28) = (   0.6666667   0.1924501   0.1920526  )
        29           Zn  tau(  29) = (   0.6666667   0.3849002   0.2532366  )
        30           Zn  tau(  30) = (   0.5000000   0.4811252   0.0003205  )
        31           O   tau(  31) = (   0.6666667   0.3849002   0.4449687  )
        32           O   tau(  32) = (   0.5000000   0.4811252   0.1920526  )
        33           Zn  tau(  33) = (   0.5000000   0.6735753   0.2532366  )
        34           Zn  tau(  34) = (   0.3333333   0.7698004   0.0003205  )
        35           O   tau(  35) = (   0.5000000   0.6735753   0.4449687  )
        36           O   tau(  36) = (   0.3333333   0.7698004   0.1920526  )

   Crystallographic axes

     site n.     atom                  positions (cryst. coord.)
         1           Zn  tau(   1) = (  0.2222222  0.1111111  0.5006336  )
         2           Zn  tau(   2) = (  0.1111111  0.2222222  0.0006336  )
         3           O   tau(   3) = (  0.2222222  0.1111111  0.8796764  )
         4           O   tau(   4) = (  0.1111111  0.2222222  0.3796764  )
         5           Zn  tau(   5) = (  0.2222222  0.4444444  0.5006336  )
         6           Zn  tau(   6) = (  0.1111111  0.5555556  0.0006336  )
         7           O   tau(   7) = (  0.2222222  0.4444444  0.8796764  )
         8           O   tau(   8) = (  0.1111111  0.5555556  0.3796764  )
         9           Zn  tau(   9) = (  0.2222222  0.7777778  0.5006336  )
        10           Zn  tau(  10) = (  0.1111111  0.8888889  0.0006336  )
        11           O   tau(  11) = (  0.2222222  0.7777778  0.8796764  )
        12           O   tau(  12) = (  0.1111111  0.8888889  0.3796764  )
        13           Zn  tau(  13) = (  0.5555556  0.1111111  0.5006336  )
        14           Zn  tau(  14) = (  0.4444444  0.2222222  0.0006336  )
        15           O   tau(  15) = (  0.5555556  0.1111111  0.8796764  )
        16           O   tau(  16) = (  0.4444444  0.2222222  0.3796764  )
        17           Zn  tau(  17) = (  0.5555556  0.4444444  0.5006336  )
        18           Zn  tau(  18) = (  0.4444444  0.5555556  0.0006336  )
        19           O   tau(  19) = (  0.5555556  0.4444444  0.8796764  )
        20           O   tau(  20) = (  0.4444444  0.5555556  0.3796764  )
        21           Zn  tau(  21) = (  0.5555556  0.7777778  0.5006336  )
        22           Zn  tau(  22) = (  0.4444444  0.8888889  0.0006336  )
        23           O   tau(  23) = (  0.5555556  0.7777778  0.8796764  )
        24           O   tau(  24) = (  0.4444444  0.8888889  0.3796764  )
        25           Zn  tau(  25) = (  0.8888889  0.1111111  0.5006336  )
        26           Zn  tau(  26) = (  0.7777778  0.2222222  0.0006336  )
        27           O   tau(  27) = (  0.8888889  0.1111111  0.8796764  )
        28           O   tau(  28) = (  0.7777778  0.2222222  0.3796764  )
        29           Zn  tau(  29) = (  0.8888889  0.4444444  0.5006336  )
        30           Zn  tau(  30) = (  0.7777778  0.5555556  0.0006336  )
        31           O   tau(  31) = (  0.8888889  0.4444444  0.8796764  )
        32           O   tau(  32) = (  0.7777778  0.5555556  0.3796764  )
        33           Zn  tau(  33) = (  0.8888889  0.7777778  0.5006336  )
        34           Zn  tau(  34) = (  0.7777778  0.8888889  0.0006336  )
        35           O   tau(  35) = (  0.8888889  0.7777778  0.8796764  )
        36           O   tau(  36) = (  0.7777778  0.8888889  0.3796764  )

     number of k points=    34
                       cart. coord. in units 2pi/alat
        k(    1) = (   0.0000000   0.0000000   0.0000000), wk =   0.0092593
        k(    2) = (   0.0000000   0.0000000   0.3294900), wk =   0.0185185
        k(    3) = (   0.0000000   0.0000000   0.6589799), wk =   0.0185185
        k(    4) = (   0.0000000   0.0000000  -0.9884699), wk =   0.0092593
        k(    5) = (   0.0000000   0.1924501   0.0000000), wk =   0.0555556
        k(    6) = (   0.0000000   0.1924501   0.3294900), wk =   0.0555556
        k(    7) = (   0.0000000   0.1924501   0.6589799), wk =   0.0555556
        k(    8) = (   0.0000000   0.1924501  -0.9884699), wk =   0.0555556
        k(    9) = (   0.0000000   0.3849002   0.0000000), wk =   0.0555556
[...]
     atom   35 type  2   force =     0.00000000    0.00000014   -0.12071775
     atom   36 type  2   force =    -0.00000142   -0.00000082   -0.12071745
     The ionic contribution  to forces
     atom    1 type  1   force =     0.00000001    0.00000001   -1.49109069
     atom    2 type  1   force =     0.00000001    0.00000002   -1.49109069
     atom    3 type  2   force =     0.00000001    0.00000001    1.49109069
     atom    4 type  2   force =     0.00000000    0.00000001    1.49109069
     atom    5 type  1   force =     0.00000000    0.00000002   -1.49109069
     atom    6 type  1   force =     0.00000002   -0.00000000   -1.49109069
     atom    7 type  2   force =    -0.00000000    0.00000001    1.49109069
     atom    8 type  2   force =     0.00000001   -0.00000000    1.49109069
     atom    9 type  1   force =     0.00000001   -0.00000001   -1.49109069
     atom   10 type  1   force =     0.00000001   -0.00000000   -1.49109069
     atom   11 type  2   force =     0.00000001   -0.00000000    1.49109069
     atom   12 type  2   force =     0.00000000   -0.00000000    1.49109069
     atom   13 type  1   force =    -0.00000001    0.00000001   -1.49109069
     atom   14 type  1   force =     0.00000001    0.00000001   -1.49109069
     atom   15 type  2   force =    -0.00000001    0.00000001    1.49109069
     atom   16 type  2   force =     0.00000001    0.00000000    1.49109069
     atom   17 type  1   force =    -0.00000002    0.00000001   -1.49109070
     atom   18 type  1   force =     0.00000002   -0.00000001   -1.49109070
     atom   19 type  2   force =    -0.00000001    0.00000001    1.49109070
     atom   20 type  2   force =     0.00000001   -0.00000001    1.49109070
     atom   21 type  1   force =    -0.00000001   -0.00000001   -1.49109069
     atom   22 type  1   force =     0.00000001   -0.00000001   -1.49109069
     atom   23 type  2   force =    -0.00000001   -0.00000000    1.49109069
     atom   24 type  2   force =     0.00000001   -0.00000001    1.49109069
     atom   25 type  1   force =    -0.00000001    0.00000000   -1.49109069
     atom   26 type  1   force =    -0.00000001    0.00000001   -1.49109069
     atom   27 type  2   force =    -0.00000000    0.00000000    1.49109069
     atom   28 type  2   force =    -0.00000001    0.00000000    1.49109069
     atom   29 type  1   force =    -0.00000002    0.00000000   -1.49109069
     atom   30 type  1   force =    -0.00000000   -0.00000002   -1.49109069
     atom   31 type  2   force =    -0.00000001    0.00000000    1.49109069
     atom   32 type  2   force =     0.00000000   -0.00000001    1.49109069
     atom   33 type  1   force =    -0.00000001   -0.00000002   -1.49109069
     atom   34 type  1   force =    -0.00000001   -0.00000001   -1.49109069
     atom   35 type  2   force =    -0.00000000   -0.00000001    1.49109069
     atom   36 type  2   force =    -0.00000001   -0.00000001    1.49109069
     The local contribution  to forces
     atom    1 type  1   force =    -0.00000349   -0.00000201    1.60121266
     atom    2 type  1   force =     0.00000000   -0.00000266    1.60121766
     atom    3 type  2   force =    -0.00000137   -0.00000079   -1.28737369
     atom    4 type  2   force =     0.00000000   -0.00000384   -1.28736973
     atom    5 type  1   force =     0.00000000    0.00000488    1.60120920
     atom    6 type  1   force =    -0.00000270   -0.00000169    1.60122029
     atom    7 type  2   force =     0.00000000    0.00000090   -1.28737166
     atom    8 type  2   force =     0.00000120    0.00000066   -1.28737149
     atom    9 type  1   force =     0.00000423   -0.00000244    1.60120920
     atom   10 type  1   force =    -0.00000230    0.00000133    1.60121766
     atom   11 type  2   force =     0.00000078   -0.00000045   -1.28737166
     atom   12 type  2   force =    -0.00000332    0.00000192   -1.28736973
     atom   13 type  1   force =    -0.00000012   -0.00000427    1.60121528
     atom   14 type  1   force =     0.00000629    0.00000363    1.60121260
     atom   15 type  2   force =    -0.00000003    0.00000322   -1.28737248
     atom   16 type  2   force =     0.00000363    0.00000209   -1.28737091
     atom   17 type  1   force =    -0.00000387    0.00000223    1.60121528
     atom   18 type  1   force =     0.00000293   -0.00000169    1.60122029
     atom   19 type  2   force =     0.00000274   -0.00000158   -1.28737248
     atom   20 type  2   force =    -0.00000114    0.00000066   -1.28737149
     atom   21 type  1   force =    -0.00000423   -0.00000244    1.60120920
     atom   22 type  1   force =     0.00000012    0.00000318    1.60122029
     atom   23 type  2   force =    -0.00000078   -0.00000045   -1.28737166
     atom   24 type  2   force =     0.00000003   -0.00000137   -1.28737149
     atom   25 type  1   force =     0.00000349   -0.00000201    1.60121266
     atom   26 type  1   force =    -0.00000629    0.00000363    1.60121260
     atom   27 type  2   force =     0.00000137   -0.00000079   -1.28737369
     atom   28 type  2   force =    -0.00000363    0.00000209   -1.28737091
     atom   29 type  1   force =     0.00000364    0.00000223    1.60121528
     atom   30 type  1   force =     0.00000000   -0.00000726    1.60121260
     atom   31 type  2   force =    -0.00000281   -0.00000158   -1.28737248
     atom   32 type  2   force =     0.00000000   -0.00000419   -1.28737091
     atom   33 type  1   force =     0.00000000    0.00000403    1.60121266
     atom   34 type  1   force =     0.00000230    0.00000133    1.60121766
     atom   35 type  2   force =     0.00000000    0.00000158   -1.28737369
     atom   36 type  2   force =     0.00000332    0.00000192   -1.28736973
     The core correction contribution to forces
     atom    1 type  1   force =     0.00000009    0.00000005    0.02179493
     atom    2 type  1   force =     0.00000000    0.00000001    0.02179468
     atom    3 type  2   force =    -0.00000000   -0.00000000    0.00058267
     atom    4 type  2   force =     0.00000000   -0.00000003    0.00058268
     atom    5 type  1   force =    -0.00000000   -0.00000010    0.02179509
     atom    6 type  1   force =     0.00000012    0.00000005    0.02179458
     atom    7 type  2   force =    -0.00000000   -0.00000001    0.00058269
     atom    8 type  2   force =     0.00000001    0.00000000    0.00058267
     atom    9 type  1   force =    -0.00000009    0.00000005    0.02179509
     atom   10 type  1   force =     0.00000001   -0.00000000    0.02179468
     atom   11 type  2   force =    -0.00000001    0.00000001    0.00058269
     atom   12 type  2   force =    -0.00000003    0.00000002    0.00058268
     atom   13 type  1   force =    -0.00000002    0.00000020    0.02179485
     atom   14 type  1   force =    -0.00000005   -0.00000003    0.02179483
     atom   15 type  2   force =     0.00000000    0.00000002    0.00058268
     atom   16 type  2   force =     0.00000001    0.00000001    0.00058268
     atom   17 type  1   force =     0.00000015   -0.00000009    0.02179485
     atom   18 type  1   force =    -0.00000008    0.00000005    0.02179458
     atom   19 type  2   force =     0.00000002   -0.00000001    0.00058268
     atom   20 type  2   force =    -0.00000001    0.00000000    0.00058267
     atom   21 type  1   force =     0.00000009    0.00000005    0.02179509
     atom   22 type  1   force =     0.00000002   -0.00000012    0.02179458
     atom   23 type  2   force =     0.00000001    0.00000001    0.00058269
     atom   24 type  2   force =    -0.00000000   -0.00000001    0.00058267
     atom   25 type  1   force =    -0.00000009    0.00000005    0.02179493
     atom   26 type  1   force =     0.00000005   -0.00000003    0.02179483
     atom   27 type  2   force =     0.00000000   -0.00000000    0.00058267
     atom   28 type  2   force =    -0.00000001    0.00000001    0.00058268
     atom   29 type  1   force =    -0.00000018   -0.00000009    0.02179485
     atom   30 type  1   force =     0.00000000    0.00000006    0.02179483
     atom   31 type  2   force =    -0.00000002   -0.00000001    0.00058268
     atom   32 type  2   force =     0.00000000   -0.00000001    0.00058268
     atom   33 type  1   force =     0.00000000   -0.00000010    0.02179493
     atom   34 type  1   force =    -0.00000001   -0.00000000    0.02179468
     atom   35 type  2   force =    -0.00000000    0.00000000    0.00058267
     atom   36 type  2   force =     0.00000003    0.00000002    0.00058268
     The Hubbard contrib.    to forces
     atom    1 type  1   force =     0.00000000    0.00000000    0.00000000
     atom    2 type  1   force =     0.00000000    0.00000000    0.00000000
     atom    3 type  2   force =     0.00000000    0.00000000    0.00000000
     atom    4 type  2   force =     0.00000000    0.00000000    0.00000000
     atom    5 type  1   force =     0.00000000    0.00000000    0.00000000
     atom    6 type  1   force =     0.00000000    0.00000000    0.00000000
     atom    7 type  2   force =     0.00000000    0.00000000    0.00000000
     atom    8 type  2   force =     0.00000000    0.00000000    0.00000000
     atom    9 type  1   force =     0.00000000    0.00000000    0.00000000
     atom   10 type  1   force =     0.00000000    0.00000000    0.00000000
     atom   11 type  2   force =     0.00000000    0.00000000    0.00000000
     atom   12 type  2   force =     0.00000000    0.00000000    0.00000000
     atom   13 type  1   force =     0.00000000    0.00000000    0.00000000
     atom   14 type  1   force =     0.00000000    0.00000000    0.00000000
     atom   15 type  2   force =     0.00000000    0.00000000    0.00000000
     atom   16 type  2   force =     0.00000000    0.00000000    0.00000000
     atom   17 type  1   force =     0.00000000    0.00000000    0.00000000
     atom   18 type  1   force =     0.00000000    0.00000000    0.00000000
     atom   19 type  2   force =     0.00000000    0.00000000    0.00000000
     atom   20 type  2   force =     0.00000000    0.00000000    0.00000000
     atom   21 type  1   force =     0.00000000    0.00000000    0.00000000
     atom   22 type  1   force =     0.00000000    0.00000000    0.00000000
     atom   23 type  2   force =     0.00000000    0.00000000    0.00000000
     atom   24 type  2   force =     0.00000000    0.00000000    0.00000000
     atom   25 type  1   force =     0.00000000    0.00000000    0.00000000
     atom   26 type  1   force =     0.00000000    0.00000000    0.00000000
     atom   27 type  2   force =     0.00000000    0.00000000    0.00000000
     atom   28 type  2   force =     0.00000000    0.00000000    0.00000000
     atom   29 type  1   force =     0.00000000    0.00000000    0.00000000
     atom   30 type  1   force =     0.00000000    0.00000000    0.00000000
     atom   31 type  2   force =     0.00000000    0.00000000    0.00000000
     atom   32 type  2   force =     0.00000000    0.00000000    0.00000000
     atom   33 type  1   force =     0.00000000    0.00000000    0.00000000
     atom   34 type  1   force =     0.00000000    0.00000000    0.00000000
     atom   35 type  2   force =     0.00000000    0.00000000    0.00000000
     atom   36 type  2   force =     0.00000000    0.00000000    0.00000000
     The SCF correction term to forces
     atom    1 type  1   force =     0.00000348    0.00000201   -0.00000982
     atom    2 type  1   force =     0.00000000    0.00000410   -0.00001507
     atom    3 type  2   force =     0.00000136    0.00000078    0.00001047
     atom    4 type  2   force =     0.00000000    0.00000284    0.00000630
     atom    5 type  1   force =     0.00000000   -0.00000411   -0.00000915
     atom    6 type  1   force =     0.00000303    0.00000175   -0.00001643
     atom    7 type  2   force =     0.00000000   -0.00000209    0.00000987
     atom    8 type  2   force =    -0.00000102   -0.00000059    0.00000801
     atom    9 type  1   force =    -0.00000356    0.00000205   -0.00000915
     atom   10 type  1   force =     0.00000355   -0.00000205   -0.00001507
     atom   11 type  2   force =    -0.00000181    0.00000105    0.00000987
     atom   12 type  2   force =     0.00000246   -0.00000142    0.00000630
     atom   13 type  1   force =    -0.00000000    0.00000386   -0.00001245
     atom   14 type  1   force =    -0.00000826   -0.00000477   -0.00000940
     atom   15 type  2   force =    -0.00000000   -0.00000280    0.00001015
     atom   16 type  2   force =    -0.00000425   -0.00000246    0.00000777
     atom   17 type  1   force =     0.00000335   -0.00000193   -0.00001245
     atom   18 type  1   force =    -0.00000303    0.00000175   -0.00001643
     atom   19 type  2   force =    -0.00000243    0.00000140    0.00001015
     atom   20 type  2   force =     0.00000102   -0.00000059    0.00000801
     atom   21 type  1   force =     0.00000356    0.00000205   -0.00000915
     atom   22 type  1   force =     0.00000000   -0.00000350   -0.00001643
     atom   23 type  2   force =     0.00000181    0.00000105    0.00000987
     atom   24 type  2   force =     0.00000000    0.00000118    0.00000801
     atom   25 type  1   force =    -0.00000348    0.00000201   -0.00000982
     atom   26 type  1   force =     0.00000826   -0.00000477   -0.00000940
     atom   27 type  2   force =    -0.00000136    0.00000078    0.00001047
     atom   28 type  2   force =     0.00000425   -0.00000246    0.00000777
     atom   29 type  1   force =    -0.00000335   -0.00000193   -0.00001245
     atom   30 type  1   force =    -0.00000000    0.00000954   -0.00000940
     atom   31 type  2   force =     0.00000243    0.00000140    0.00001015
     atom   32 type  2   force =    -0.00000000    0.00000491    0.00000777
     atom   33 type  1   force =    -0.00000000   -0.00000401   -0.00000982
     atom   34 type  1   force =    -0.00000355   -0.00000205   -0.00001507
     atom   35 type  2   force =    -0.00000000   -0.00000157    0.00001047
     atom   36 type  2   force =    -0.00000246   -0.00000142    0.00000630

     Total force =     0.501585     Total SCF correction =     0.000070

     General routines

     Parallel routines

   This run was terminated on:  16: 6: 8  24Aug2025

   JOB DONE.
Note: The following floating-point exceptions are signalling: IEEE_INVALID_FLAG
Note: The following floating-point exceptions are signalling: IEEE_INVALID_FLAG
Note: The following floating-point exceptions are signalling: IEEE_INVALID_FLAG
Note: The following floating-point exceptions are signalling: IEEE_INVALID_FLAG
Note: The following floating-point exceptions are signalling: IEEE_INVALID_FLAG
Note: The following floating-point exceptions are signalling: IEEE_INVALID_FLAG
Note: The following floating-point exceptions are signalling: IEEE_INVALID_FLAG
Note: The following floating-point exceptions are signalling: IEEE_INVALID_FLAG
Note: The following floating-point exceptions are signalling: IEEE_INVALID_FLAG
Note: The following floating-point exceptions are signalling: IEEE_INVALID_FLAG
Note: The following floating-point exceptions are signalling: IEEE_INVALID_FLAG
Note: The following floating-point exceptions are signalling: IEEE_INVALID_FLAG
Note: The following floating-point exceptions are signalling: IEEE_INVALID_FLAG
Note: The following floating-point exceptions are signalling: IEEE_INVALID_FLAG
Note: The following floating-point exceptions are signalling: IEEE_INVALID_FLAG
Note: The following floating-point exceptions are signalling: IEEE_INVALID_FLAG
Note: The following floating-point exceptions are signalling: IEEE_INVALID_FLAG
Note: The following floating-point exceptions are signalling: IEEE_INVALID_FLAG
Note: The following floating-point exceptions are signalling: IEEE_INVALID_FLAG
Note: The following floating-point exceptions are signalling: IEEE_INVALID_FLAG
Note: The following floating-point exceptions are signalling: IEEE_INVALID_FLAG
Note: The following floating-point exceptions are signalling: IEEE_INVALID_FLAG
Note: The following floating-point exceptions are signalling: IEEE_INVALID_FLAG
Note: The following floating-point exceptions are signalling: IEEE_INVALID_FLAG
Note: The following floating-point exceptions are signalling: IEEE_INVALID_FLAG
Note: The following floating-point exceptions are signalling: IEEE_INVALID_FLAG
Note: The following floating-point exceptions are signalling: IEEE_INVALID_FLAG
Note: The following floating-point exceptions are signalling: IEEE_INVALID_FLAG
Note: The following floating-point exceptions are signalling: IEEE_INVALID_FLAG
Note: The following floating-point exceptions are signalling: IEEE_INVALID_FLAG
Note: The following floating-point exceptions are signalling: IEEE_INVALID_FLAG
Note: The following floating-point exceptions are signalling: IEEE_INVALID_FLAG