     Program PWSCF v.7.2 starts on 25Aug2025 at 10: 5:59

     Reading input from /home/jvc/QEspresso7.2/ZnO_database/scripts/cell331.in/ZnO-3.20-1.55-331.in
Warning: card &CELL ignored
Warning: card / ignored
Warning: card &FCP ignored
Warning: card / ignored
Warning: card &RISM ignored
Warning: card / ignored

     Current dimensions of program PWSCF are:
     Max number of different atomic species (ntypx) = 10
     Max number of k-points (npk) =  40000
     Max angular momentum in pseudopotentials (lmaxx) =  4
     file Zn.upf: wavefunction(s)  3D renormalized
     Found identity + (  0.0000  0.3333  0.0000) symmetry
     This is a supercell, fractional translations are disabled
     Message from routine setup:
     using ibrav=0 with symmetry is DISCOURAGED, use correct ibrav instead

     K-points division:     npool     =       8
     band groups division:  nbgrp     =       4
     Subspace diagonalization in iterative solution of the eigenvalue problem:
     a serial algorithm will be used

     Using Slab Decomposition

     bravais-lattice index     =            0
     lattice parameter (alat)  =      18.1658  a.u.
     unit-cell volume          =    2681.9232 (a.u.)^3
     number of atoms/cell      =           36
     number of atomic types    =            2
     number of electrons       =       324.00
     number of Kohn-Sham states=          162
     kinetic-energy cutoff     =      50.0000  Ry
     charge density cutoff     =     400.0000  Ry
     scf convergence threshold =      1.0E-08
     mixing beta               =       0.3000
     number of iterations used =            8  plain     mixing
     Exchange-correlation= PBE
                           (   1   4   3   4   0   0   0)

     celldm(1)=  18.165831  celldm(2)=   0.000000  celldm(3)=   0.000000
     celldm(4)=   0.000000  celldm(5)=   0.000000  celldm(6)=   0.000000

     crystal axes: (cart. coord. in units of alat)
               a(1) = (   1.000000   0.000000   0.000000 )
               a(2) = (  -0.500000   0.866025   0.000000 )
               a(3) = (   0.000000   0.000000   0.516595 )

     reciprocal axes: (cart. coord. in units 2 pi/alat)
               b(1) = (  1.000000  0.577350 -0.000000 )
               b(2) = (  0.000000  1.154701  0.000000 )
               b(3) = (  0.000000 -0.000000  1.935754 )

     PseudoPot. # 1 for Zn read from file:
     /home/jvc/QEspresso7.2/ZnO_database/pseudos/Zn.upf
     MD5 check sum: 7f56cabf9682ed8c977c2f7d0c5985c5
     Pseudo is Ultrasoft + core correction, Zval = 12.0
     Generated using &quot;atomic&quot; code by A. Dal Corso  v.6.2.2
     Using radial grid of 1201 points,  6 beta functions with:
                l(1) =   0
                l(2) =   0
                l(3) =   1
                l(4) =   1
                l(5) =   2
                l(6) =   2
     Q(r) pseudized with 0 coefficients

     PseudoPot. # 2 for O  read from file:
     /home/jvc/QEspresso7.2/ZnO_database/pseudos/O.upf
     MD5 check sum: 91400c9766925bcf19f520983a725ff0
     Pseudo is Ultrasoft + core correction, Zval =  6.0
     Generated using &quot;atomic&quot; code by A. Dal Corso  v.6.3MaX
     Using radial grid of 1095 points,  4 beta functions with:
                l(1) =   0
                l(2) =   0
                l(3) =   1
                l(4) =   1
     Q(r) pseudized with 0 coefficients

     atomic species   valence    mass     pseudopotential
        Zn            12.00    65.38000     Zn( 1.00)
        O              6.00    15.99900     O ( 1.00)

      6 Sym. Ops. (no inversion) found

                                    s                        frac. trans.

      isym =  1     identity

 cryst.   s( 1) = (     1          0          0      )
                  (     0          1          0      )
                  (     0          0          1      )

 cart.    s( 1) = (  1.0000000  0.0000000  0.0000000 )
                  (  0.0000000  1.0000000  0.0000000 )
                  (  0.0000000  0.0000000  1.0000000 )

      isym =  2     120 deg rotation - cryst. axis [0,0,1]

[...]

      isym =  3     120 deg rotation - cryst. axis [0,0,-1]

[...]

      isym =  4     inv. 180 deg rotation - cart. axis [1,0,0]

[...]

      isym =  5     inv. 180 deg rotation - cryst. axis [0,1,0]

[...]

      isym =  6     inv. 180 deg rotation - cryst. axis [1,1,0]

 cryst.   s( 6) = (     0         -1          0      )
                  (    -1          0          0      )
                  (     0          0          1      )

 cart.    s( 6) = (  0.5000000 -0.8660254  0.0000000 )
                  ( -0.8660254 -0.5000000  0.0000000 )
                  (  0.0000000  0.0000000  1.0000000 )

   Cartesian axes

     site n.     atom                  positions (alat units)
         1           Zn  tau(   1) = (   0.1666667   0.0962250   0.2586246  )
         2           Zn  tau(   2) = (  -0.0000000   0.1924501   0.0003273  )
         3           O   tau(   3) = (   0.1666667   0.0962250   0.4544362  )
         4           O   tau(   4) = (  -0.0000000   0.1924501   0.1961388  )
         5           Zn  tau(   5) = (  -0.0000000   0.3849002   0.2586246  )
         6           Zn  tau(   6) = (  -0.1666667   0.4811252   0.0003273  )
         7           O   tau(   7) = (  -0.0000000   0.3849002   0.4544362  )
         8           O   tau(   8) = (  -0.1666667   0.4811252   0.1961388  )
         9           Zn  tau(   9) = (  -0.1666667   0.6735753   0.2586246  )
        10           Zn  tau(  10) = (  -0.3333333   0.7698004   0.0003273  )
        11           O   tau(  11) = (  -0.1666667   0.6735753   0.4544362  )
        12           O   tau(  12) = (  -0.3333333   0.7698004   0.1961388  )
        13           Zn  tau(  13) = (   0.5000000   0.0962250   0.2586246  )
        14           Zn  tau(  14) = (   0.3333333   0.1924501   0.0003273  )
        15           O   tau(  15) = (   0.5000000   0.0962250   0.4544362  )
        16           O   tau(  16) = (   0.3333333   0.1924501   0.1961388  )
        17           Zn  tau(  17) = (   0.3333333   0.3849002   0.2586246  )
        18           Zn  tau(  18) = (   0.1666667   0.4811252   0.0003273  )
        19           O   tau(  19) = (   0.3333333   0.3849002   0.4544362  )
        20           O   tau(  20) = (   0.1666667   0.4811252   0.1961388  )
        21           Zn  tau(  21) = (   0.1666667   0.6735753   0.2586246  )
        22           Zn  tau(  22) = (  -0.0000000   0.7698004   0.0003273  )
        23           O   tau(  23) = (   0.1666667   0.6735753   0.4544362  )
        24           O   tau(  24) = (  -0.0000000   0.7698004   0.1961388  )
        25           Zn  tau(  25) = (   0.8333333   0.0962250   0.2586246  )
        26           Zn  tau(  26) = (   0.6666667   0.1924501   0.0003273  )
        27           O   tau(  27) = (   0.8333333   0.0962250   0.4544362  )
        28           O   tau(  28) = (   0.6666667   0.1924501   0.1961388  )
        29           Zn  tau(  29) = (   0.6666667   0.3849002   0.2586246  )
        30           Zn  tau(  30) = (   0.5000000   0.4811252   0.0003273  )
        31           O   tau(  31) = (   0.6666667   0.3849002   0.4544362  )
        32           O   tau(  32) = (   0.5000000   0.4811252   0.1961388  )
        33           Zn  tau(  33) = (   0.5000000   0.6735753   0.2586246  )
        34           Zn  tau(  34) = (   0.3333333   0.7698004   0.0003273  )
        35           O   tau(  35) = (   0.5000000   0.6735753   0.4544362  )
        36           O   tau(  36) = (   0.3333333   0.7698004   0.1961388  )

   Crystallographic axes

     site n.     atom                  positions (cryst. coord.)
         1           Zn  tau(   1) = (  0.2222222  0.1111111  0.5006336  )
         2           Zn  tau(   2) = (  0.1111111  0.2222222  0.0006336  )
         3           O   tau(   3) = (  0.2222222  0.1111111  0.8796764  )
         4           O   tau(   4) = (  0.1111111  0.2222222  0.3796764  )
         5           Zn  tau(   5) = (  0.2222222  0.4444444  0.5006336  )
         6           Zn  tau(   6) = (  0.1111111  0.5555556  0.0006336  )
         7           O   tau(   7) = (  0.2222222  0.4444444  0.8796764  )
         8           O   tau(   8) = (  0.1111111  0.5555556  0.3796764  )
         9           Zn  tau(   9) = (  0.2222222  0.7777778  0.5006336  )
        10           Zn  tau(  10) = (  0.1111111  0.8888889  0.0006336  )
        11           O   tau(  11) = (  0.2222222  0.7777778  0.8796764  )
        12           O   tau(  12) = (  0.1111111  0.8888889  0.3796764  )
        13           Zn  tau(  13) = (  0.5555556  0.1111111  0.5006336  )
        14           Zn  tau(  14) = (  0.4444444  0.2222222  0.0006336  )
        15           O   tau(  15) = (  0.5555556  0.1111111  0.8796764  )
        16           O   tau(  16) = (  0.4444444  0.2222222  0.3796764  )
        17           Zn  tau(  17) = (  0.5555556  0.4444444  0.5006336  )
        18           Zn  tau(  18) = (  0.4444444  0.5555556  0.0006336  )
        19           O   tau(  19) = (  0.5555556  0.4444444  0.8796764  )
        20           O   tau(  20) = (  0.4444444  0.5555556  0.3796764  )
        21           Zn  tau(  21) = (  0.5555556  0.7777778  0.5006336  )
        22           Zn  tau(  22) = (  0.4444444  0.8888889  0.0006336  )
        23           O   tau(  23) = (  0.5555556  0.7777778  0.8796764  )
        24           O   tau(  24) = (  0.4444444  0.8888889  0.3796764  )
        25           Zn  tau(  25) = (  0.8888889  0.1111111  0.5006336  )
        26           Zn  tau(  26) = (  0.7777778  0.2222222  0.0006336  )
        27           O   tau(  27) = (  0.8888889  0.1111111  0.8796764  )
        28           O   tau(  28) = (  0.7777778  0.2222222  0.3796764  )
        29           Zn  tau(  29) = (  0.8888889  0.4444444  0.5006336  )
        30           Zn  tau(  30) = (  0.7777778  0.5555556  0.0006336  )
        31           O   tau(  31) = (  0.8888889  0.4444444  0.8796764  )
        32           O   tau(  32) = (  0.7777778  0.5555556  0.3796764  )
        33           Zn  tau(  33) = (  0.8888889  0.7777778  0.5006336  )
        34           Zn  tau(  34) = (  0.7777778  0.8888889  0.0006336  )
        35           O   tau(  35) = (  0.8888889  0.7777778  0.8796764  )
        36           O   tau(  36) = (  0.7777778  0.8888889  0.3796764  )

     number of k points=    34
                       cart. coord. in units 2pi/alat
        k(    1) = (   0.0000000   0.0000000   0.0000000), wk =   0.0092593
        k(    2) = (   0.0000000   0.0000000   0.3226256), wk =   0.0185185
        k(    3) = (   0.0000000   0.0000000   0.6452512), wk =   0.0185185
        k(    4) = (   0.0000000   0.0000000  -0.9678768), wk =   0.0092593
        k(    5) = (   0.0000000   0.1924501   0.0000000), wk =   0.0555556
        k(    6) = (   0.0000000   0.1924501   0.3226256), wk =   0.0555556
        k(    7) = (   0.0000000   0.1924501   0.6452512), wk =   0.0555556
        k(    8) = (   0.0000000   0.1924501  -0.9678768), wk =   0.0555556
        k(    9) = (   0.0000000   0.3849002   0.0000000), wk =   0.0555556
[...]
     atom   35 type  2   force =     0.00000000    0.00000150   -0.08790044
     atom   36 type  2   force =     0.00000221    0.00000128   -0.08790163
     The ionic contribution  to forces
     atom    1 type  1   force =     0.00000001    0.00000001   -0.83223645
     atom    2 type  1   force =     0.00000000    0.00000002   -0.83223645
     atom    3 type  2   force =     0.00000001    0.00000001    0.83223645
     atom    4 type  2   force =     0.00000000    0.00000001    0.83223645
     atom    5 type  1   force =     0.00000000    0.00000001   -0.83223645
     atom    6 type  1   force =     0.00000001   -0.00000000   -0.83223645
     atom    7 type  2   force =    -0.00000000    0.00000001    0.83223645
     atom    8 type  2   force =     0.00000001   -0.00000000    0.83223645
     atom    9 type  1   force =     0.00000001   -0.00000001   -0.83223645
     atom   10 type  1   force =     0.00000001   -0.00000000   -0.83223645
     atom   11 type  2   force =     0.00000001   -0.00000000    0.83223645
     atom   12 type  2   force =     0.00000000   -0.00000000    0.83223645
     atom   13 type  1   force =    -0.00000001    0.00000001   -0.83223645
     atom   14 type  1   force =     0.00000001    0.00000001   -0.83223645
     atom   15 type  2   force =    -0.00000001    0.00000001    0.83223645
     atom   16 type  2   force =     0.00000001    0.00000000    0.83223645
     atom   17 type  1   force =    -0.00000002    0.00000001   -0.83223645
     atom   18 type  1   force =     0.00000002   -0.00000001   -0.83223645
     atom   19 type  2   force =    -0.00000001    0.00000001    0.83223645
     atom   20 type  2   force =     0.00000001   -0.00000001    0.83223645
     atom   21 type  1   force =    -0.00000001   -0.00000001   -0.83223645
     atom   22 type  1   force =     0.00000001   -0.00000001   -0.83223645
     atom   23 type  2   force =    -0.00000001   -0.00000000    0.83223645
     atom   24 type  2   force =     0.00000001   -0.00000001    0.83223645
     atom   25 type  1   force =    -0.00000001    0.00000000   -0.83223645
     atom   26 type  1   force =    -0.00000001    0.00000001   -0.83223645
     atom   27 type  2   force =    -0.00000000    0.00000000    0.83223645
     atom   28 type  2   force =    -0.00000001    0.00000000    0.83223645
     atom   29 type  1   force =    -0.00000001    0.00000000   -0.83223645
     atom   30 type  1   force =    -0.00000000   -0.00000001   -0.83223645
     atom   31 type  2   force =    -0.00000001    0.00000000    0.83223645
     atom   32 type  2   force =     0.00000000   -0.00000001    0.83223645
     atom   33 type  1   force =    -0.00000000   -0.00000002   -0.83223645
     atom   34 type  1   force =    -0.00000001   -0.00000001   -0.83223645
     atom   35 type  2   force =    -0.00000000   -0.00000001    0.83223645
     atom   36 type  2   force =    -0.00000001   -0.00000001    0.83223645
     The local contribution  to forces
     atom    1 type  1   force =    -0.00001190   -0.00000687    0.92647189
     atom    2 type  1   force =    -0.00000000   -0.00000483    0.92644338
     atom    3 type  2   force =    -0.00000313   -0.00000181   -0.72083693
     atom    4 type  2   force =     0.00000000   -0.00000410   -0.72082904
     atom    5 type  1   force =     0.00000000   -0.00001539    0.92648148
     atom    6 type  1   force =    -0.00000467   -0.00000284    0.92643183
     atom    7 type  2   force =     0.00000000   -0.00000292   -0.72083626
     atom    8 type  2   force =    -0.00000138   -0.00000083   -0.72082807
     atom    9 type  1   force =    -0.00001332    0.00000769    0.92648148
     atom   10 type  1   force =    -0.00000419    0.00000242    0.92644338
     atom   11 type  2   force =    -0.00000253    0.00000146   -0.72083626
     atom   12 type  2   force =    -0.00000355    0.00000205   -0.72082904
     atom   13 type  1   force =    -0.00000013    0.00000317    0.92648206
     atom   14 type  1   force =     0.00000138    0.00000080    0.92643695
     atom   15 type  2   force =    -0.00000003    0.00000037   -0.72083571
     atom   16 type  2   force =    -0.00000157   -0.00000090   -0.72082767
     atom   17 type  1   force =     0.00000256   -0.00000148    0.92648206
     atom   18 type  1   force =     0.00000492   -0.00000284    0.92643183
     atom   19 type  2   force =     0.00000027   -0.00000016   -0.72083571
     atom   20 type  2   force =     0.00000144   -0.00000083   -0.72082807
     atom   21 type  1   force =     0.00001332    0.00000769    0.92648148
     atom   22 type  1   force =     0.00000013    0.00000547    0.92643183
     atom   23 type  2   force =     0.00000253    0.00000146   -0.72083626
     atom   24 type  2   force =     0.00000003    0.00000161   -0.72082807
     atom   25 type  1   force =     0.00001190   -0.00000687    0.92647189
     atom   26 type  1   force =    -0.00000138    0.00000080    0.92643695
     atom   27 type  2   force =     0.00000313   -0.00000181   -0.72083693
     atom   28 type  2   force =     0.00000157   -0.00000090   -0.72082767
     atom   29 type  1   force =    -0.00000281   -0.00000148    0.92648206
     atom   30 type  1   force =    -0.00000000   -0.00000159    0.92643695
     atom   31 type  2   force =    -0.00000034   -0.00000016   -0.72083571
     atom   32 type  2   force =     0.00000000    0.00000181   -0.72082767
     atom   33 type  1   force =     0.00000000    0.00001374    0.92647189
     atom   34 type  1   force =     0.00000419    0.00000242    0.92644338
     atom   35 type  2   force =    -0.00000000    0.00000362   -0.72083693
     atom   36 type  2   force =     0.00000355    0.00000205   -0.72082904
     The core correction contribution to forces
     atom    1 type  1   force =     0.00000013    0.00000008    0.01065572
     atom    2 type  1   force =     0.00000000   -0.00000004    0.01065653
     atom    3 type  2   force =     0.00000001    0.00000001    0.00059189
     atom    4 type  2   force =     0.00000000    0.00000003    0.00059191
     atom    5 type  1   force =     0.00000000    0.00000032    0.01065556
     atom    6 type  1   force =     0.00000003   -0.00000000    0.01065693
     atom    7 type  2   force =     0.00000000    0.00000002    0.00059189
     atom    8 type  2   force =     0.00000001    0.00000001    0.00059192
     atom    9 type  1   force =     0.00000027   -0.00000016    0.01065556
     atom   10 type  1   force =    -0.00000004    0.00000002    0.01065653
     atom   11 type  2   force =     0.00000002   -0.00000001    0.00059189
     atom   12 type  2   force =     0.00000002   -0.00000001    0.00059191
     atom   13 type  1   force =    -0.00000002   -0.00000014    0.01065549
     atom   14 type  1   force =    -0.00000005   -0.00000003    0.01065678
     atom   15 type  2   force =     0.00000000   -0.00000000    0.00059190
     atom   16 type  2   force =     0.00000001    0.00000001    0.00059192
     atom   17 type  1   force =    -0.00000015    0.00000009    0.01065549
     atom   18 type  1   force =     0.00000001   -0.00000000    0.01065693
     atom   19 type  2   force =    -0.00000000    0.00000000    0.00059190
     atom   20 type  2   force =    -0.00000001    0.00000001    0.00059192
     atom   21 type  1   force =    -0.00000027   -0.00000016    0.01065556
     atom   22 type  1   force =     0.00000002   -0.00000002    0.01065693
     atom   23 type  2   force =    -0.00000002   -0.00000001    0.00059189
     atom   24 type  2   force =    -0.00000000   -0.00000001    0.00059192
     atom   25 type  1   force =    -0.00000013    0.00000008    0.01065572
     atom   26 type  1   force =     0.00000005   -0.00000003    0.01065678
     atom   27 type  2   force =    -0.00000001    0.00000001    0.00059189
     atom   28 type  2   force =    -0.00000001    0.00000001    0.00059192
     atom   29 type  1   force =     0.00000012    0.00000009    0.01065549
     atom   30 type  1   force =    -0.00000000    0.00000006    0.01065678
     atom   31 type  2   force =     0.00000000    0.00000000    0.00059190
     atom   32 type  2   force =    -0.00000000   -0.00000001    0.00059192
     atom   33 type  1   force =    -0.00000000   -0.00000015    0.01065572
     atom   34 type  1   force =     0.00000004    0.00000002    0.01065653
     atom   35 type  2   force =    -0.00000000   -0.00000001    0.00059189
     atom   36 type  2   force =    -0.00000002   -0.00000001    0.00059191
     The Hubbard contrib.    to forces
     atom    1 type  1   force =     0.00000000    0.00000000    0.00000000
     atom    2 type  1   force =     0.00000000    0.00000000    0.00000000
     atom    3 type  2   force =     0.00000000    0.00000000    0.00000000
     atom    4 type  2   force =     0.00000000    0.00000000    0.00000000
     atom    5 type  1   force =     0.00000000    0.00000000    0.00000000
     atom    6 type  1   force =     0.00000000    0.00000000    0.00000000
     atom    7 type  2   force =     0.00000000    0.00000000    0.00000000
     atom    8 type  2   force =     0.00000000    0.00000000    0.00000000
     atom    9 type  1   force =     0.00000000    0.00000000    0.00000000
     atom   10 type  1   force =     0.00000000    0.00000000    0.00000000
     atom   11 type  2   force =     0.00000000    0.00000000    0.00000000
     atom   12 type  2   force =     0.00000000    0.00000000    0.00000000
     atom   13 type  1   force =     0.00000000    0.00000000    0.00000000
     atom   14 type  1   force =     0.00000000    0.00000000    0.00000000
     atom   15 type  2   force =     0.00000000    0.00000000    0.00000000
     atom   16 type  2   force =     0.00000000    0.00000000    0.00000000
     atom   17 type  1   force =     0.00000000    0.00000000    0.00000000
     atom   18 type  1   force =     0.00000000    0.00000000    0.00000000
     atom   19 type  2   force =     0.00000000    0.00000000    0.00000000
     atom   20 type  2   force =     0.00000000    0.00000000    0.00000000
     atom   21 type  1   force =     0.00000000    0.00000000    0.00000000
     atom   22 type  1   force =     0.00000000    0.00000000    0.00000000
     atom   23 type  2   force =     0.00000000    0.00000000    0.00000000
     atom   24 type  2   force =     0.00000000    0.00000000    0.00000000
     atom   25 type  1   force =     0.00000000    0.00000000    0.00000000
     atom   26 type  1   force =     0.00000000    0.00000000    0.00000000
     atom   27 type  2   force =     0.00000000    0.00000000    0.00000000
     atom   28 type  2   force =     0.00000000    0.00000000    0.00000000
     atom   29 type  1   force =     0.00000000    0.00000000    0.00000000
     atom   30 type  1   force =     0.00000000    0.00000000    0.00000000
     atom   31 type  2   force =     0.00000000    0.00000000    0.00000000
     atom   32 type  2   force =     0.00000000    0.00000000    0.00000000
     atom   33 type  1   force =     0.00000000    0.00000000    0.00000000
     atom   34 type  1   force =     0.00000000    0.00000000    0.00000000
     atom   35 type  2   force =     0.00000000    0.00000000    0.00000000
     atom   36 type  2   force =     0.00000000    0.00000000    0.00000000
     The SCF correction term to forces
     atom    1 type  1   force =     0.00001575    0.00000909   -0.00002602
     atom    2 type  1   force =     0.00000000    0.00000644    0.00001815
     atom    3 type  2   force =     0.00000488    0.00000282    0.00000770
     atom    4 type  2   force =     0.00000000    0.00000658   -0.00000003
     atom    5 type  1   force =     0.00000000    0.00002040   -0.00003825
     atom    6 type  1   force =     0.00000623    0.00000360    0.00003403
     atom    7 type  2   force =    -0.00000000    0.00000496    0.00000739
     atom    8 type  2   force =     0.00000211    0.00000122   -0.00000063
     atom    9 type  1   force =     0.00001767   -0.00001020   -0.00003825
     atom   10 type  1   force =     0.00000558   -0.00000322    0.00001815
     atom   11 type  2   force =     0.00000430   -0.00000248    0.00000739
     atom   12 type  2   force =     0.00000570   -0.00000329   -0.00000003
     atom   13 type  1   force =    -0.00000000   -0.00000442   -0.00004019
     atom   14 type  1   force =    -0.00000177   -0.00000102    0.00002715
     atom   15 type  2   force =    -0.00000000   -0.00000024    0.00000729
     atom   16 type  2   force =     0.00000257    0.00000148   -0.00000052
     atom   17 type  1   force =    -0.00000383    0.00000221   -0.00004019
     atom   18 type  1   force =    -0.00000623    0.00000360    0.00003403
     atom   19 type  2   force =    -0.00000021    0.00000012    0.00000729
     atom   20 type  2   force =    -0.00000211    0.00000122   -0.00000063
     atom   21 type  1   force =    -0.00001767   -0.00001020   -0.00003825
     atom   22 type  1   force =     0.00000000   -0.00000719    0.00003403
     atom   23 type  2   force =    -0.00000430   -0.00000248    0.00000739
     atom   24 type  2   force =     0.00000000   -0.00000244   -0.00000063
     atom   25 type  1   force =    -0.00001575    0.00000909   -0.00002602
     atom   26 type  1   force =     0.00000177   -0.00000102    0.00002715
     atom   27 type  2   force =    -0.00000488    0.00000282    0.00000770
     atom   28 type  2   force =    -0.00000257    0.00000148   -0.00000052
     atom   29 type  1   force =     0.00000383    0.00000221   -0.00004019
     atom   30 type  1   force =    -0.00000000    0.00000204    0.00002715
     atom   31 type  2   force =     0.00000021    0.00000012    0.00000729
     atom   32 type  2   force =     0.00000000   -0.00000297   -0.00000052
     atom   33 type  1   force =    -0.00000000   -0.00001819   -0.00002602
     atom   34 type  1   force =    -0.00000558   -0.00000322    0.00001815
     atom   35 type  2   force =    -0.00000000   -0.00000564    0.00000770
     atom   36 type  2   force =    -0.00000570   -0.00000329   -0.00000003

     Total force =     0.144581     Total SCF correction =     0.000146

     General routines

     Parallel routines

   This run was terminated on:  10:39:29  25Aug2025

   JOB DONE.
Note: The following floating-point exceptions are signalling: IEEE_INVALID_FLAG
Note: The following floating-point exceptions are signalling: IEEE_INVALID_FLAG
Note: The following floating-point exceptions are signalling: IEEE_INVALID_FLAG
Note: The following floating-point exceptions are signalling: IEEE_INVALID_FLAG
Note: The following floating-point exceptions are signalling: IEEE_INVALID_FLAG
Note: The following floating-point exceptions are signalling: IEEE_INVALID_FLAG
Note: The following floating-point exceptions are signalling: IEEE_INVALID_FLAG
Note: The following floating-point exceptions are signalling: IEEE_INVALID_FLAG
Note: The following floating-point exceptions are signalling: IEEE_INVALID_FLAG
Note: The following floating-point exceptions are signalling: IEEE_INVALID_FLAG
Note: The following floating-point exceptions are signalling: IEEE_INVALID_FLAG
Note: The following floating-point exceptions are signalling: IEEE_INVALID_FLAG
Note: The following floating-point exceptions are signalling: IEEE_INVALID_FLAG
Note: The following floating-point exceptions are signalling: IEEE_INVALID_FLAG
Note: The following floating-point exceptions are signalling: IEEE_INVALID_FLAG
Note: The following floating-point exceptions are signalling: IEEE_INVALID_FLAG
Note: The following floating-point exceptions are signalling: IEEE_INVALID_FLAG
Note: The following floating-point exceptions are signalling: IEEE_INVALID_FLAG
Note: The following floating-point exceptions are signalling: IEEE_INVALID_FLAG
Note: The following floating-point exceptions are signalling: IEEE_INVALID_FLAG
Note: The following floating-point exceptions are signalling: IEEE_INVALID_FLAG
Note: The following floating-point exceptions are signalling: IEEE_INVALID_FLAG
Note: The following floating-point exceptions are signalling: IEEE_INVALID_FLAG
Note: The following floating-point exceptions are signalling: IEEE_INVALID_FLAG
Note: The following floating-point exceptions are signalling: IEEE_INVALID_FLAG
Note: The following floating-point exceptions are signalling: IEEE_INVALID_FLAG
Note: The following floating-point exceptions are signalling: IEEE_INVALID_FLAG
Note: The following floating-point exceptions are signalling: IEEE_INVALID_FLAG
Note: The following floating-point exceptions are signalling: IEEE_INVALID_FLAG
Note: The following floating-point exceptions are signalling: IEEE_INVALID_FLAG
Note: The following floating-point exceptions are signalling: IEEE_INVALID_FLAG
Note: The following floating-point exceptions are signalling: IEEE_INVALID_FLAG