     Program PWSCF v.7.2 starts on 27Aug2025 at 14:27:10

     Reading input from /home/jvc/QEspresso7.2/ZnO_database/scripts/cell331.in/ZnO-3.53-1.65-331.in
Warning: card &CELL ignored
Warning: card / ignored
Warning: card &FCP ignored
Warning: card / ignored
Warning: card &RISM ignored
Warning: card / ignored

     Current dimensions of program PWSCF are:
     Max number of different atomic species (ntypx) = 10
     Max number of k-points (npk) =  40000
     Max angular momentum in pseudopotentials (lmaxx) =  4
     file Zn.upf: wavefunction(s)  3D renormalized
     Found identity + (  0.0000  0.3333  0.0000) symmetry
     This is a supercell, fractional translations are disabled
     Message from routine setup:
     using ibrav=0 with symmetry is DISCOURAGED, use correct ibrav instead

     K-points division:     npool     =      16
     band groups division:  nbgrp     =       4
     Subspace diagonalization in iterative solution of the eigenvalue problem:
     a serial algorithm will be used

     Using Slab Decomposition

     bravais-lattice index     =            0
     lattice parameter (alat)  =      20.0195  a.u.
     unit-cell volume          =    3813.8914 (a.u.)^3
     number of atoms/cell      =           36
     number of atomic types    =            2
     number of electrons       =       324.00
     number of Kohn-Sham states=          162
     kinetic-energy cutoff     =      50.0000  Ry
     charge density cutoff     =     400.0000  Ry
     scf convergence threshold =      1.0E-08
     mixing beta               =       0.3000
     number of iterations used =            8  plain     mixing
     Exchange-correlation= PBE
                           (   1   4   3   4   0   0   0)

     celldm(1)=  20.019487  celldm(2)=   0.000000  celldm(3)=   0.000000
     celldm(4)=   0.000000  celldm(5)=   0.000000  celldm(6)=   0.000000

     crystal axes: (cart. coord. in units of alat)
               a(1) = (   1.000000   0.000000   0.000000 )
               a(2) = (  -0.500000   0.866025   0.000000 )
               a(3) = (   0.000000   0.000000   0.548882 )

     reciprocal axes: (cart. coord. in units 2 pi/alat)
               b(1) = (  1.000000  0.577350 -0.000000 )
               b(2) = (  0.000000  1.154701  0.000000 )
               b(3) = (  0.000000 -0.000000  1.821886 )

     PseudoPot. # 1 for Zn read from file:
     /home/jvc/QEspresso7.2/ZnO_database/pseudos/Zn.upf
     MD5 check sum: 7f56cabf9682ed8c977c2f7d0c5985c5
     Pseudo is Ultrasoft + core correction, Zval = 12.0
     Generated using &quot;atomic&quot; code by A. Dal Corso  v.6.2.2
     Using radial grid of 1201 points,  6 beta functions with:
                l(1) =   0
                l(2) =   0
                l(3) =   1
                l(4) =   1
                l(5) =   2
                l(6) =   2
     Q(r) pseudized with 0 coefficients

     PseudoPot. # 2 for O  read from file:
     /home/jvc/QEspresso7.2/ZnO_database/pseudos/O.upf
     MD5 check sum: 91400c9766925bcf19f520983a725ff0
     Pseudo is Ultrasoft + core correction, Zval =  6.0
     Generated using &quot;atomic&quot; code by A. Dal Corso  v.6.3MaX
     Using radial grid of 1095 points,  4 beta functions with:
                l(1) =   0
                l(2) =   0
                l(3) =   1
                l(4) =   1
     Q(r) pseudized with 0 coefficients

     atomic species   valence    mass     pseudopotential
        Zn            12.00    65.38000     Zn( 1.00)
        O              6.00    15.99900     O ( 1.00)

      6 Sym. Ops. (no inversion) found

                                    s                        frac. trans.

      isym =  1     identity

 cryst.   s( 1) = (     1          0          0      )
                  (     0          1          0      )
                  (     0          0          1      )

 cart.    s( 1) = (  1.0000000  0.0000000  0.0000000 )
                  (  0.0000000  1.0000000  0.0000000 )
                  (  0.0000000  0.0000000  1.0000000 )

      isym =  2     120 deg rotation - cryst. axis [0,0,1]

[...]

      isym =  3     120 deg rotation - cryst. axis [0,0,-1]

[...]

      isym =  4     inv. 180 deg rotation - cart. axis [1,0,0]

[...]

      isym =  5     inv. 180 deg rotation - cryst. axis [0,1,0]

[...]

      isym =  6     inv. 180 deg rotation - cryst. axis [1,1,0]

 cryst.   s( 6) = (     0         -1          0      )
                  (    -1          0          0      )
                  (     0          0          1      )

 cart.    s( 6) = (  0.5000000 -0.8660254  0.0000000 )
                  ( -0.8660254 -0.5000000  0.0000000 )
                  (  0.0000000  0.0000000  1.0000000 )

   Cartesian axes

     site n.     atom                  positions (alat units)
         1           Zn  tau(   1) = (   0.1666667   0.0962250   0.2747887  )
         2           Zn  tau(   2) = (   0.0000000   0.1924501   0.0003478  )
         3           O   tau(   3) = (   0.1666667   0.0962250   0.4828384  )
         4           O   tau(   4) = (   0.0000000   0.1924501   0.2083975  )
         5           Zn  tau(   5) = (   0.0000000   0.3849002   0.2747887  )
         6           Zn  tau(   6) = (  -0.1666667   0.4811252   0.0003478  )
         7           O   tau(   7) = (   0.0000000   0.3849002   0.4828384  )
         8           O   tau(   8) = (  -0.1666667   0.4811252   0.2083975  )
         9           Zn  tau(   9) = (  -0.1666667   0.6735753   0.2747887  )
        10           Zn  tau(  10) = (  -0.3333333   0.7698004   0.0003478  )
        11           O   tau(  11) = (  -0.1666667   0.6735753   0.4828384  )
        12           O   tau(  12) = (  -0.3333333   0.7698004   0.2083975  )
        13           Zn  tau(  13) = (   0.5000000   0.0962250   0.2747887  )
        14           Zn  tau(  14) = (   0.3333333   0.1924501   0.0003478  )
        15           O   tau(  15) = (   0.5000000   0.0962250   0.4828384  )
        16           O   tau(  16) = (   0.3333333   0.1924501   0.2083975  )
        17           Zn  tau(  17) = (   0.3333333   0.3849002   0.2747887  )
        18           Zn  tau(  18) = (   0.1666667   0.4811252   0.0003478  )
        19           O   tau(  19) = (   0.3333333   0.3849002   0.4828384  )
        20           O   tau(  20) = (   0.1666667   0.4811252   0.2083975  )
        21           Zn  tau(  21) = (   0.1666667   0.6735753   0.2747887  )
        22           Zn  tau(  22) = (  -0.0000000   0.7698004   0.0003478  )
        23           O   tau(  23) = (   0.1666667   0.6735753   0.4828384  )
        24           O   tau(  24) = (  -0.0000000   0.7698004   0.2083975  )
        25           Zn  tau(  25) = (   0.8333333   0.0962250   0.2747887  )
        26           Zn  tau(  26) = (   0.6666667   0.1924501   0.0003478  )
        27           O   tau(  27) = (   0.8333333   0.0962250   0.4828384  )
        28           O   tau(  28) = (   0.6666667   0.1924501   0.2083975  )
        29           Zn  tau(  29) = (   0.6666667   0.3849002   0.2747887  )
        30           Zn  tau(  30) = (   0.5000000   0.4811252   0.0003478  )
        31           O   tau(  31) = (   0.6666667   0.3849002   0.4828384  )
        32           O   tau(  32) = (   0.5000000   0.4811252   0.2083975  )
        33           Zn  tau(  33) = (   0.5000000   0.6735753   0.2747887  )
        34           Zn  tau(  34) = (   0.3333333   0.7698004   0.0003478  )
        35           O   tau(  35) = (   0.5000000   0.6735753   0.4828384  )
        36           O   tau(  36) = (   0.3333333   0.7698004   0.2083975  )

   Crystallographic axes

     site n.     atom                  positions (cryst. coord.)
         1           Zn  tau(   1) = (  0.2222222  0.1111111  0.5006336  )
         2           Zn  tau(   2) = (  0.1111111  0.2222222  0.0006336  )
         3           O   tau(   3) = (  0.2222222  0.1111111  0.8796764  )
         4           O   tau(   4) = (  0.1111111  0.2222222  0.3796764  )
         5           Zn  tau(   5) = (  0.2222222  0.4444444  0.5006336  )
         6           Zn  tau(   6) = (  0.1111111  0.5555556  0.0006336  )
         7           O   tau(   7) = (  0.2222222  0.4444444  0.8796764  )
         8           O   tau(   8) = (  0.1111111  0.5555556  0.3796764  )
         9           Zn  tau(   9) = (  0.2222222  0.7777778  0.5006336  )
        10           Zn  tau(  10) = (  0.1111111  0.8888889  0.0006336  )
        11           O   tau(  11) = (  0.2222222  0.7777778  0.8796764  )
        12           O   tau(  12) = (  0.1111111  0.8888889  0.3796764  )
        13           Zn  tau(  13) = (  0.5555556  0.1111111  0.5006336  )
        14           Zn  tau(  14) = (  0.4444444  0.2222222  0.0006336  )
        15           O   tau(  15) = (  0.5555556  0.1111111  0.8796764  )
        16           O   tau(  16) = (  0.4444444  0.2222222  0.3796764  )
        17           Zn  tau(  17) = (  0.5555556  0.4444444  0.5006336  )
        18           Zn  tau(  18) = (  0.4444444  0.5555556  0.0006336  )
        19           O   tau(  19) = (  0.5555556  0.4444444  0.8796764  )
        20           O   tau(  20) = (  0.4444444  0.5555556  0.3796764  )
        21           Zn  tau(  21) = (  0.5555556  0.7777778  0.5006336  )
        22           Zn  tau(  22) = (  0.4444444  0.8888889  0.0006336  )
        23           O   tau(  23) = (  0.5555556  0.7777778  0.8796764  )
        24           O   tau(  24) = (  0.4444444  0.8888889  0.3796764  )
        25           Zn  tau(  25) = (  0.8888889  0.1111111  0.5006336  )
        26           Zn  tau(  26) = (  0.7777778  0.2222222  0.0006336  )
        27           O   tau(  27) = (  0.8888889  0.1111111  0.8796764  )
        28           O   tau(  28) = (  0.7777778  0.2222222  0.3796764  )
        29           Zn  tau(  29) = (  0.8888889  0.4444444  0.5006336  )
        30           Zn  tau(  30) = (  0.7777778  0.5555556  0.0006336  )
        31           O   tau(  31) = (  0.8888889  0.4444444  0.8796764  )
        32           O   tau(  32) = (  0.7777778  0.5555556  0.3796764  )
        33           Zn  tau(  33) = (  0.8888889  0.7777778  0.5006336  )
        34           Zn  tau(  34) = (  0.7777778  0.8888889  0.0006336  )
        35           O   tau(  35) = (  0.8888889  0.7777778  0.8796764  )
        36           O   tau(  36) = (  0.7777778  0.8888889  0.3796764  )

     number of k points=    34
                       cart. coord. in units 2pi/alat
        k(    1) = (   0.0000000   0.0000000   0.0000000), wk =   0.0092593
        k(    2) = (   0.0000000   0.0000000   0.3036476), wk =   0.0185185
        k(    3) = (   0.0000000   0.0000000   0.6072952), wk =   0.0185185
        k(    4) = (   0.0000000   0.0000000  -0.9109429), wk =   0.0092593
        k(    5) = (   0.0000000   0.1924501   0.0000000), wk =   0.0555556
        k(    6) = (   0.0000000   0.1924501   0.3036476), wk =   0.0555556
        k(    7) = (   0.0000000   0.1924501   0.6072952), wk =   0.0555556
        k(    8) = (   0.0000000   0.1924501  -0.9109429), wk =   0.0555556
        k(    9) = (   0.0000000   0.3849002   0.0000000), wk =   0.0555556
[...]
     atom   32 type  2   force =     0.00000000   -0.00000000   -0.39869711
     atom   33 type  1   force =    -0.00000000   -0.00000001    0.39869711
     atom   34 type  1   force =    -0.00000001   -0.00000001    0.39869711
     atom   35 type  2   force =    -0.00000000   -0.00000001   -0.39869711
     atom   36 type  2   force =    -0.00000000   -0.00000000   -0.39869711
     The local contribution  to forces
     atom    1 type  1   force =    -0.00000134   -0.00000077   -0.44184056
     atom    2 type  1   force =    -0.00000000   -0.00001675   -0.44183526
     atom    3 type  2   force =    -0.00000145   -0.00000084    0.34312977
     atom    4 type  2   force =    -0.00000000   -0.00000091    0.34312691
     atom    5 type  1   force =    -0.00000000   -0.00000824   -0.44185286
     atom    6 type  1   force =    -0.00001661   -0.00000975   -0.44182548
     atom    7 type  2   force =    -0.00000000   -0.00000287    0.34312907
     atom    8 type  2   force =    -0.00000231   -0.00000138    0.34312529
     atom    9 type  1   force =    -0.00000714    0.00000412   -0.44185286
     atom   10 type  1   force =    -0.00001451    0.00000838   -0.44183526
     atom   11 type  2   force =    -0.00000248    0.00000143    0.34312907
     atom   12 type  2   force =    -0.00000079    0.00000045    0.34312691
     atom   13 type  1   force =    -0.00000014    0.00000774   -0.44184397
     atom   14 type  1   force =     0.00000316    0.00000182   -0.44183781
     atom   15 type  2   force =    -0.00000004    0.00000186    0.34313058
     atom   16 type  2   force =     0.00000155    0.00000090    0.34312782
     atom   17 type  1   force =     0.00000649   -0.00000375   -0.44184397
     atom   18 type  1   force =     0.00001689   -0.00000975   -0.44182548
     atom   19 type  2   force =     0.00000156   -0.00000090    0.34313058
     atom   20 type  2   force =     0.00000238   -0.00000138    0.34312529
     atom   21 type  1   force =     0.00000714    0.00000412   -0.44185286
     atom   22 type  1   force =     0.00000014    0.00001926   -0.44182548
     atom   23 type  2   force =     0.00000248    0.00000143    0.34312907
     atom   24 type  2   force =     0.00000004    0.00000269    0.34312529
     atom   25 type  1   force =     0.00000134   -0.00000077   -0.44184056
     atom   26 type  1   force =    -0.00000316    0.00000182   -0.44183781
     atom   27 type  2   force =     0.00000145   -0.00000084    0.34312977
     atom   28 type  2   force =    -0.00000155    0.00000090    0.34312782
     atom   29 type  1   force =    -0.00000677   -0.00000375   -0.44184397
     atom   30 type  1   force =     0.00000000   -0.00000365   -0.44183781
     atom   31 type  2   force =    -0.00000163   -0.00000090    0.34313058
     atom   32 type  2   force =     0.00000000   -0.00000179    0.34312782
     atom   33 type  1   force =     0.00000000    0.00000154   -0.44184056
     atom   34 type  1   force =     0.00001451    0.00000838   -0.44183526
     atom   35 type  2   force =     0.00000000    0.00000167    0.34312977
     atom   36 type  2   force =     0.00000079    0.00000045    0.34312691
     The core correction contribution to forces
     atom    1 type  1   force =    -0.00000008   -0.00000005   -0.00258534
     atom    2 type  1   force =    -0.00000000    0.00000038   -0.00258539
     atom    3 type  2   force =     0.00000000    0.00000000   -0.00053467
     atom    4 type  2   force =    -0.00000000    0.00000003   -0.00053467
     atom    5 type  1   force =     0.00000000   -0.00000006   -0.00258501
     atom    6 type  1   force =     0.00000032    0.00000016   -0.00258553
     atom    7 type  2   force =    -0.00000000    0.00000002   -0.00053469
     atom    8 type  2   force =     0.00000006    0.00000003   -0.00053468
     atom    9 type  1   force =    -0.00000005    0.00000003   -0.00258501
     atom   10 type  1   force =     0.00000033   -0.00000019   -0.00258539
     atom   11 type  2   force =     0.00000001   -0.00000001   -0.00053469
     atom   12 type  2   force =     0.00000003   -0.00000001   -0.00053467
     atom   13 type  1   force =    -0.00000002   -0.00000003   -0.00258533
     atom   14 type  1   force =     0.00000004    0.00000002   -0.00258537
     atom   15 type  2   force =     0.00000000   -0.00000001   -0.00053468
     atom   16 type  2   force =    -0.00000004   -0.00000002   -0.00053466
     atom   17 type  1   force =    -0.00000005    0.00000003   -0.00258533
     atom   18 type  1   force =    -0.00000028    0.00000016   -0.00258553
     atom   19 type  2   force =    -0.00000001    0.00000001   -0.00053468
     atom   20 type  2   force =    -0.00000006    0.00000003   -0.00053468
     atom   21 type  1   force =     0.00000005    0.00000003   -0.00258501
     atom   22 type  1   force =     0.00000002   -0.00000036   -0.00258553
     atom   23 type  2   force =    -0.00000001   -0.00000001   -0.00053469
     atom   24 type  2   force =    -0.00000000   -0.00000007   -0.00053468
     atom   25 type  1   force =     0.00000008   -0.00000005   -0.00258534
     atom   26 type  1   force =    -0.00000004    0.00000002   -0.00258537
     atom   27 type  2   force =    -0.00000000    0.00000000   -0.00053467
     atom   28 type  2   force =     0.00000004   -0.00000002   -0.00053466
     atom   29 type  1   force =     0.00000001    0.00000003   -0.00258533
     atom   30 type  1   force =     0.00000000   -0.00000005   -0.00258537
     atom   31 type  2   force =     0.00000001    0.00000001   -0.00053468
     atom   32 type  2   force =     0.00000000    0.00000005   -0.00053466
     atom   33 type  1   force =     0.00000000    0.00000010   -0.00258534
     atom   34 type  1   force =    -0.00000033   -0.00000019   -0.00258539
     atom   35 type  2   force =     0.00000000   -0.00000001   -0.00053467
     atom   36 type  2   force =    -0.00000003   -0.00000001   -0.00053467
     The Hubbard contrib.    to forces
     atom    1 type  1   force =     0.00000000    0.00000000    0.00000000
     atom    2 type  1   force =     0.00000000    0.00000000    0.00000000
     atom    3 type  2   force =     0.00000000    0.00000000    0.00000000
     atom    4 type  2   force =     0.00000000    0.00000000    0.00000000
     atom    5 type  1   force =     0.00000000    0.00000000    0.00000000
     atom    6 type  1   force =     0.00000000    0.00000000    0.00000000
     atom    7 type  2   force =     0.00000000    0.00000000    0.00000000
     atom    8 type  2   force =     0.00000000    0.00000000    0.00000000
     atom    9 type  1   force =     0.00000000    0.00000000    0.00000000
     atom   10 type  1   force =     0.00000000    0.00000000    0.00000000
     atom   11 type  2   force =     0.00000000    0.00000000    0.00000000
     atom   12 type  2   force =     0.00000000    0.00000000    0.00000000
     atom   13 type  1   force =     0.00000000    0.00000000    0.00000000
     atom   14 type  1   force =     0.00000000    0.00000000    0.00000000
     atom   15 type  2   force =     0.00000000    0.00000000    0.00000000
     atom   16 type  2   force =     0.00000000    0.00000000    0.00000000
     atom   17 type  1   force =     0.00000000    0.00000000    0.00000000
     atom   18 type  1   force =     0.00000000    0.00000000    0.00000000
     atom   19 type  2   force =     0.00000000    0.00000000    0.00000000
     atom   20 type  2   force =     0.00000000    0.00000000    0.00000000
     atom   21 type  1   force =     0.00000000    0.00000000    0.00000000
     atom   22 type  1   force =     0.00000000    0.00000000    0.00000000
     atom   23 type  2   force =     0.00000000    0.00000000    0.00000000
     atom   24 type  2   force =     0.00000000    0.00000000    0.00000000
     atom   25 type  1   force =     0.00000000    0.00000000    0.00000000
     atom   26 type  1   force =     0.00000000    0.00000000    0.00000000
     atom   27 type  2   force =     0.00000000    0.00000000    0.00000000
     atom   28 type  2   force =     0.00000000    0.00000000    0.00000000
     atom   29 type  1   force =     0.00000000    0.00000000    0.00000000
     atom   30 type  1   force =     0.00000000    0.00000000    0.00000000
     atom   31 type  2   force =     0.00000000    0.00000000    0.00000000
     atom   32 type  2   force =     0.00000000    0.00000000    0.00000000
     atom   33 type  1   force =     0.00000000    0.00000000    0.00000000
     atom   34 type  1   force =     0.00000000    0.00000000    0.00000000
     atom   35 type  2   force =     0.00000000    0.00000000    0.00000000
     atom   36 type  2   force =     0.00000000    0.00000000    0.00000000
     The SCF correction term to forces
     atom    1 type  1   force =     0.00000048    0.00000028   -0.00000012
     atom    2 type  1   force =    -0.00000000    0.00001932   -0.00000549
     atom    3 type  2   force =     0.00000083    0.00000048   -0.00000106
     atom    4 type  2   force =    -0.00000000    0.00000249    0.00000051
     atom    5 type  1   force =    -0.00000000    0.00000712    0.00001381
     atom    6 type  1   force =     0.00001780    0.00001027   -0.00001482
     atom    7 type  2   force =     0.00000000    0.00000440   -0.00000144
     atom    8 type  2   force =     0.00000347    0.00000200    0.00000143
     atom    9 type  1   force =     0.00000616   -0.00000356    0.00001381
     atom   10 type  1   force =     0.00001673   -0.00000966   -0.00000549
     atom   11 type  2   force =     0.00000381   -0.00000220   -0.00000144
     atom   12 type  2   force =     0.00000216   -0.00000124    0.00000051
     atom   13 type  1   force =     0.00000000   -0.00000761    0.00000303
     atom   14 type  1   force =    -0.00000279   -0.00000161   -0.00000253
     atom   15 type  2   force =    -0.00000000   -0.00000415   -0.00000150
     atom   16 type  2   force =    -0.00000166   -0.00000096    0.00000006
     atom   17 type  1   force =    -0.00000659    0.00000380    0.00000303
     atom   18 type  1   force =    -0.00001780    0.00001027   -0.00001482
     atom   19 type  2   force =    -0.00000360    0.00000208   -0.00000150
     atom   20 type  2   force =    -0.00000347    0.00000200    0.00000143
     atom   21 type  1   force =    -0.00000616   -0.00000356    0.00001381
     atom   22 type  1   force =    -0.00000000   -0.00002055   -0.00001482
     atom   23 type  2   force =    -0.00000381   -0.00000220   -0.00000144
     atom   24 type  2   force =     0.00000000   -0.00000400    0.00000143
     atom   25 type  1   force =    -0.00000048    0.00000028   -0.00000012
     atom   26 type  1   force =     0.00000279   -0.00000161   -0.00000253
     atom   27 type  2   force =    -0.00000083    0.00000048   -0.00000106
     atom   28 type  2   force =     0.00000166   -0.00000096    0.00000006
     atom   29 type  1   force =     0.00000659    0.00000380    0.00000303
     atom   30 type  1   force =     0.00000000    0.00000322   -0.00000253
     atom   31 type  2   force =     0.00000360    0.00000208   -0.00000150
     atom   32 type  2   force =    -0.00000000    0.00000191    0.00000006
     atom   33 type  1   force =     0.00000000   -0.00000055   -0.00000012
     atom   34 type  1   force =    -0.00001673   -0.00000966   -0.00000549
     atom   35 type  2   force =     0.00000000   -0.00000096   -0.00000106
     atom   36 type  2   force =    -0.00000216   -0.00000124    0.00000051

     Total force =     0.008990     Total SCF correction =     0.000066

     General routines

     Parallel routines

   This run was terminated on:  15:38:49  27Aug2025

   JOB DONE.
Note: The following floating-point exceptions are signalling: IEEE_INVALID_FLAG
Note: The following floating-point exceptions are signalling: IEEE_INVALID_FLAG
Note: The following floating-point exceptions are signalling: IEEE_INVALID_FLAG
Note: The following floating-point exceptions are signalling: IEEE_INVALID_FLAG
Note: The following floating-point exceptions are signalling: IEEE_INVALID_FLAG
Note: The following floating-point exceptions are signalling: IEEE_INVALID_FLAG
Note: The following floating-point exceptions are signalling: IEEE_INVALID_FLAG
Note: The following floating-point exceptions are signalling: IEEE_INVALID_FLAG
Note: The following floating-point exceptions are signalling: IEEE_INVALID_FLAG
Note: The following floating-point exceptions are signalling: IEEE_INVALID_FLAG
Note: The following floating-point exceptions are signalling: IEEE_INVALID_FLAG
Note: The following floating-point exceptions are signalling: IEEE_INVALID_FLAG
Note: The following floating-point exceptions are signalling: IEEE_INVALID_FLAG
Note: The following floating-point exceptions are signalling: IEEE_INVALID_FLAG
Note: The following floating-point exceptions are signalling: IEEE_INVALID_FLAG
Note: The following floating-point exceptions are signalling: IEEE_INVALID_FLAG
Note: The following floating-point exceptions are signalling: IEEE_INVALID_FLAG
Note: The following floating-point exceptions are signalling: IEEE_INVALID_FLAG
Note: The following floating-point exceptions are signalling: IEEE_INVALID_FLAG
Note: The following floating-point exceptions are signalling: IEEE_INVALID_FLAG
Note: The following floating-point exceptions are signalling: IEEE_INVALID_FLAG
Note: The following floating-point exceptions are signalling: IEEE_INVALID_FLAG
Note: The following floating-point exceptions are signalling: IEEE_INVALID_FLAG
Note: The following floating-point exceptions are signalling: IEEE_INVALID_FLAG
Note: The following floating-point exceptions are signalling: IEEE_INVALID_FLAG
Note: The following floating-point exceptions are signalling: IEEE_INVALID_FLAG
Note: The following floating-point exceptions are signalling: IEEE_INVALID_FLAG
Note: The following floating-point exceptions are signalling: IEEE_INVALID_FLAG
Note: The following floating-point exceptions are signalling: IEEE_INVALID_FLAG
Note: The following floating-point exceptions are signalling: IEEE_INVALID_FLAG
Note: The following floating-point exceptions are signalling: IEEE_INVALID_FLAG
Note: The following floating-point exceptions are signalling: IEEE_INVALID_FLAG
Note: The following floating-point exceptions are signalling: IEEE_INVALID_FLAG
Note: The following floating-point exceptions are signalling: IEEE_INVALID_FLAG
Note: The following floating-point exceptions are signalling: IEEE_INVALID_FLAG
Note: The following floating-point exceptions are signalling: IEEE_INVALID_FLAG
Note: The following floating-point exceptions are signalling: IEEE_INVALID_FLAG
Note: The following floating-point exceptions are signalling: IEEE_INVALID_FLAG
Note: The following floating-point exceptions are signalling: IEEE_INVALID_FLAG
Note: The following floating-point exceptions are signalling: IEEE_INVALID_FLAG
Note: The following floating-point exceptions are signalling: IEEE_INVALID_FLAG
Note: The following floating-point exceptions are signalling: IEEE_INVALID_FLAG
Note: The following floating-point exceptions are signalling: IEEE_INVALID_FLAG
Note: The following floating-point exceptions are signalling: IEEE_INVALID_FLAG
Note: The following floating-point exceptions are signalling: IEEE_INVALID_FLAG
Note: The following floating-point exceptions are signalling: IEEE_INVALID_FLAG
Note: The following floating-point exceptions are signalling: IEEE_INVALID_FLAG
Note: The following floating-point exceptions are signalling: IEEE_INVALID_FLAG
Note: The following floating-point exceptions are signalling: IEEE_INVALID_FLAG
Note: The following floating-point exceptions are signalling: IEEE_INVALID_FLAG
Note: The following floating-point exceptions are signalling: IEEE_INVALID_FLAG
Note: The following floating-point exceptions are signalling: IEEE_INVALID_FLAG
Note: The following floating-point exceptions are signalling: IEEE_INVALID_FLAG
Note: The following floating-point exceptions are signalling: IEEE_INVALID_FLAG
Note: The following floating-point exceptions are signalling: IEEE_INVALID_FLAG
Note: The following floating-point exceptions are signalling: IEEE_INVALID_FLAG
Note: The following floating-point exceptions are signalling: IEEE_INVALID_FLAG
Note: The following floating-point exceptions are signalling: IEEE_INVALID_FLAG
Note: The following floating-point exceptions are signalling: IEEE_INVALID_FLAG
Note: The following floating-point exceptions are signalling: IEEE_INVALID_FLAG
Note: The following floating-point exceptions are signalling: IEEE_INVALID_FLAG
Note: The following floating-point exceptions are signalling: IEEE_INVALID_FLAG
Note: The following floating-point exceptions are signalling: IEEE_INVALID_FLAG
Note: The following floating-point exceptions are signalling: IEEE_INVALID_FLAG