     Program PWSCF v.7.2 starts on 25Aug2025 at 22:27:14

     Reading input from /home/jvc/QEspresso7.2/ZnO_database/scripts/cell331.in/ZnO-3.27-1.68-331.in
Warning: card &CELL ignored
Warning: card / ignored
Warning: card &FCP ignored
Warning: card / ignored
Warning: card &RISM ignored
Warning: card / ignored

     Current dimensions of program PWSCF are:
     Max number of different atomic species (ntypx) = 10
     Max number of k-points (npk) =  40000
     Max angular momentum in pseudopotentials (lmaxx) =  4
     file Zn.upf: wavefunction(s)  3D renormalized
     Found identity + ( -0.0000  0.3333  0.0000) symmetry
     This is a supercell, fractional translations are disabled
     Message from routine setup:
     using ibrav=0 with symmetry is DISCOURAGED, use correct ibrav instead

     K-points division:     npool     =      16
     band groups division:  nbgrp     =       4
     Subspace diagonalization in iterative solution of the eigenvalue problem:
     a serial algorithm will be used

     Using Slab Decomposition

     bravais-lattice index     =            0
     lattice parameter (alat)  =      18.5366  a.u.
     unit-cell volume          =    3086.9545 (a.u.)^3
     number of atoms/cell      =           36
     number of atomic types    =            2
     number of electrons       =       324.00
     number of Kohn-Sham states=          162
     kinetic-energy cutoff     =      50.0000  Ry
     charge density cutoff     =     400.0000  Ry
     scf convergence threshold =      1.0E-08
     mixing beta               =       0.3000
     number of iterations used =            8  plain     mixing
     Exchange-correlation= PBE
                           (   1   4   3   4   0   0   0)

     celldm(1)=  18.536562  celldm(2)=   0.000000  celldm(3)=   0.000000
     celldm(4)=   0.000000  celldm(5)=   0.000000  celldm(6)=   0.000000

     crystal axes: (cart. coord. in units of alat)
               a(1) = (   1.000000   0.000000   0.000000 )
               a(2) = (  -0.500000   0.866025   0.000000 )
               a(3) = (   0.000000   0.000000   0.559644 )

     reciprocal axes: (cart. coord. in units 2 pi/alat)
               b(1) = (  1.000000  0.577350 -0.000000 )
               b(2) = (  0.000000  1.154701  0.000000 )
               b(3) = (  0.000000 -0.000000  1.786849 )

     PseudoPot. # 1 for Zn read from file:
     /home/jvc/QEspresso7.2/ZnO_database/pseudos/Zn.upf
     MD5 check sum: 7f56cabf9682ed8c977c2f7d0c5985c5
     Pseudo is Ultrasoft + core correction, Zval = 12.0
     Generated using &quot;atomic&quot; code by A. Dal Corso  v.6.2.2
     Using radial grid of 1201 points,  6 beta functions with:
                l(1) =   0
                l(2) =   0
                l(3) =   1
                l(4) =   1
                l(5) =   2
                l(6) =   2
     Q(r) pseudized with 0 coefficients

     PseudoPot. # 2 for O  read from file:
     /home/jvc/QEspresso7.2/ZnO_database/pseudos/O.upf
     MD5 check sum: 91400c9766925bcf19f520983a725ff0
     Pseudo is Ultrasoft + core correction, Zval =  6.0
     Generated using &quot;atomic&quot; code by A. Dal Corso  v.6.3MaX
     Using radial grid of 1095 points,  4 beta functions with:
                l(1) =   0
                l(2) =   0
                l(3) =   1
                l(4) =   1
     Q(r) pseudized with 0 coefficients

     atomic species   valence    mass     pseudopotential
        Zn            12.00    65.38000     Zn( 1.00)
        O              6.00    15.99900     O ( 1.00)

      6 Sym. Ops. (no inversion) found

                                    s                        frac. trans.

      isym =  1     identity

 cryst.   s( 1) = (     1          0          0      )
                  (     0          1          0      )
                  (     0          0          1      )

 cart.    s( 1) = (  1.0000000  0.0000000  0.0000000 )
                  (  0.0000000  1.0000000  0.0000000 )
                  (  0.0000000  0.0000000  1.0000000 )

      isym =  2     120 deg rotation - cryst. axis [0,0,1]

[...]

      isym =  3     120 deg rotation - cryst. axis [0,0,-1]

[...]

      isym =  4     inv. 180 deg rotation - cart. axis [1,0,0]

[...]

      isym =  5     inv. 180 deg rotation - cryst. axis [0,1,0]

[...]

      isym =  6     inv. 180 deg rotation - cryst. axis [1,1,0]

 cryst.   s( 6) = (     0         -1          0      )
                  (    -1          0          0      )
                  (     0          0          1      )

 cart.    s( 6) = (  0.5000000 -0.8660254  0.0000000 )
                  ( -0.8660254 -0.5000000  0.0000000 )
                  (  0.0000000  0.0000000  1.0000000 )

   Cartesian axes

     site n.     atom                  positions (alat units)
         1           Zn  tau(   1) = (   0.1666667   0.0962250   0.2801767  )
         2           Zn  tau(   2) = (   0.0000000   0.1924501   0.0003546  )
         3           O   tau(   3) = (   0.1666667   0.0962250   0.4923058  )
         4           O   tau(   4) = (   0.0000000   0.1924501   0.2124837  )
         5           Zn  tau(   5) = (   0.0000000   0.3849002   0.2801767  )
         6           Zn  tau(   6) = (  -0.1666667   0.4811252   0.0003546  )
         7           O   tau(   7) = (   0.0000000   0.3849002   0.4923058  )
         8           O   tau(   8) = (  -0.1666667   0.4811252   0.2124837  )
         9           Zn  tau(   9) = (  -0.1666667   0.6735753   0.2801767  )
        10           Zn  tau(  10) = (  -0.3333333   0.7698004   0.0003546  )
        11           O   tau(  11) = (  -0.1666667   0.6735753   0.4923058  )
        12           O   tau(  12) = (  -0.3333333   0.7698004   0.2124837  )
        13           Zn  tau(  13) = (   0.5000000   0.0962250   0.2801767  )
        14           Zn  tau(  14) = (   0.3333333   0.1924501   0.0003546  )
        15           O   tau(  15) = (   0.5000000   0.0962250   0.4923058  )
        16           O   tau(  16) = (   0.3333333   0.1924501   0.2124837  )
        17           Zn  tau(  17) = (   0.3333333   0.3849002   0.2801767  )
        18           Zn  tau(  18) = (   0.1666667   0.4811252   0.0003546  )
        19           O   tau(  19) = (   0.3333333   0.3849002   0.4923058  )
        20           O   tau(  20) = (   0.1666667   0.4811252   0.2124837  )
        21           Zn  tau(  21) = (   0.1666667   0.6735753   0.2801767  )
        22           Zn  tau(  22) = (  -0.0000000   0.7698004   0.0003546  )
        23           O   tau(  23) = (   0.1666667   0.6735753   0.4923058  )
        24           O   tau(  24) = (  -0.0000000   0.7698004   0.2124837  )
        25           Zn  tau(  25) = (   0.8333333   0.0962250   0.2801767  )
        26           Zn  tau(  26) = (   0.6666667   0.1924501   0.0003546  )
        27           O   tau(  27) = (   0.8333333   0.0962250   0.4923058  )
        28           O   tau(  28) = (   0.6666667   0.1924501   0.2124837  )
        29           Zn  tau(  29) = (   0.6666667   0.3849002   0.2801767  )
        30           Zn  tau(  30) = (   0.5000000   0.4811252   0.0003546  )
        31           O   tau(  31) = (   0.6666667   0.3849002   0.4923058  )
        32           O   tau(  32) = (   0.5000000   0.4811252   0.2124837  )
        33           Zn  tau(  33) = (   0.5000000   0.6735753   0.2801767  )
        34           Zn  tau(  34) = (   0.3333333   0.7698004   0.0003546  )
        35           O   tau(  35) = (   0.5000000   0.6735753   0.4923058  )
        36           O   tau(  36) = (   0.3333333   0.7698004   0.2124837  )

   Crystallographic axes

     site n.     atom                  positions (cryst. coord.)
         1           Zn  tau(   1) = (  0.2222222  0.1111111  0.5006336  )
         2           Zn  tau(   2) = (  0.1111111  0.2222222  0.0006336  )
         3           O   tau(   3) = (  0.2222222  0.1111111  0.8796764  )
         4           O   tau(   4) = (  0.1111111  0.2222222  0.3796764  )
         5           Zn  tau(   5) = (  0.2222222  0.4444444  0.5006336  )
         6           Zn  tau(   6) = (  0.1111111  0.5555556  0.0006336  )
         7           O   tau(   7) = (  0.2222222  0.4444444  0.8796764  )
         8           O   tau(   8) = (  0.1111111  0.5555556  0.3796764  )
         9           Zn  tau(   9) = (  0.2222222  0.7777778  0.5006336  )
        10           Zn  tau(  10) = (  0.1111111  0.8888889  0.0006336  )
        11           O   tau(  11) = (  0.2222222  0.7777778  0.8796764  )
        12           O   tau(  12) = (  0.1111111  0.8888889  0.3796764  )
        13           Zn  tau(  13) = (  0.5555556  0.1111111  0.5006336  )
        14           Zn  tau(  14) = (  0.4444444  0.2222222  0.0006336  )
        15           O   tau(  15) = (  0.5555556  0.1111111  0.8796764  )
        16           O   tau(  16) = (  0.4444444  0.2222222  0.3796764  )
        17           Zn  tau(  17) = (  0.5555556  0.4444444  0.5006336  )
        18           Zn  tau(  18) = (  0.4444444  0.5555556  0.0006336  )
        19           O   tau(  19) = (  0.5555556  0.4444444  0.8796764  )
        20           O   tau(  20) = (  0.4444444  0.5555556  0.3796764  )
        21           Zn  tau(  21) = (  0.5555556  0.7777778  0.5006336  )
        22           Zn  tau(  22) = (  0.4444444  0.8888889  0.0006336  )
        23           O   tau(  23) = (  0.5555556  0.7777778  0.8796764  )
        24           O   tau(  24) = (  0.4444444  0.8888889  0.3796764  )
        25           Zn  tau(  25) = (  0.8888889  0.1111111  0.5006336  )
        26           Zn  tau(  26) = (  0.7777778  0.2222222  0.0006336  )
        27           O   tau(  27) = (  0.8888889  0.1111111  0.8796764  )
        28           O   tau(  28) = (  0.7777778  0.2222222  0.3796764  )
        29           Zn  tau(  29) = (  0.8888889  0.4444444  0.5006336  )
        30           Zn  tau(  30) = (  0.7777778  0.5555556  0.0006336  )
        31           O   tau(  31) = (  0.8888889  0.4444444  0.8796764  )
        32           O   tau(  32) = (  0.7777778  0.5555556  0.3796764  )
        33           Zn  tau(  33) = (  0.8888889  0.7777778  0.5006336  )
        34           Zn  tau(  34) = (  0.7777778  0.8888889  0.0006336  )
        35           O   tau(  35) = (  0.8888889  0.7777778  0.8796764  )
        36           O   tau(  36) = (  0.7777778  0.8888889  0.3796764  )

     number of k points=    34
                       cart. coord. in units 2pi/alat
        k(    1) = (   0.0000000   0.0000000   0.0000000), wk =   0.0092593
        k(    2) = (   0.0000000   0.0000000   0.2978082), wk =   0.0185185
        k(    3) = (   0.0000000   0.0000000   0.5956165), wk =   0.0185185
        k(    4) = (   0.0000000   0.0000000  -0.8934247), wk =   0.0092593
        k(    5) = (   0.0000000   0.1924501   0.0000000), wk =   0.0555556
        k(    6) = (   0.0000000   0.1924501   0.2978082), wk =   0.0555556
        k(    7) = (   0.0000000   0.1924501   0.5956165), wk =   0.0555556
        k(    8) = (   0.0000000   0.1924501  -0.8934247), wk =   0.0555556
        k(    9) = (   0.0000000   0.3849002   0.0000000), wk =   0.0555556
[...]
     atom   32 type  2   force =     0.00000000   -0.00000001   -0.85008146
     atom   33 type  1   force =    -0.00000000   -0.00000001    0.85008146
     atom   34 type  1   force =    -0.00000001   -0.00000001    0.85008146
     atom   35 type  2   force =    -0.00000000   -0.00000001   -0.85008146
     atom   36 type  2   force =    -0.00000000   -0.00000001   -0.85008146
     The local contribution  to forces
     atom    1 type  1   force =     0.00000070    0.00000040   -0.93865217
     atom    2 type  1   force =    -0.00000000   -0.00000059   -0.93865920
     atom    3 type  2   force =    -0.00000287   -0.00000166    0.74047478
     atom    4 type  2   force =    -0.00000000    0.00000060    0.74047223
     atom    5 type  1   force =    -0.00000000    0.00000908   -0.93865179
     atom    6 type  1   force =     0.00000196    0.00000098   -0.93865952
     atom    7 type  2   force =    -0.00000000   -0.00000014    0.74047190
     atom    8 type  2   force =     0.00000025    0.00000011    0.74047313
     atom    9 type  1   force =     0.00000787   -0.00000454   -0.93865179
     atom   10 type  1   force =    -0.00000051    0.00000029   -0.93865920
     atom   11 type  2   force =    -0.00000012    0.00000007    0.74047190
     atom   12 type  2   force =     0.00000052   -0.00000030    0.74047223
     atom   13 type  1   force =    -0.00000013   -0.00001716   -0.93864974
     atom   14 type  1   force =    -0.00001004   -0.00000580   -0.93865420
     atom   15 type  2   force =    -0.00000003   -0.00000912    0.74047289
     atom   16 type  2   force =    -0.00000660   -0.00000381    0.74047209
     atom   17 type  1   force =    -0.00001506    0.00000869   -0.93864974
     atom   18 type  1   force =    -0.00000170    0.00000098   -0.93865952
     atom   19 type  2   force =    -0.00000795    0.00000459    0.74047289
     atom   20 type  2   force =    -0.00000018    0.00000011    0.74047313
     atom   21 type  1   force =    -0.00000787   -0.00000454   -0.93865179
     atom   22 type  1   force =     0.00000013   -0.00000219   -0.93865952
     atom   23 type  2   force =     0.00000012    0.00000007    0.74047190
     atom   24 type  2   force =     0.00000003   -0.00000027    0.74047313
     atom   25 type  1   force =    -0.00000070    0.00000040   -0.93865217
     atom   26 type  1   force =     0.00001004   -0.00000580   -0.93865420
     atom   27 type  2   force =     0.00000287   -0.00000166    0.74047478
     atom   28 type  2   force =     0.00000660   -0.00000381    0.74047209
     atom   29 type  1   force =     0.00001480    0.00000869   -0.93864974
     atom   30 type  1   force =    -0.00000000    0.00001159   -0.93865420
     atom   31 type  2   force =     0.00000788    0.00000459    0.74047289
     atom   32 type  2   force =     0.00000000    0.00000762    0.74047209
     atom   33 type  1   force =    -0.00000000   -0.00000081   -0.93865217
     atom   34 type  1   force =     0.00000051    0.00000029   -0.93865920
     atom   35 type  2   force =    -0.00000000    0.00000331    0.74047478
     atom   36 type  2   force =    -0.00000052   -0.00000030    0.74047223
     The core correction contribution to forces
     atom    1 type  1   force =    -0.00000007   -0.00000004   -0.00712461
     atom    2 type  1   force =    -0.00000000   -0.00000015   -0.00712431
     atom    3 type  2   force =    -0.00000000   -0.00000000   -0.00085715
     atom    4 type  2   force =     0.00000000   -0.00000001   -0.00085715
     atom    5 type  1   force =    -0.00000000   -0.00000024   -0.00712457
     atom    6 type  1   force =    -0.00000001   -0.00000002   -0.00712456
     atom    7 type  2   force =    -0.00000000   -0.00000001   -0.00085713
     atom    8 type  2   force =    -0.00000004   -0.00000002   -0.00085716
     atom    9 type  1   force =    -0.00000021    0.00000012   -0.00712457
     atom   10 type  1   force =    -0.00000013    0.00000008   -0.00712431
     atom   11 type  2   force =    -0.00000001    0.00000000   -0.00085713
     atom   12 type  2   force =    -0.00000001    0.00000000   -0.00085715
     atom   13 type  1   force =    -0.00000002    0.00000018   -0.00712451
     atom   14 type  1   force =    -0.00000011   -0.00000007   -0.00712433
     atom   15 type  2   force =     0.00000000    0.00000001   -0.00085714
     atom   16 type  2   force =     0.00000001    0.00000001   -0.00085713
     atom   17 type  1   force =     0.00000013   -0.00000008   -0.00712451
     atom   18 type  1   force =     0.00000004   -0.00000002   -0.00712456
     atom   19 type  2   force =     0.00000001   -0.00000001   -0.00085714
     atom   20 type  2   force =     0.00000004   -0.00000002   -0.00085716
     atom   21 type  1   force =     0.00000021    0.00000012   -0.00712457
     atom   22 type  1   force =     0.00000002    0.00000002   -0.00712456
     atom   23 type  2   force =     0.00000001    0.00000000   -0.00085713
     atom   24 type  2   force =    -0.00000000    0.00000005   -0.00085716
     atom   25 type  1   force =     0.00000007   -0.00000004   -0.00712461
     atom   26 type  1   force =     0.00000011   -0.00000007   -0.00712433
     atom   27 type  2   force =     0.00000000   -0.00000000   -0.00085715
     atom   28 type  2   force =    -0.00000001    0.00000001   -0.00085713
     atom   29 type  1   force =    -0.00000017   -0.00000008   -0.00712451
     atom   30 type  1   force =     0.00000000    0.00000013   -0.00712433
     atom   31 type  2   force =    -0.00000001   -0.00000001   -0.00085714
     atom   32 type  2   force =     0.00000000   -0.00000001   -0.00085713
     atom   33 type  1   force =    -0.00000000    0.00000008   -0.00712461
     atom   34 type  1   force =     0.00000013    0.00000008   -0.00712431
     atom   35 type  2   force =    -0.00000000    0.00000000   -0.00085715
     atom   36 type  2   force =     0.00000001    0.00000000   -0.00085715
     The Hubbard contrib.    to forces
     atom    1 type  1   force =     0.00000000    0.00000000    0.00000000
     atom    2 type  1   force =     0.00000000    0.00000000    0.00000000
     atom    3 type  2   force =     0.00000000    0.00000000    0.00000000
     atom    4 type  2   force =     0.00000000    0.00000000    0.00000000
     atom    5 type  1   force =     0.00000000    0.00000000    0.00000000
     atom    6 type  1   force =     0.00000000    0.00000000    0.00000000
     atom    7 type  2   force =     0.00000000    0.00000000    0.00000000
     atom    8 type  2   force =     0.00000000    0.00000000    0.00000000
     atom    9 type  1   force =     0.00000000    0.00000000    0.00000000
     atom   10 type  1   force =     0.00000000    0.00000000    0.00000000
     atom   11 type  2   force =     0.00000000    0.00000000    0.00000000
     atom   12 type  2   force =     0.00000000    0.00000000    0.00000000
     atom   13 type  1   force =     0.00000000    0.00000000    0.00000000
     atom   14 type  1   force =     0.00000000    0.00000000    0.00000000
     atom   15 type  2   force =     0.00000000    0.00000000    0.00000000
     atom   16 type  2   force =     0.00000000    0.00000000    0.00000000
     atom   17 type  1   force =     0.00000000    0.00000000    0.00000000
     atom   18 type  1   force =     0.00000000    0.00000000    0.00000000
     atom   19 type  2   force =     0.00000000    0.00000000    0.00000000
     atom   20 type  2   force =     0.00000000    0.00000000    0.00000000
     atom   21 type  1   force =     0.00000000    0.00000000    0.00000000
     atom   22 type  1   force =     0.00000000    0.00000000    0.00000000
     atom   23 type  2   force =     0.00000000    0.00000000    0.00000000
     atom   24 type  2   force =     0.00000000    0.00000000    0.00000000
     atom   25 type  1   force =     0.00000000    0.00000000    0.00000000
     atom   26 type  1   force =     0.00000000    0.00000000    0.00000000
     atom   27 type  2   force =     0.00000000    0.00000000    0.00000000
     atom   28 type  2   force =     0.00000000    0.00000000    0.00000000
     atom   29 type  1   force =     0.00000000    0.00000000    0.00000000
     atom   30 type  1   force =     0.00000000    0.00000000    0.00000000
     atom   31 type  2   force =     0.00000000    0.00000000    0.00000000
     atom   32 type  2   force =     0.00000000    0.00000000    0.00000000
     atom   33 type  1   force =     0.00000000    0.00000000    0.00000000
     atom   34 type  1   force =     0.00000000    0.00000000    0.00000000
     atom   35 type  2   force =     0.00000000    0.00000000    0.00000000
     atom   36 type  2   force =     0.00000000    0.00000000    0.00000000
     The SCF correction term to forces
     atom    1 type  1   force =     0.00000235    0.00000136    0.00000015
     atom    2 type  1   force =     0.00000000    0.00000593    0.00000776
     atom    3 type  2   force =     0.00000386    0.00000223   -0.00000481
     atom    4 type  2   force =     0.00000000   -0.00000150   -0.00000147
     atom    5 type  1   force =     0.00000000   -0.00000882   -0.00000005
     atom    6 type  1   force =    -0.00000217   -0.00000125    0.00001038
     atom    7 type  2   force =    -0.00000000   -0.00000015    0.00000055
     atom    8 type  2   force =    -0.00000256   -0.00000148   -0.00000314
     atom    9 type  1   force =    -0.00000763    0.00000441   -0.00000005
     atom   10 type  1   force =     0.00000513   -0.00000296    0.00000776
     atom   11 type  2   force =    -0.00000013    0.00000008    0.00000055
     atom   12 type  2   force =    -0.00000129    0.00000075   -0.00000147
     atom   13 type  1   force =    -0.00000000    0.00001918   -0.00000385
     atom   14 type  1   force =     0.00001800    0.00001039   -0.00000153
     atom   15 type  2   force =    -0.00000000    0.00001218   -0.00000181
     atom   16 type  2   force =     0.00000844    0.00000487   -0.00000006
     atom   17 type  1   force =     0.00001661   -0.00000959   -0.00000385
     atom   18 type  1   force =     0.00000217   -0.00000125    0.00001038
     atom   19 type  2   force =     0.00001055   -0.00000609   -0.00000181
     atom   20 type  2   force =     0.00000256   -0.00000148   -0.00000314
     atom   21 type  1   force =     0.00000763    0.00000441   -0.00000005
     atom   22 type  1   force =     0.00000000    0.00000251    0.00001038
     atom   23 type  2   force =     0.00000013    0.00000008    0.00000055
     atom   24 type  2   force =     0.00000000    0.00000296   -0.00000314
     atom   25 type  1   force =    -0.00000235    0.00000136    0.00000015
     atom   26 type  1   force =    -0.00001800    0.00001039   -0.00000153
     atom   27 type  2   force =    -0.00000386    0.00000223   -0.00000481
     atom   28 type  2   force =    -0.00000844    0.00000487   -0.00000006
     atom   29 type  1   force =    -0.00001661   -0.00000959   -0.00000385
     atom   30 type  1   force =    -0.00000000   -0.00002078   -0.00000153
     atom   31 type  2   force =    -0.00001055   -0.00000609   -0.00000181
     atom   32 type  2   force =     0.00000000   -0.00000974   -0.00000006
     atom   33 type  1   force =    -0.00000000   -0.00000272    0.00000015
     atom   34 type  1   force =    -0.00000513   -0.00000296    0.00000776
     atom   35 type  2   force =    -0.00000000   -0.00000446   -0.00000481
     atom   36 type  2   force =     0.00000129    0.00000075   -0.00000147

     Total force =     0.044574     Total SCF correction =     0.000065

     General routines

     Parallel routines

   This run was terminated on:  23: 6:20  25Aug2025

   JOB DONE.
Note: The following floating-point exceptions are signalling: IEEE_INVALID_FLAG
Note: The following floating-point exceptions are signalling: IEEE_INVALID_FLAG
Note: The following floating-point exceptions are signalling: IEEE_INVALID_FLAG
Note: The following floating-point exceptions are signalling: IEEE_INVALID_FLAG
Note: The following floating-point exceptions are signalling: IEEE_INVALID_FLAG
Note: The following floating-point exceptions are signalling: IEEE_INVALID_FLAG
Note: The following floating-point exceptions are signalling: IEEE_INVALID_FLAG
Note: The following floating-point exceptions are signalling: IEEE_INVALID_FLAG
Note: The following floating-point exceptions are signalling: IEEE_INVALID_FLAG
Note: The following floating-point exceptions are signalling: IEEE_INVALID_FLAG
Note: The following floating-point exceptions are signalling: IEEE_INVALID_FLAG
Note: The following floating-point exceptions are signalling: IEEE_INVALID_FLAG
Note: The following floating-point exceptions are signalling: IEEE_INVALID_FLAG
Note: The following floating-point exceptions are signalling: IEEE_INVALID_FLAG
Note: The following floating-point exceptions are signalling: IEEE_INVALID_FLAG
Note: The following floating-point exceptions are signalling: IEEE_INVALID_FLAG
Note: The following floating-point exceptions are signalling: IEEE_INVALID_FLAG
Note: The following floating-point exceptions are signalling: IEEE_INVALID_FLAG
Note: The following floating-point exceptions are signalling: IEEE_INVALID_FLAG
Note: The following floating-point exceptions are signalling: IEEE_INVALID_FLAG
Note: The following floating-point exceptions are signalling: IEEE_INVALID_FLAG
Note: The following floating-point exceptions are signalling: IEEE_INVALID_FLAG
Note: The following floating-point exceptions are signalling: IEEE_INVALID_FLAG
Note: The following floating-point exceptions are signalling: IEEE_INVALID_FLAG
Note: The following floating-point exceptions are signalling: IEEE_INVALID_FLAG
Note: The following floating-point exceptions are signalling: IEEE_INVALID_FLAG
Note: The following floating-point exceptions are signalling: IEEE_INVALID_FLAG
Note: The following floating-point exceptions are signalling: IEEE_INVALID_FLAG
Note: The following floating-point exceptions are signalling: IEEE_INVALID_FLAG
Note: The following floating-point exceptions are signalling: IEEE_INVALID_FLAG
Note: The following floating-point exceptions are signalling: IEEE_INVALID_FLAG
Note: The following floating-point exceptions are signalling: IEEE_INVALID_FLAG
Note: The following floating-point exceptions are signalling: IEEE_INVALID_FLAG
Note: The following floating-point exceptions are signalling: IEEE_INVALID_FLAG
Note: The following floating-point exceptions are signalling: IEEE_INVALID_FLAG
Note: The following floating-point exceptions are signalling: IEEE_INVALID_FLAG
Note: The following floating-point exceptions are signalling: IEEE_INVALID_FLAG
Note: The following floating-point exceptions are signalling: IEEE_INVALID_FLAG
Note: The following floating-point exceptions are signalling: IEEE_INVALID_FLAG
Note: The following floating-point exceptions are signalling: IEEE_INVALID_FLAG
Note: The following floating-point exceptions are signalling: IEEE_INVALID_FLAG
Note: The following floating-point exceptions are signalling: IEEE_INVALID_FLAG
Note: The following floating-point exceptions are signalling: IEEE_INVALID_FLAG
Note: The following floating-point exceptions are signalling: IEEE_INVALID_FLAG
Note: The following floating-point exceptions are signalling: IEEE_INVALID_FLAG
Note: The following floating-point exceptions are signalling: IEEE_INVALID_FLAG
Note: The following floating-point exceptions are signalling: IEEE_INVALID_FLAG
Note: The following floating-point exceptions are signalling: IEEE_INVALID_FLAG
Note: The following floating-point exceptions are signalling: IEEE_INVALID_FLAG
Note: The following floating-point exceptions are signalling: IEEE_INVALID_FLAG
Note: The following floating-point exceptions are signalling: IEEE_INVALID_FLAG
Note: The following floating-point exceptions are signalling: IEEE_INVALID_FLAG
Note: The following floating-point exceptions are signalling: IEEE_INVALID_FLAG
Note: The following floating-point exceptions are signalling: IEEE_INVALID_FLAG
Note: The following floating-point exceptions are signalling: IEEE_INVALID_FLAG
Note: The following floating-point exceptions are signalling: IEEE_INVALID_FLAG
Note: The following floating-point exceptions are signalling: IEEE_INVALID_FLAG
Note: The following floating-point exceptions are signalling: IEEE_INVALID_FLAG
Note: The following floating-point exceptions are signalling: IEEE_INVALID_FLAG
Note: The following floating-point exceptions are signalling: IEEE_INVALID_FLAG
Note: The following floating-point exceptions are signalling: IEEE_INVALID_FLAG
Note: The following floating-point exceptions are signalling: IEEE_INVALID_FLAG
Note: The following floating-point exceptions are signalling: IEEE_INVALID_FLAG
Note: The following floating-point exceptions are signalling: IEEE_INVALID_FLAG