     Program PWSCF v.7.2 starts on 25Aug2025 at 19: 2:50

     Reading input from /home/jvc/QEspresso7.2/ZnO_database/scripts/cell331.in/ZnO-3.27-1.55-331.in
Warning: card &CELL ignored
Warning: card / ignored
Warning: card &FCP ignored
Warning: card / ignored
Warning: card &RISM ignored
Warning: card / ignored

     Current dimensions of program PWSCF are:
     Max number of different atomic species (ntypx) = 10
     Max number of k-points (npk) =  40000
     Max angular momentum in pseudopotentials (lmaxx) =  4
     file Zn.upf: wavefunction(s)  3D renormalized
     Found identity + (  0.0000  0.3333  0.0000) symmetry
     This is a supercell, fractional translations are disabled
     Message from routine setup:
     using ibrav=0 with symmetry is DISCOURAGED, use correct ibrav instead

     K-points division:     npool     =      16
     band groups division:  nbgrp     =       4
     Subspace diagonalization in iterative solution of the eigenvalue problem:
     a serial algorithm will be used

     Using Slab Decomposition

     bravais-lattice index     =            0
     lattice parameter (alat)  =      18.5366  a.u.
     unit-cell volume          =    2849.4964 (a.u.)^3
     number of atoms/cell      =           36
     number of atomic types    =            2
     number of electrons       =       324.00
     number of Kohn-Sham states=          162
     kinetic-energy cutoff     =      50.0000  Ry
     charge density cutoff     =     400.0000  Ry
     scf convergence threshold =      1.0E-08
     mixing beta               =       0.3000
     number of iterations used =            8  plain     mixing
     Exchange-correlation= PBE
                           (   1   4   3   4   0   0   0)

     celldm(1)=  18.536562  celldm(2)=   0.000000  celldm(3)=   0.000000
     celldm(4)=   0.000000  celldm(5)=   0.000000  celldm(6)=   0.000000

     crystal axes: (cart. coord. in units of alat)
               a(1) = (   1.000000   0.000000   0.000000 )
               a(2) = (  -0.500000   0.866025   0.000000 )
               a(3) = (   0.000000   0.000000   0.516595 )

     reciprocal axes: (cart. coord. in units 2 pi/alat)
               b(1) = (  1.000000  0.577350 -0.000000 )
               b(2) = (  0.000000  1.154701  0.000000 )
               b(3) = (  0.000000 -0.000000  1.935754 )

     PseudoPot. # 1 for Zn read from file:
     /home/jvc/QEspresso7.2/ZnO_database/pseudos/Zn.upf
     MD5 check sum: 7f56cabf9682ed8c977c2f7d0c5985c5
     Pseudo is Ultrasoft + core correction, Zval = 12.0
     Generated using &quot;atomic&quot; code by A. Dal Corso  v.6.2.2
     Using radial grid of 1201 points,  6 beta functions with:
                l(1) =   0
                l(2) =   0
                l(3) =   1
                l(4) =   1
                l(5) =   2
                l(6) =   2
     Q(r) pseudized with 0 coefficients

     PseudoPot. # 2 for O  read from file:
     /home/jvc/QEspresso7.2/ZnO_database/pseudos/O.upf
     MD5 check sum: 91400c9766925bcf19f520983a725ff0
     Pseudo is Ultrasoft + core correction, Zval =  6.0
     Generated using &quot;atomic&quot; code by A. Dal Corso  v.6.3MaX
     Using radial grid of 1095 points,  4 beta functions with:
                l(1) =   0
                l(2) =   0
                l(3) =   1
                l(4) =   1
     Q(r) pseudized with 0 coefficients

     atomic species   valence    mass     pseudopotential
        Zn            12.00    65.38000     Zn( 1.00)
        O              6.00    15.99900     O ( 1.00)

      6 Sym. Ops. (no inversion) found

                                    s                        frac. trans.

      isym =  1     identity

 cryst.   s( 1) = (     1          0          0      )
                  (     0          1          0      )
                  (     0          0          1      )

 cart.    s( 1) = (  1.0000000  0.0000000  0.0000000 )
                  (  0.0000000  1.0000000  0.0000000 )
                  (  0.0000000  0.0000000  1.0000000 )

      isym =  2     120 deg rotation - cryst. axis [0,0,1]

[...]

      isym =  3     120 deg rotation - cryst. axis [0,0,-1]

[...]

      isym =  4     inv. 180 deg rotation - cart. axis [1,0,0]

[...]

      isym =  5     inv. 180 deg rotation - cryst. axis [0,1,0]

[...]

      isym =  6     inv. 180 deg rotation - cryst. axis [1,1,0]

 cryst.   s( 6) = (     0         -1          0      )
                  (    -1          0          0      )
                  (     0          0          1      )

 cart.    s( 6) = (  0.5000000 -0.8660254  0.0000000 )
                  ( -0.8660254 -0.5000000  0.0000000 )
                  (  0.0000000  0.0000000  1.0000000 )

   Cartesian axes

     site n.     atom                  positions (alat units)
         1           Zn  tau(   1) = (   0.1666667   0.0962250   0.2586246  )
         2           Zn  tau(   2) = (   0.0000000   0.1924501   0.0003273  )
         3           O   tau(   3) = (   0.1666667   0.0962250   0.4544362  )
         4           O   tau(   4) = (   0.0000000   0.1924501   0.1961388  )
         5           Zn  tau(   5) = (   0.0000000   0.3849002   0.2586246  )
         6           Zn  tau(   6) = (  -0.1666667   0.4811252   0.0003273  )
         7           O   tau(   7) = (   0.0000000   0.3849002   0.4544362  )
         8           O   tau(   8) = (  -0.1666667   0.4811252   0.1961388  )
         9           Zn  tau(   9) = (  -0.1666667   0.6735753   0.2586246  )
        10           Zn  tau(  10) = (  -0.3333333   0.7698004   0.0003273  )
        11           O   tau(  11) = (  -0.1666667   0.6735753   0.4544362  )
        12           O   tau(  12) = (  -0.3333333   0.7698004   0.1961388  )
        13           Zn  tau(  13) = (   0.5000000   0.0962250   0.2586246  )
        14           Zn  tau(  14) = (   0.3333333   0.1924501   0.0003273  )
        15           O   tau(  15) = (   0.5000000   0.0962250   0.4544362  )
        16           O   tau(  16) = (   0.3333333   0.1924501   0.1961388  )
        17           Zn  tau(  17) = (   0.3333333   0.3849002   0.2586246  )
        18           Zn  tau(  18) = (   0.1666667   0.4811252   0.0003273  )
        19           O   tau(  19) = (   0.3333333   0.3849002   0.4544362  )
        20           O   tau(  20) = (   0.1666667   0.4811252   0.1961388  )
        21           Zn  tau(  21) = (   0.1666667   0.6735753   0.2586246  )
        22           Zn  tau(  22) = (  -0.0000000   0.7698004   0.0003273  )
        23           O   tau(  23) = (   0.1666667   0.6735753   0.4544362  )
        24           O   tau(  24) = (  -0.0000000   0.7698004   0.1961388  )
        25           Zn  tau(  25) = (   0.8333333   0.0962250   0.2586246  )
        26           Zn  tau(  26) = (   0.6666667   0.1924501   0.0003273  )
        27           O   tau(  27) = (   0.8333333   0.0962250   0.4544362  )
        28           O   tau(  28) = (   0.6666667   0.1924501   0.1961388  )
        29           Zn  tau(  29) = (   0.6666667   0.3849002   0.2586246  )
        30           Zn  tau(  30) = (   0.5000000   0.4811252   0.0003273  )
        31           O   tau(  31) = (   0.6666667   0.3849002   0.4544362  )
        32           O   tau(  32) = (   0.5000000   0.4811252   0.1961388  )
        33           Zn  tau(  33) = (   0.5000000   0.6735753   0.2586246  )
        34           Zn  tau(  34) = (   0.3333333   0.7698004   0.0003273  )
        35           O   tau(  35) = (   0.5000000   0.6735753   0.4544362  )
        36           O   tau(  36) = (   0.3333333   0.7698004   0.1961388  )

   Crystallographic axes

     site n.     atom                  positions (cryst. coord.)
         1           Zn  tau(   1) = (  0.2222222  0.1111111  0.5006336  )
         2           Zn  tau(   2) = (  0.1111111  0.2222222  0.0006336  )
         3           O   tau(   3) = (  0.2222222  0.1111111  0.8796764  )
         4           O   tau(   4) = (  0.1111111  0.2222222  0.3796764  )
         5           Zn  tau(   5) = (  0.2222222  0.4444444  0.5006336  )
         6           Zn  tau(   6) = (  0.1111111  0.5555556  0.0006336  )
         7           O   tau(   7) = (  0.2222222  0.4444444  0.8796764  )
         8           O   tau(   8) = (  0.1111111  0.5555556  0.3796764  )
         9           Zn  tau(   9) = (  0.2222222  0.7777778  0.5006336  )
        10           Zn  tau(  10) = (  0.1111111  0.8888889  0.0006336  )
        11           O   tau(  11) = (  0.2222222  0.7777778  0.8796764  )
        12           O   tau(  12) = (  0.1111111  0.8888889  0.3796764  )
        13           Zn  tau(  13) = (  0.5555556  0.1111111  0.5006336  )
        14           Zn  tau(  14) = (  0.4444444  0.2222222  0.0006336  )
        15           O   tau(  15) = (  0.5555556  0.1111111  0.8796764  )
        16           O   tau(  16) = (  0.4444444  0.2222222  0.3796764  )
        17           Zn  tau(  17) = (  0.5555556  0.4444444  0.5006336  )
        18           Zn  tau(  18) = (  0.4444444  0.5555556  0.0006336  )
        19           O   tau(  19) = (  0.5555556  0.4444444  0.8796764  )
        20           O   tau(  20) = (  0.4444444  0.5555556  0.3796764  )
        21           Zn  tau(  21) = (  0.5555556  0.7777778  0.5006336  )
        22           Zn  tau(  22) = (  0.4444444  0.8888889  0.0006336  )
        23           O   tau(  23) = (  0.5555556  0.7777778  0.8796764  )
        24           O   tau(  24) = (  0.4444444  0.8888889  0.3796764  )
        25           Zn  tau(  25) = (  0.8888889  0.1111111  0.5006336  )
        26           Zn  tau(  26) = (  0.7777778  0.2222222  0.0006336  )
        27           O   tau(  27) = (  0.8888889  0.1111111  0.8796764  )
        28           O   tau(  28) = (  0.7777778  0.2222222  0.3796764  )
        29           Zn  tau(  29) = (  0.8888889  0.4444444  0.5006336  )
        30           Zn  tau(  30) = (  0.7777778  0.5555556  0.0006336  )
        31           O   tau(  31) = (  0.8888889  0.4444444  0.8796764  )
        32           O   tau(  32) = (  0.7777778  0.5555556  0.3796764  )
        33           Zn  tau(  33) = (  0.8888889  0.7777778  0.5006336  )
        34           Zn  tau(  34) = (  0.7777778  0.8888889  0.0006336  )
        35           O   tau(  35) = (  0.8888889  0.7777778  0.8796764  )
        36           O   tau(  36) = (  0.7777778  0.8888889  0.3796764  )

     number of k points=    34
                       cart. coord. in units 2pi/alat
        k(    1) = (   0.0000000   0.0000000   0.0000000), wk =   0.0092593
        k(    2) = (   0.0000000   0.0000000   0.3226256), wk =   0.0185185
        k(    3) = (   0.0000000   0.0000000   0.6452512), wk =   0.0185185
        k(    4) = (   0.0000000   0.0000000  -0.9678768), wk =   0.0092593
        k(    5) = (   0.0000000   0.1924501   0.0000000), wk =   0.0555556
        k(    6) = (   0.0000000   0.1924501   0.3226256), wk =   0.0555556
        k(    7) = (   0.0000000   0.1924501   0.6452512), wk =   0.0555556
        k(    8) = (   0.0000000   0.1924501  -0.9678768), wk =   0.0555556
        k(    9) = (   0.0000000   0.3849002   0.0000000), wk =   0.0555556
[...]
     atom   32 type  2   force =     0.00000000   -0.00000001    0.79927989
     atom   33 type  1   force =    -0.00000000   -0.00000002   -0.79927988
     atom   34 type  1   force =    -0.00000001   -0.00000001   -0.79927988
     atom   35 type  2   force =    -0.00000000   -0.00000001    0.79927988
     atom   36 type  2   force =    -0.00000001   -0.00000001    0.79927988
     The local contribution  to forces
     atom    1 type  1   force =     0.00000259    0.00000149    0.89638568
     atom    2 type  1   force =    -0.00000000    0.00000113    0.89637297
     atom    3 type  2   force =     0.00000054    0.00000031   -0.69196631
     atom    4 type  2   force =    -0.00000000    0.00000077   -0.69196525
     atom    5 type  1   force =    -0.00000000    0.00000593    0.89638227
     atom    6 type  1   force =     0.00000211    0.00000107    0.89637716
     atom    7 type  2   force =    -0.00000000    0.00000079   -0.69196601
     atom    8 type  2   force =     0.00000099    0.00000053   -0.69196472
     atom    9 type  1   force =     0.00000514   -0.00000297    0.89638227
     atom   10 type  1   force =     0.00000098   -0.00000056    0.89637297
     atom   11 type  2   force =     0.00000069   -0.00000040   -0.69196601
     atom   12 type  2   force =     0.00000066   -0.00000038   -0.69196525
     atom   13 type  1   force =    -0.00000013   -0.00000354    0.89638371
     atom   14 type  1   force =    -0.00000119   -0.00000069    0.89637434
     atom   15 type  2   force =    -0.00000003   -0.00000001   -0.69196634
     atom   16 type  2   force =    -0.00000034   -0.00000020   -0.69196475
     atom   17 type  1   force =    -0.00000326    0.00000188    0.89638371
     atom   18 type  1   force =    -0.00000186    0.00000107    0.89637716
     atom   19 type  2   force =    -0.00000006    0.00000003   -0.69196634
     atom   20 type  2   force =    -0.00000092    0.00000053   -0.69196472
     atom   21 type  1   force =    -0.00000514   -0.00000297    0.89638227
     atom   22 type  1   force =     0.00000013   -0.00000237    0.89637716
     atom   23 type  2   force =    -0.00000069   -0.00000040   -0.69196601
     atom   24 type  2   force =     0.00000003   -0.00000112   -0.69196472
     atom   25 type  1   force =    -0.00000259    0.00000149    0.89638568
     atom   26 type  1   force =     0.00000119   -0.00000069    0.89637434
     atom   27 type  2   force =    -0.00000054    0.00000031   -0.69196631
     atom   28 type  2   force =     0.00000034   -0.00000020   -0.69196475
     atom   29 type  1   force =     0.00000300    0.00000188    0.89638371
     atom   30 type  1   force =    -0.00000000    0.00000138    0.89637434
     atom   31 type  2   force =    -0.00000001    0.00000003   -0.69196634
     atom   32 type  2   force =    -0.00000000    0.00000039   -0.69196475
     atom   33 type  1   force =    -0.00000000   -0.00000299    0.89638568
     atom   34 type  1   force =    -0.00000098   -0.00000056    0.89637297
     atom   35 type  2   force =    -0.00000000   -0.00000062   -0.69196631
     atom   36 type  2   force =    -0.00000066   -0.00000038   -0.69196525
     The core correction contribution to forces
     atom    1 type  1   force =    -0.00000001   -0.00000001    0.00974404
     atom    2 type  1   force =    -0.00000000    0.00000000    0.00974428
     atom    3 type  2   force =    -0.00000000   -0.00000000    0.00064426
     atom    4 type  2   force =    -0.00000000   -0.00000002    0.00064426
     atom    5 type  1   force =     0.00000000   -0.00000008    0.00974409
     atom    6 type  1   force =     0.00000002   -0.00000001    0.00974421
     atom    7 type  2   force =     0.00000000   -0.00000001    0.00064426
     atom    8 type  2   force =    -0.00000001   -0.00000001    0.00064426
     atom    9 type  1   force =    -0.00000007    0.00000004    0.00974409
     atom   10 type  1   force =     0.00000000   -0.00000000    0.00974428
     atom   11 type  2   force =    -0.00000001    0.00000001    0.00064426
     atom   12 type  2   force =    -0.00000001    0.00000001    0.00064426
     atom   13 type  1   force =    -0.00000002    0.00000007    0.00974409
     atom   14 type  1   force =    -0.00000000   -0.00000000    0.00974427
     atom   15 type  2   force =     0.00000000    0.00000001    0.00064426
     atom   16 type  2   force =    -0.00000000   -0.00000000    0.00064426
     atom   17 type  1   force =     0.00000004   -0.00000002    0.00974409
     atom   18 type  1   force =     0.00000001   -0.00000001    0.00974421
     atom   19 type  2   force =     0.00000001   -0.00000001    0.00064426
     atom   20 type  2   force =     0.00000001   -0.00000001    0.00064426
     atom   21 type  1   force =     0.00000007    0.00000004    0.00974409
     atom   22 type  1   force =     0.00000002   -0.00000002    0.00974421
     atom   23 type  2   force =     0.00000001    0.00000001    0.00064426
     atom   24 type  2   force =    -0.00000000    0.00000001    0.00064426
     atom   25 type  1   force =     0.00000001   -0.00000001    0.00974404
     atom   26 type  1   force =     0.00000000   -0.00000000    0.00974427
     atom   27 type  2   force =     0.00000000   -0.00000000    0.00064426
     atom   28 type  2   force =     0.00000000   -0.00000000    0.00064426
     atom   29 type  1   force =    -0.00000007   -0.00000002    0.00974409
     atom   30 type  1   force =    -0.00000000    0.00000000    0.00974427
     atom   31 type  2   force =    -0.00000001   -0.00000001    0.00064426
     atom   32 type  2   force =    -0.00000000    0.00000000    0.00064426
     atom   33 type  1   force =     0.00000000    0.00000001    0.00974404
     atom   34 type  1   force =    -0.00000000   -0.00000000    0.00974428
     atom   35 type  2   force =     0.00000000    0.00000000    0.00064426
     atom   36 type  2   force =     0.00000001    0.00000001    0.00064426
     The Hubbard contrib.    to forces
     atom    1 type  1   force =     0.00000000    0.00000000    0.00000000
     atom    2 type  1   force =     0.00000000    0.00000000    0.00000000
     atom    3 type  2   force =     0.00000000    0.00000000    0.00000000
     atom    4 type  2   force =     0.00000000    0.00000000    0.00000000
     atom    5 type  1   force =     0.00000000    0.00000000    0.00000000
     atom    6 type  1   force =     0.00000000    0.00000000    0.00000000
     atom    7 type  2   force =     0.00000000    0.00000000    0.00000000
     atom    8 type  2   force =     0.00000000    0.00000000    0.00000000
     atom    9 type  1   force =     0.00000000    0.00000000    0.00000000
     atom   10 type  1   force =     0.00000000    0.00000000    0.00000000
     atom   11 type  2   force =     0.00000000    0.00000000    0.00000000
     atom   12 type  2   force =     0.00000000    0.00000000    0.00000000
     atom   13 type  1   force =     0.00000000    0.00000000    0.00000000
     atom   14 type  1   force =     0.00000000    0.00000000    0.00000000
     atom   15 type  2   force =     0.00000000    0.00000000    0.00000000
     atom   16 type  2   force =     0.00000000    0.00000000    0.00000000
     atom   17 type  1   force =     0.00000000    0.00000000    0.00000000
     atom   18 type  1   force =     0.00000000    0.00000000    0.00000000
     atom   19 type  2   force =     0.00000000    0.00000000    0.00000000
     atom   20 type  2   force =     0.00000000    0.00000000    0.00000000
     atom   21 type  1   force =     0.00000000    0.00000000    0.00000000
     atom   22 type  1   force =     0.00000000    0.00000000    0.00000000
     atom   23 type  2   force =     0.00000000    0.00000000    0.00000000
     atom   24 type  2   force =     0.00000000    0.00000000    0.00000000
     atom   25 type  1   force =     0.00000000    0.00000000    0.00000000
     atom   26 type  1   force =     0.00000000    0.00000000    0.00000000
     atom   27 type  2   force =     0.00000000    0.00000000    0.00000000
     atom   28 type  2   force =     0.00000000    0.00000000    0.00000000
     atom   29 type  1   force =     0.00000000    0.00000000    0.00000000
     atom   30 type  1   force =     0.00000000    0.00000000    0.00000000
     atom   31 type  2   force =     0.00000000    0.00000000    0.00000000
     atom   32 type  2   force =     0.00000000    0.00000000    0.00000000
     atom   33 type  1   force =     0.00000000    0.00000000    0.00000000
     atom   34 type  1   force =     0.00000000    0.00000000    0.00000000
     atom   35 type  2   force =     0.00000000    0.00000000    0.00000000
     atom   36 type  2   force =     0.00000000    0.00000000    0.00000000
     The SCF correction term to forces
     atom    1 type  1   force =    -0.00000251   -0.00000145   -0.00000597
     atom    2 type  1   force =    -0.00000000   -0.00000133    0.00000784
     atom    3 type  2   force =    -0.00000080   -0.00000046    0.00000073
     atom    4 type  2   force =    -0.00000000   -0.00000207   -0.00000003
     atom    5 type  1   force =    -0.00000000   -0.00000603   -0.00000271
     atom    6 type  1   force =    -0.00000231   -0.00000134    0.00000342
     atom    7 type  2   force =     0.00000000   -0.00000160    0.00000085
     atom    8 type  2   force =    -0.00000166   -0.00000096   -0.00000041
     atom    9 type  1   force =    -0.00000522    0.00000301   -0.00000271
     atom   10 type  1   force =    -0.00000116    0.00000067    0.00000784
     atom   11 type  2   force =    -0.00000139    0.00000080    0.00000085
     atom   12 type  2   force =    -0.00000179    0.00000103   -0.00000003
     atom   13 type  1   force =     0.00000000    0.00000319   -0.00000395
     atom   14 type  1   force =     0.00000120    0.00000069    0.00000675
     atom   15 type  2   force =     0.00000000    0.00000075    0.00000089
     atom   16 type  2   force =    -0.00000004   -0.00000002   -0.00000033
     atom   17 type  1   force =     0.00000276   -0.00000159   -0.00000395
     atom   18 type  1   force =     0.00000231   -0.00000134    0.00000342
     atom   19 type  2   force =     0.00000065   -0.00000038    0.00000089
     atom   20 type  2   force =     0.00000166   -0.00000096   -0.00000041
     atom   21 type  1   force =     0.00000522    0.00000301   -0.00000271
     atom   22 type  1   force =    -0.00000000    0.00000267    0.00000342
     atom   23 type  2   force =     0.00000139    0.00000080    0.00000085
     atom   24 type  2   force =    -0.00000000    0.00000192   -0.00000041
     atom   25 type  1   force =     0.00000251   -0.00000145   -0.00000597
     atom   26 type  1   force =    -0.00000120    0.00000069    0.00000675
     atom   27 type  2   force =     0.00000080   -0.00000046    0.00000073
     atom   28 type  2   force =     0.00000004   -0.00000002   -0.00000033
     atom   29 type  1   force =    -0.00000276   -0.00000159   -0.00000395
     atom   30 type  1   force =     0.00000000   -0.00000139    0.00000675
     atom   31 type  2   force =    -0.00000065   -0.00000038    0.00000089
     atom   32 type  2   force =    -0.00000000    0.00000004   -0.00000033
     atom   33 type  1   force =     0.00000000    0.00000290   -0.00000597
     atom   34 type  1   force =     0.00000116    0.00000067    0.00000784
     atom   35 type  2   force =     0.00000000    0.00000092    0.00000073
     atom   36 type  2   force =     0.00000179    0.00000103   -0.00000003

     Total force =     0.108768     Total SCF correction =     0.000028

     General routines

     Parallel routines

   This run was terminated on:  19:53: 2  25Aug2025

   JOB DONE.
Note: The following floating-point exceptions are signalling: IEEE_INVALID_FLAG
Note: The following floating-point exceptions are signalling: IEEE_INVALID_FLAG
Note: The following floating-point exceptions are signalling: IEEE_INVALID_FLAG
Note: The following floating-point exceptions are signalling: IEEE_INVALID_FLAG
Note: The following floating-point exceptions are signalling: IEEE_INVALID_FLAG
Note: The following floating-point exceptions are signalling: IEEE_INVALID_FLAG
Note: The following floating-point exceptions are signalling: IEEE_INVALID_FLAG
Note: The following floating-point exceptions are signalling: IEEE_INVALID_FLAG
Note: The following floating-point exceptions are signalling: IEEE_INVALID_FLAG
Note: The following floating-point exceptions are signalling: IEEE_INVALID_FLAG
Note: The following floating-point exceptions are signalling: IEEE_INVALID_FLAG
Note: The following floating-point exceptions are signalling: IEEE_INVALID_FLAG
Note: The following floating-point exceptions are signalling: IEEE_INVALID_FLAG
Note: The following floating-point exceptions are signalling: IEEE_INVALID_FLAG
Note: The following floating-point exceptions are signalling: IEEE_INVALID_FLAG
Note: The following floating-point exceptions are signalling: IEEE_INVALID_FLAG
Note: The following floating-point exceptions are signalling: IEEE_INVALID_FLAG
Note: The following floating-point exceptions are signalling: IEEE_INVALID_FLAG
Note: The following floating-point exceptions are signalling: IEEE_INVALID_FLAG
Note: The following floating-point exceptions are signalling: IEEE_INVALID_FLAG
Note: The following floating-point exceptions are signalling: IEEE_INVALID_FLAG
Note: The following floating-point exceptions are signalling: IEEE_INVALID_FLAG
Note: The following floating-point exceptions are signalling: IEEE_INVALID_FLAG
Note: The following floating-point exceptions are signalling: IEEE_INVALID_FLAG
Note: The following floating-point exceptions are signalling: IEEE_INVALID_FLAG
Note: The following floating-point exceptions are signalling: IEEE_INVALID_FLAG
Note: The following floating-point exceptions are signalling: IEEE_INVALID_FLAG
Note: The following floating-point exceptions are signalling: IEEE_INVALID_FLAG
Note: The following floating-point exceptions are signalling: IEEE_INVALID_FLAG
Note: The following floating-point exceptions are signalling: IEEE_INVALID_FLAG
Note: The following floating-point exceptions are signalling: IEEE_INVALID_FLAG
Note: The following floating-point exceptions are signalling: IEEE_INVALID_FLAG
Note: The following floating-point exceptions are signalling: IEEE_INVALID_FLAG
Note: The following floating-point exceptions are signalling: IEEE_INVALID_FLAG
Note: The following floating-point exceptions are signalling: IEEE_INVALID_FLAG
Note: The following floating-point exceptions are signalling: IEEE_INVALID_FLAG
Note: The following floating-point exceptions are signalling: IEEE_INVALID_FLAG
Note: The following floating-point exceptions are signalling: IEEE_INVALID_FLAG
Note: The following floating-point exceptions are signalling: IEEE_INVALID_FLAG
Note: The following floating-point exceptions are signalling: IEEE_INVALID_FLAG
Note: The following floating-point exceptions are signalling: IEEE_INVALID_FLAG
Note: The following floating-point exceptions are signalling: IEEE_INVALID_FLAG
Note: The following floating-point exceptions are signalling: IEEE_INVALID_FLAG
Note: The following floating-point exceptions are signalling: IEEE_INVALID_FLAG
Note: The following floating-point exceptions are signalling: IEEE_INVALID_FLAG
Note: The following floating-point exceptions are signalling: IEEE_INVALID_FLAG
Note: The following floating-point exceptions are signalling: IEEE_INVALID_FLAG
Note: The following floating-point exceptions are signalling: IEEE_INVALID_FLAG
Note: The following floating-point exceptions are signalling: IEEE_INVALID_FLAG
Note: The following floating-point exceptions are signalling: IEEE_INVALID_FLAG
Note: The following floating-point exceptions are signalling: IEEE_INVALID_FLAG
Note: The following floating-point exceptions are signalling: IEEE_INVALID_FLAG
Note: The following floating-point exceptions are signalling: IEEE_INVALID_FLAG
Note: The following floating-point exceptions are signalling: IEEE_INVALID_FLAG
Note: The following floating-point exceptions are signalling: IEEE_INVALID_FLAG
Note: The following floating-point exceptions are signalling: IEEE_INVALID_FLAG
Note: The following floating-point exceptions are signalling: IEEE_INVALID_FLAG
Note: The following floating-point exceptions are signalling: IEEE_INVALID_FLAG
Note: The following floating-point exceptions are signalling: IEEE_INVALID_FLAG
Note: The following floating-point exceptions are signalling: IEEE_INVALID_FLAG
Note: The following floating-point exceptions are signalling: IEEE_INVALID_FLAG
Note: The following floating-point exceptions are signalling: IEEE_INVALID_FLAG
Note: The following floating-point exceptions are signalling: IEEE_INVALID_FLAG
Note: The following floating-point exceptions are signalling: IEEE_INVALID_FLAG