     Program PWSCF v.7.2 starts on 27Aug2025 at  9: 7:23

     Reading input from /home/jvc/QEspresso7.2/ZnO_database/scripts/cell331.in/ZnO-3.53-1.49-331.in
Warning: card &CELL ignored
Warning: card / ignored
Warning: card &FCP ignored
Warning: card / ignored
Warning: card &RISM ignored
Warning: card / ignored

     Current dimensions of program PWSCF are:
     Max number of different atomic species (ntypx) = 10
     Max number of k-points (npk) =  40000
     Max angular momentum in pseudopotentials (lmaxx) =  4
     file Zn.upf: wavefunction(s)  3D renormalized
     Found identity + ( -0.0000  0.3333  0.0000) symmetry
     This is a supercell, fractional translations are disabled
     Message from routine setup:
     using ibrav=0 with symmetry is DISCOURAGED, use correct ibrav instead

     K-points division:     npool     =      16
     band groups division:  nbgrp     =       4
     Subspace diagonalization in iterative solution of the eigenvalue problem:
     a serial algorithm will be used

     Using Slab Decomposition

     bravais-lattice index     =            0
     lattice parameter (alat)  =      20.0195  a.u.
     unit-cell volume          =    3439.9805 (a.u.)^3
     number of atoms/cell      =           36
     number of atomic types    =            2
     number of electrons       =       324.00
     number of Kohn-Sham states=          162
     kinetic-energy cutoff     =      50.0000  Ry
     charge density cutoff     =     400.0000  Ry
     scf convergence threshold =      1.0E-08
     mixing beta               =       0.3000
     number of iterations used =            8  plain     mixing
     Exchange-correlation= PBE
                           (   1   4   3   4   0   0   0)

     celldm(1)=  20.019487  celldm(2)=   0.000000  celldm(3)=   0.000000
     celldm(4)=   0.000000  celldm(5)=   0.000000  celldm(6)=   0.000000

     crystal axes: (cart. coord. in units of alat)
               a(1) = (   1.000000   0.000000   0.000000 )
               a(2) = (  -0.500000   0.866025   0.000000 )
               a(3) = (   0.000000   0.000000   0.495070 )

     reciprocal axes: (cart. coord. in units 2 pi/alat)
               b(1) = (  1.000000  0.577350 -0.000000 )
               b(2) = (  0.000000  1.154701  0.000000 )
               b(3) = (  0.000000 -0.000000  2.019917 )

     PseudoPot. # 1 for Zn read from file:
     /home/jvc/QEspresso7.2/ZnO_database/pseudos/Zn.upf
     MD5 check sum: 7f56cabf9682ed8c977c2f7d0c5985c5
     Pseudo is Ultrasoft + core correction, Zval = 12.0
     Generated using &quot;atomic&quot; code by A. Dal Corso  v.6.2.2
     Using radial grid of 1201 points,  6 beta functions with:
                l(1) =   0
                l(2) =   0
                l(3) =   1
                l(4) =   1
                l(5) =   2
                l(6) =   2
     Q(r) pseudized with 0 coefficients

     PseudoPot. # 2 for O  read from file:
     /home/jvc/QEspresso7.2/ZnO_database/pseudos/O.upf
     MD5 check sum: 91400c9766925bcf19f520983a725ff0
     Pseudo is Ultrasoft + core correction, Zval =  6.0
     Generated using &quot;atomic&quot; code by A. Dal Corso  v.6.3MaX
     Using radial grid of 1095 points,  4 beta functions with:
                l(1) =   0
                l(2) =   0
                l(3) =   1
                l(4) =   1
     Q(r) pseudized with 0 coefficients

     atomic species   valence    mass     pseudopotential
        Zn            12.00    65.38000     Zn( 1.00)
        O              6.00    15.99900     O ( 1.00)

      6 Sym. Ops. (no inversion) found

                                    s                        frac. trans.

      isym =  1     identity

 cryst.   s( 1) = (     1          0          0      )
                  (     0          1          0      )
                  (     0          0          1      )

 cart.    s( 1) = (  1.0000000  0.0000000  0.0000000 )
                  (  0.0000000  1.0000000  0.0000000 )
                  (  0.0000000  0.0000000  1.0000000 )

      isym =  2     120 deg rotation - cryst. axis [0,0,1]

[...]

      isym =  3     120 deg rotation - cryst. axis [0,0,-1]

[...]

      isym =  4     inv. 180 deg rotation - cart. axis [1,0,0]

[...]

      isym =  5     inv. 180 deg rotation - cryst. axis [0,1,0]

[...]

      isym =  6     inv. 180 deg rotation - cryst. axis [1,1,0]

 cryst.   s( 6) = (     0         -1          0      )
                  (    -1          0          0      )
                  (     0          0          1      )

 cart.    s( 6) = (  0.5000000 -0.8660254  0.0000000 )
                  ( -0.8660254 -0.5000000  0.0000000 )
                  (  0.0000000  0.0000000  1.0000000 )

   Cartesian axes

     site n.     atom                  positions (alat units)
         1           Zn  tau(   1) = (   0.1666667   0.0962250   0.2478486  )
         2           Zn  tau(   2) = (   0.0000000   0.1924501   0.0003137  )
         3           O   tau(   3) = (   0.1666667   0.0962250   0.4355013  )
         4           O   tau(   4) = (   0.0000000   0.1924501   0.1879664  )
         5           Zn  tau(   5) = (   0.0000000   0.3849002   0.2478486  )
         6           Zn  tau(   6) = (  -0.1666667   0.4811252   0.0003137  )
         7           O   tau(   7) = (   0.0000000   0.3849002   0.4355013  )
         8           O   tau(   8) = (  -0.1666667   0.4811252   0.1879664  )
         9           Zn  tau(   9) = (  -0.1666667   0.6735753   0.2478486  )
        10           Zn  tau(  10) = (  -0.3333333   0.7698004   0.0003137  )
        11           O   tau(  11) = (  -0.1666667   0.6735753   0.4355013  )
        12           O   tau(  12) = (  -0.3333333   0.7698004   0.1879664  )
        13           Zn  tau(  13) = (   0.5000000   0.0962250   0.2478486  )
        14           Zn  tau(  14) = (   0.3333333   0.1924501   0.0003137  )
        15           O   tau(  15) = (   0.5000000   0.0962250   0.4355013  )
        16           O   tau(  16) = (   0.3333333   0.1924501   0.1879664  )
        17           Zn  tau(  17) = (   0.3333333   0.3849002   0.2478486  )
        18           Zn  tau(  18) = (   0.1666667   0.4811252   0.0003137  )
        19           O   tau(  19) = (   0.3333333   0.3849002   0.4355013  )
        20           O   tau(  20) = (   0.1666667   0.4811252   0.1879664  )
        21           Zn  tau(  21) = (   0.1666667   0.6735753   0.2478486  )
        22           Zn  tau(  22) = (  -0.0000000   0.7698004   0.0003137  )
        23           O   tau(  23) = (   0.1666667   0.6735753   0.4355013  )
        24           O   tau(  24) = (  -0.0000000   0.7698004   0.1879664  )
        25           Zn  tau(  25) = (   0.8333333   0.0962250   0.2478486  )
        26           Zn  tau(  26) = (   0.6666667   0.1924501   0.0003137  )
        27           O   tau(  27) = (   0.8333333   0.0962250   0.4355013  )
        28           O   tau(  28) = (   0.6666667   0.1924501   0.1879664  )
        29           Zn  tau(  29) = (   0.6666667   0.3849002   0.2478486  )
        30           Zn  tau(  30) = (   0.5000000   0.4811252   0.0003137  )
        31           O   tau(  31) = (   0.6666667   0.3849002   0.4355013  )
        32           O   tau(  32) = (   0.5000000   0.4811252   0.1879664  )
        33           Zn  tau(  33) = (   0.5000000   0.6735753   0.2478486  )
        34           Zn  tau(  34) = (   0.3333333   0.7698004   0.0003137  )
        35           O   tau(  35) = (   0.5000000   0.6735753   0.4355013  )
        36           O   tau(  36) = (   0.3333333   0.7698004   0.1879664  )

   Crystallographic axes

     site n.     atom                  positions (cryst. coord.)
         1           Zn  tau(   1) = (  0.2222222  0.1111111  0.5006336  )
         2           Zn  tau(   2) = (  0.1111111  0.2222222  0.0006336  )
         3           O   tau(   3) = (  0.2222222  0.1111111  0.8796764  )
         4           O   tau(   4) = (  0.1111111  0.2222222  0.3796764  )
         5           Zn  tau(   5) = (  0.2222222  0.4444444  0.5006336  )
         6           Zn  tau(   6) = (  0.1111111  0.5555556  0.0006336  )
         7           O   tau(   7) = (  0.2222222  0.4444444  0.8796764  )
         8           O   tau(   8) = (  0.1111111  0.5555556  0.3796764  )
         9           Zn  tau(   9) = (  0.2222222  0.7777778  0.5006336  )
        10           Zn  tau(  10) = (  0.1111111  0.8888889  0.0006336  )
        11           O   tau(  11) = (  0.2222222  0.7777778  0.8796764  )
        12           O   tau(  12) = (  0.1111111  0.8888889  0.3796764  )
        13           Zn  tau(  13) = (  0.5555556  0.1111111  0.5006336  )
        14           Zn  tau(  14) = (  0.4444444  0.2222222  0.0006336  )
        15           O   tau(  15) = (  0.5555556  0.1111111  0.8796764  )
        16           O   tau(  16) = (  0.4444444  0.2222222  0.3796764  )
        17           Zn  tau(  17) = (  0.5555556  0.4444444  0.5006336  )
        18           Zn  tau(  18) = (  0.4444444  0.5555556  0.0006336  )
        19           O   tau(  19) = (  0.5555556  0.4444444  0.8796764  )
        20           O   tau(  20) = (  0.4444444  0.5555556  0.3796764  )
        21           Zn  tau(  21) = (  0.5555556  0.7777778  0.5006336  )
        22           Zn  tau(  22) = (  0.4444444  0.8888889  0.0006336  )
        23           O   tau(  23) = (  0.5555556  0.7777778  0.8796764  )
        24           O   tau(  24) = (  0.4444444  0.8888889  0.3796764  )
        25           Zn  tau(  25) = (  0.8888889  0.1111111  0.5006336  )
        26           Zn  tau(  26) = (  0.7777778  0.2222222  0.0006336  )
        27           O   tau(  27) = (  0.8888889  0.1111111  0.8796764  )
        28           O   tau(  28) = (  0.7777778  0.2222222  0.3796764  )
        29           Zn  tau(  29) = (  0.8888889  0.4444444  0.5006336  )
        30           Zn  tau(  30) = (  0.7777778  0.5555556  0.0006336  )
        31           O   tau(  31) = (  0.8888889  0.4444444  0.8796764  )
        32           O   tau(  32) = (  0.7777778  0.5555556  0.3796764  )
        33           Zn  tau(  33) = (  0.8888889  0.7777778  0.5006336  )
        34           Zn  tau(  34) = (  0.7777778  0.8888889  0.0006336  )
        35           O   tau(  35) = (  0.8888889  0.7777778  0.8796764  )
        36           O   tau(  36) = (  0.7777778  0.8888889  0.3796764  )

     number of k points=    34
                       cart. coord. in units 2pi/alat
        k(    1) = (   0.0000000   0.0000000   0.0000000), wk =   0.0092593
        k(    2) = (   0.0000000   0.0000000   0.3366528), wk =   0.0185185
        k(    3) = (   0.0000000   0.0000000   0.6733056), wk =   0.0185185
        k(    4) = (   0.0000000   0.0000000  -1.0099584), wk =   0.0092593
        k(    5) = (   0.0000000   0.1924501   0.0000000), wk =   0.0555556
        k(    6) = (   0.0000000   0.1924501   0.3366528), wk =   0.0555556
        k(    7) = (   0.0000000   0.1924501   0.6733056), wk =   0.0555556
        k(    8) = (   0.0000000   0.1924501  -1.0099584), wk =   0.0555556
        k(    9) = (   0.0000000   0.3849002   0.0000000), wk =   0.0555556
[...]
     atom   32 type  2   force =     0.00000000   -0.00000001    1.49894255
     atom   33 type  1   force =    -0.00000000   -0.00000001   -1.49894255
     atom   34 type  1   force =    -0.00000001   -0.00000001   -1.49894255
     atom   35 type  2   force =    -0.00000000   -0.00000001    1.49894255
     atom   36 type  2   force =    -0.00000000   -0.00000001    1.49894255
     The local contribution  to forces
     atom    1 type  1   force =    -0.00001456   -0.00000840    1.70110602
     atom    2 type  1   force =     0.00000000   -0.00003488    1.70108686
     atom    3 type  2   force =    -0.00000365   -0.00000211   -1.29100596
     atom    4 type  2   force =     0.00000000   -0.00000141   -1.29099986
     atom    5 type  1   force =     0.00000000   -0.00000318    1.70107554
     atom    6 type  1   force =     0.00001075    0.00000604    1.70109427
     atom    7 type  2   force =     0.00000000    0.00000610   -1.29100290
     atom    8 type  2   force =     0.00000087    0.00000046   -1.29100423
     atom    9 type  1   force =    -0.00000276    0.00000159    1.70107554
     atom   10 type  1   force =    -0.00003021    0.00001744    1.70108686
     atom   11 type  2   force =     0.00000528   -0.00000305   -1.29100290
     atom   12 type  2   force =    -0.00000122    0.00000071   -1.29099986
     atom   13 type  1   force =    -0.00000014   -0.00002603    1.70107736
     atom   14 type  1   force =    -0.00004845   -0.00002797    1.70109405
     atom   15 type  2   force =    -0.00000004   -0.00001308   -1.29100414
     atom   16 type  2   force =    -0.00000896   -0.00000517   -1.29100226
     atom   17 type  1   force =    -0.00002275    0.00001314    1.70107736
     atom   18 type  1   force =    -0.00001047    0.00000604    1.70109427
     atom   19 type  2   force =    -0.00001139    0.00000657   -1.29100414
     atom   20 type  2   force =    -0.00000080    0.00000046   -1.29100423
     atom   21 type  1   force =     0.00000276    0.00000159    1.70107554
     atom   22 type  1   force =     0.00000014   -0.00001233    1.70109427
     atom   23 type  2   force =    -0.00000528   -0.00000305   -1.29100290
     atom   24 type  2   force =     0.00000004   -0.00000099   -1.29100423
     atom   25 type  1   force =     0.00001456   -0.00000840    1.70110602
     atom   26 type  1   force =     0.00004845   -0.00002797    1.70109405
     atom   27 type  2   force =     0.00000365   -0.00000211   -1.29100596
     atom   28 type  2   force =     0.00000896   -0.00000517   -1.29100226
     atom   29 type  1   force =     0.00002247    0.00001314    1.70107736
     atom   30 type  1   force =     0.00000000    0.00005594    1.70109405
     atom   31 type  2   force =     0.00001131    0.00000657   -1.29100414
     atom   32 type  2   force =     0.00000000    0.00001034   -1.29100226
     atom   33 type  1   force =     0.00000000    0.00001681    1.70110602
     atom   34 type  1   force =     0.00003021    0.00001744    1.70108686
     atom   35 type  2   force =     0.00000000    0.00000421   -1.29100596
     atom   36 type  2   force =     0.00000122    0.00000071   -1.29099986
     The core correction contribution to forces
     atom    1 type  1   force =     0.00000014    0.00000008    0.01513452
     atom    2 type  1   force =     0.00000000    0.00000053    0.01513473
     atom    3 type  2   force =     0.00000006    0.00000004    0.00162441
     atom    4 type  2   force =     0.00000000    0.00000000    0.00162443
     atom    5 type  1   force =     0.00000000    0.00000004    0.01513508
     atom    6 type  1   force =    -0.00000012   -0.00000009    0.01513442
     atom    7 type  2   force =     0.00000000    0.00000001    0.00162444
     atom    8 type  2   force =    -0.00000007   -0.00000004    0.00162438
     atom    9 type  1   force =     0.00000003   -0.00000002    0.01513508
     atom   10 type  1   force =     0.00000046   -0.00000027    0.01513473
     atom   11 type  2   force =     0.00000001   -0.00000001    0.00162444
     atom   12 type  2   force =     0.00000000   -0.00000000    0.00162443
     atom   13 type  1   force =    -0.00000002    0.00000001    0.01513532
     atom   14 type  1   force =     0.00000054    0.00000031    0.01513459
     atom   15 type  2   force =     0.00000000    0.00000008    0.00162443
     atom   16 type  2   force =     0.00000008    0.00000005    0.00162442
     atom   17 type  1   force =    -0.00000001    0.00000001    0.01513532
     atom   18 type  1   force =     0.00000015   -0.00000009    0.01513442
     atom   19 type  2   force =     0.00000007   -0.00000004    0.00162443
     atom   20 type  2   force =     0.00000007   -0.00000004    0.00162438
     atom   21 type  1   force =    -0.00000003   -0.00000002    0.01513508
     atom   22 type  1   force =     0.00000002    0.00000015    0.01513442
     atom   23 type  2   force =    -0.00000001   -0.00000001    0.00162444
     atom   24 type  2   force =    -0.00000000    0.00000008    0.00162438
     atom   25 type  1   force =    -0.00000014    0.00000008    0.01513452
     atom   26 type  1   force =    -0.00000054    0.00000031    0.01513459
     atom   27 type  2   force =    -0.00000006    0.00000004    0.00162441
     atom   28 type  2   force =    -0.00000008    0.00000005    0.00162442
     atom   29 type  1   force =    -0.00000002    0.00000001    0.01513532
     atom   30 type  1   force =    -0.00000000   -0.00000062    0.01513459
     atom   31 type  2   force =    -0.00000007   -0.00000004    0.00162443
     atom   32 type  2   force =    -0.00000000   -0.00000009    0.00162442
     atom   33 type  1   force =     0.00000000   -0.00000016    0.01513452
     atom   34 type  1   force =    -0.00000046   -0.00000027    0.01513473
     atom   35 type  2   force =    -0.00000000   -0.00000007    0.00162441
     atom   36 type  2   force =    -0.00000000   -0.00000000    0.00162443
     The Hubbard contrib.    to forces
     atom    1 type  1   force =     0.00000000    0.00000000    0.00000000
     atom    2 type  1   force =     0.00000000    0.00000000    0.00000000
     atom    3 type  2   force =     0.00000000    0.00000000    0.00000000
     atom    4 type  2   force =     0.00000000    0.00000000    0.00000000
     atom    5 type  1   force =     0.00000000    0.00000000    0.00000000
     atom    6 type  1   force =     0.00000000    0.00000000    0.00000000
     atom    7 type  2   force =     0.00000000    0.00000000    0.00000000
     atom    8 type  2   force =     0.00000000    0.00000000    0.00000000
     atom    9 type  1   force =     0.00000000    0.00000000    0.00000000
     atom   10 type  1   force =     0.00000000    0.00000000    0.00000000
     atom   11 type  2   force =     0.00000000    0.00000000    0.00000000
     atom   12 type  2   force =     0.00000000    0.00000000    0.00000000
     atom   13 type  1   force =     0.00000000    0.00000000    0.00000000
     atom   14 type  1   force =     0.00000000    0.00000000    0.00000000
     atom   15 type  2   force =     0.00000000    0.00000000    0.00000000
     atom   16 type  2   force =     0.00000000    0.00000000    0.00000000
     atom   17 type  1   force =     0.00000000    0.00000000    0.00000000
     atom   18 type  1   force =     0.00000000    0.00000000    0.00000000
     atom   19 type  2   force =     0.00000000    0.00000000    0.00000000
     atom   20 type  2   force =     0.00000000    0.00000000    0.00000000
     atom   21 type  1   force =     0.00000000    0.00000000    0.00000000
     atom   22 type  1   force =     0.00000000    0.00000000    0.00000000
     atom   23 type  2   force =     0.00000000    0.00000000    0.00000000
     atom   24 type  2   force =     0.00000000    0.00000000    0.00000000
     atom   25 type  1   force =     0.00000000    0.00000000    0.00000000
     atom   26 type  1   force =     0.00000000    0.00000000    0.00000000
     atom   27 type  2   force =     0.00000000    0.00000000    0.00000000
     atom   28 type  2   force =     0.00000000    0.00000000    0.00000000
     atom   29 type  1   force =     0.00000000    0.00000000    0.00000000
     atom   30 type  1   force =     0.00000000    0.00000000    0.00000000
     atom   31 type  2   force =     0.00000000    0.00000000    0.00000000
     atom   32 type  2   force =     0.00000000    0.00000000    0.00000000
     atom   33 type  1   force =     0.00000000    0.00000000    0.00000000
     atom   34 type  1   force =     0.00000000    0.00000000    0.00000000
     atom   35 type  2   force =     0.00000000    0.00000000    0.00000000
     atom   36 type  2   force =     0.00000000    0.00000000    0.00000000
     The SCF correction term to forces
     atom    1 type  1   force =     0.00001531    0.00000884   -0.00001916
     atom    2 type  1   force =    -0.00000000    0.00004220    0.00000700
     atom    3 type  2   force =     0.00000894    0.00000516    0.00000735
     atom    4 type  2   force =    -0.00000000    0.00000307    0.00000051
     atom    5 type  1   force =    -0.00000000    0.00000586    0.00002469
     atom    6 type  1   force =    -0.00001328   -0.00000767   -0.00000292
     atom    7 type  2   force =     0.00000000   -0.00000295    0.00000454
     atom    8 type  2   force =    -0.00000598   -0.00000345    0.00000291
     atom    9 type  1   force =     0.00000507   -0.00000293    0.00002469
     atom   10 type  1   force =     0.00003654   -0.00002110    0.00000700
     atom   11 type  2   force =    -0.00000256    0.00000148    0.00000454
     atom   12 type  2   force =     0.00000265   -0.00000153    0.00000051
     atom   13 type  1   force =     0.00000000    0.00003103    0.00002299
     atom   14 type  1   force =     0.00006075    0.00003507   -0.00000035
     atom   15 type  2   force =    -0.00000000    0.00001802    0.00000506
     atom   16 type  2   force =     0.00001802    0.00001041    0.00000243
     atom   17 type  1   force =     0.00002687   -0.00001551    0.00002299
     atom   18 type  1   force =     0.00001328   -0.00000767   -0.00000292
     atom   19 type  2   force =     0.00001561   -0.00000901    0.00000506
     atom   20 type  2   force =     0.00000598   -0.00000345    0.00000291
     atom   21 type  1   force =    -0.00000507   -0.00000293    0.00002469
     atom   22 type  1   force =    -0.00000000    0.00001534   -0.00000292
     atom   23 type  2   force =     0.00000256    0.00000148    0.00000454
     atom   24 type  2   force =     0.00000000    0.00000690    0.00000291
     atom   25 type  1   force =    -0.00001531    0.00000884   -0.00001916
     atom   26 type  1   force =    -0.00006075    0.00003507   -0.00000035
     atom   27 type  2   force =    -0.00000894    0.00000516    0.00000735
     atom   28 type  2   force =    -0.00001802    0.00001041    0.00000243
     atom   29 type  1   force =    -0.00002687   -0.00001551    0.00002299
     atom   30 type  1   force =     0.00000000   -0.00007015   -0.00000035
     atom   31 type  2   force =    -0.00001561   -0.00000901    0.00000506
     atom   32 type  2   force =    -0.00000000   -0.00002081    0.00000243
     atom   33 type  1   force =     0.00000000   -0.00001768   -0.00001916
     atom   34 type  1   force =    -0.00003654   -0.00002110    0.00000700
     atom   35 type  2   force =     0.00000000   -0.00001033    0.00000735
     atom   36 type  2   force =    -0.00000265   -0.00000153    0.00000051

     Total force =     0.075057     Total SCF correction =     0.000180

     General routines

     Parallel routines

   This run was terminated on:  10:15:18  27Aug2025

   JOB DONE.
Note: The following floating-point exceptions are signalling: IEEE_INVALID_FLAG
Note: The following floating-point exceptions are signalling: IEEE_INVALID_FLAG
Note: The following floating-point exceptions are signalling: IEEE_INVALID_FLAG
Note: The following floating-point exceptions are signalling: IEEE_INVALID_FLAG
Note: The following floating-point exceptions are signalling: IEEE_INVALID_FLAG
Note: The following floating-point exceptions are signalling: IEEE_INVALID_FLAG
Note: The following floating-point exceptions are signalling: IEEE_INVALID_FLAG
Note: The following floating-point exceptions are signalling: IEEE_INVALID_FLAG
Note: The following floating-point exceptions are signalling: IEEE_INVALID_FLAG
Note: The following floating-point exceptions are signalling: IEEE_INVALID_FLAG
Note: The following floating-point exceptions are signalling: IEEE_INVALID_FLAG
Note: The following floating-point exceptions are signalling: IEEE_INVALID_FLAG
Note: The following floating-point exceptions are signalling: IEEE_INVALID_FLAG
Note: The following floating-point exceptions are signalling: IEEE_INVALID_FLAG
Note: The following floating-point exceptions are signalling: IEEE_INVALID_FLAG
Note: The following floating-point exceptions are signalling: IEEE_INVALID_FLAG
Note: The following floating-point exceptions are signalling: IEEE_INVALID_FLAG
Note: The following floating-point exceptions are signalling: IEEE_INVALID_FLAG
Note: The following floating-point exceptions are signalling: IEEE_INVALID_FLAG
Note: The following floating-point exceptions are signalling: IEEE_INVALID_FLAG
Note: The following floating-point exceptions are signalling: IEEE_INVALID_FLAG
Note: The following floating-point exceptions are signalling: IEEE_INVALID_FLAG
Note: The following floating-point exceptions are signalling: IEEE_INVALID_FLAG
Note: The following floating-point exceptions are signalling: IEEE_INVALID_FLAG
Note: The following floating-point exceptions are signalling: IEEE_INVALID_FLAG
Note: The following floating-point exceptions are signalling: IEEE_INVALID_FLAG
Note: The following floating-point exceptions are signalling: IEEE_INVALID_FLAG
Note: The following floating-point exceptions are signalling: IEEE_INVALID_FLAG
Note: The following floating-point exceptions are signalling: IEEE_INVALID_FLAG
Note: The following floating-point exceptions are signalling: IEEE_INVALID_FLAG
Note: The following floating-point exceptions are signalling: IEEE_INVALID_FLAG
Note: The following floating-point exceptions are signalling: IEEE_INVALID_FLAG
Note: The following floating-point exceptions are signalling: IEEE_INVALID_FLAG
Note: The following floating-point exceptions are signalling: IEEE_INVALID_FLAG
Note: The following floating-point exceptions are signalling: IEEE_INVALID_FLAG
Note: The following floating-point exceptions are signalling: IEEE_INVALID_FLAG
Note: The following floating-point exceptions are signalling: IEEE_INVALID_FLAG
Note: The following floating-point exceptions are signalling: IEEE_INVALID_FLAG
Note: The following floating-point exceptions are signalling: IEEE_INVALID_FLAG
Note: The following floating-point exceptions are signalling: IEEE_INVALID_FLAG
Note: The following floating-point exceptions are signalling: IEEE_INVALID_FLAG
Note: The following floating-point exceptions are signalling: IEEE_INVALID_FLAG
Note: The following floating-point exceptions are signalling: IEEE_INVALID_FLAG
Note: The following floating-point exceptions are signalling: IEEE_INVALID_FLAG
Note: The following floating-point exceptions are signalling: IEEE_INVALID_FLAG
Note: The following floating-point exceptions are signalling: IEEE_INVALID_FLAG
Note: The following floating-point exceptions are signalling: IEEE_INVALID_FLAG
Note: The following floating-point exceptions are signalling: IEEE_INVALID_FLAG
Note: The following floating-point exceptions are signalling: IEEE_INVALID_FLAG
Note: The following floating-point exceptions are signalling: IEEE_INVALID_FLAG
Note: The following floating-point exceptions are signalling: IEEE_INVALID_FLAG
Note: The following floating-point exceptions are signalling: IEEE_INVALID_FLAG
Note: The following floating-point exceptions are signalling: IEEE_INVALID_FLAG
Note: The following floating-point exceptions are signalling: IEEE_INVALID_FLAG
Note: The following floating-point exceptions are signalling: IEEE_INVALID_FLAG
Note: The following floating-point exceptions are signalling: IEEE_INVALID_FLAG
Note: The following floating-point exceptions are signalling: IEEE_INVALID_FLAG
Note: The following floating-point exceptions are signalling: IEEE_INVALID_FLAG
Note: The following floating-point exceptions are signalling: IEEE_INVALID_FLAG
Note: The following floating-point exceptions are signalling: IEEE_INVALID_FLAG
Note: The following floating-point exceptions are signalling: IEEE_INVALID_FLAG
Note: The following floating-point exceptions are signalling: IEEE_INVALID_FLAG
Note: The following floating-point exceptions are signalling: IEEE_INVALID_FLAG
Note: The following floating-point exceptions are signalling: IEEE_INVALID_FLAG