     Program PWSCF v.7.2 starts on 28Jul2025 at 21:42: 5

     Reading input from /home/jvc/QEspresso7.2/ZnO_database/scripts/cell313.in/ZnO-3.01-1.71-313.in
Warning: card &CELL ignored
Warning: card / ignored
Warning: card &FCP ignored
Warning: card / ignored
Warning: card &RISM ignored
Warning: card / ignored

     Current dimensions of program PWSCF are:
     Max number of different atomic species (ntypx) = 10
     Max number of k-points (npk) =  40000
     Max angular momentum in pseudopotentials (lmaxx) =  4
     file Zn.upf: wavefunction(s)  3D renormalized
     Found identity + (  0.0000  0.0000  0.3333) symmetry
     This is a supercell, fractional translations are disabled
     Message from routine setup:
     using ibrav=0 with symmetry is DISCOURAGED, use correct ibrav instead

     K-points division:     npool     =       8
     R & G space division:  proc/nbgrp/npool/nimage =       4
     Subspace diagonalization in iterative solution of the eigenvalue problem:
     one sub-group per band group will be used

     Using Slab Decomposition

     bravais-lattice index     =            0
     lattice parameter (alat)  =      18.5365  a.u.
     unit-cell volume          =    2968.1791 (a.u.)^3
     number of atoms/cell      =           36
     number of atomic types    =            2
     number of electrons       =       324.00
     number of Kohn-Sham states=          162
     kinetic-energy cutoff     =      50.0000  Ry
     charge density cutoff     =     400.0000  Ry
     scf convergence threshold =      1.0E-08
     mixing beta               =       0.3000
     number of iterations used =            8  plain     mixing
     Exchange-correlation= PBE
                           (   1   4   3   4   0   0   0)

     celldm(1)=  18.536466  celldm(2)=   0.000000  celldm(3)=   0.000000
     celldm(4)=   0.000000  celldm(5)=   0.000000  celldm(6)=   0.000000

     crystal axes: (cart. coord. in units of alat)
               a(1) = (   1.000000   0.000000   0.000000 )
               a(2) = (  -0.166667   0.288675   0.000000 )
               a(3) = (   0.000000   0.000000   1.614358 )

     reciprocal axes: (cart. coord. in units 2 pi/alat)
               b(1) = (  1.000000  0.577350 -0.000000 )
               b(2) = (  0.000000  3.464102  0.000000 )
               b(3) = (  0.000000 -0.000000  0.619441 )

     PseudoPot. # 1 for Zn read from file:
     /home/jvc/QEspresso7.2/ZnO_database/pseudos/Zn.upf
     MD5 check sum: 7f56cabf9682ed8c977c2f7d0c5985c5
     Pseudo is Ultrasoft + core correction, Zval = 12.0
     Generated using &quot;atomic&quot; code by A. Dal Corso  v.6.2.2
     Using radial grid of 1201 points,  6 beta functions with:
                l(1) =   0
                l(2) =   0
                l(3) =   1
                l(4) =   1
                l(5) =   2
                l(6) =   2
     Q(r) pseudized with 0 coefficients

     PseudoPot. # 2 for O  read from file:
     /home/jvc/QEspresso7.2/ZnO_database/pseudos/O.upf
     MD5 check sum: 91400c9766925bcf19f520983a725ff0
     Pseudo is Ultrasoft + core correction, Zval =  6.0
     Generated using &quot;atomic&quot; code by A. Dal Corso  v.6.3MaX
     Using radial grid of 1095 points,  4 beta functions with:
                l(1) =   0
                l(2) =   0
                l(3) =   1
                l(4) =   1
     Q(r) pseudized with 0 coefficients

     atomic species   valence    mass     pseudopotential
        Zn            12.00    65.38000     Zn( 1.00)
        O              6.00    15.99900     O ( 1.00)

      2 Sym. Ops. (no inversion) found

                                    s                        frac. trans.

      isym =  1     identity

 cryst.   s( 1) = (     1          0          0      )
                  (     0          1          0      )
                  (     0          0          1      )

 cart.    s( 1) = (  1.0000000  0.0000000  0.0000000 )
                  (  0.0000000  1.0000000  0.0000000 )
                  (  0.0000000  0.0000000  1.0000000 )

      isym =  2     inv. 180 deg rotation - cryst. axis [0,1,0]

 cryst.   s( 2) = (     1          3          0      )
                  (     0         -1          0      )
                  (     0          0          1      )

 cart.    s( 2) = (  0.5000000  0.8660254  0.0000000 )
                  (  0.8660254 -0.5000000  0.0000000 )
                  (  0.0000000  0.0000000  1.0000000 )

   Cartesian axes

     site n.     atom                  positions (alat units)
         1           Zn  tau(   1) = (   0.1666667   0.0962250   0.2694007  )
         2           Zn  tau(   2) = (   0.0000000   0.1924501   0.0003409  )
         3           O   tau(   3) = (   0.1666667   0.0962250   0.4733710  )
         4           O   tau(   4) = (   0.0000000   0.1924501   0.2043113  )
         5           Zn  tau(   5) = (   0.1666667   0.0962250   0.8075201  )
         6           Zn  tau(   6) = (   0.0000000   0.1924501   0.5384604  )
         7           O   tau(   7) = (   0.1666667   0.0962250   1.0114904  )
         8           O   tau(   8) = (   0.0000000   0.1924501   0.7424307  )
         9           Zn  tau(   9) = (   0.1666667   0.0962250   1.3456396  )
        10           Zn  tau(  10) = (   0.0000000   0.1924501   1.0765798  )
        11           O   tau(  11) = (   0.1666667   0.0962250   1.5496099  )
        12           O   tau(  12) = (   0.0000000   0.1924501   1.2805502  )
        13           Zn  tau(  13) = (   0.5000000   0.0962250   0.2694007  )
        14           Zn  tau(  14) = (   0.3333333   0.1924501   0.0003409  )
        15           O   tau(  15) = (   0.5000000   0.0962250   0.4733710  )
        16           O   tau(  16) = (   0.3333333   0.1924501   0.2043113  )
        17           Zn  tau(  17) = (   0.5000000   0.0962250   0.8075201  )
        18           Zn  tau(  18) = (   0.3333333   0.1924501   0.5384604  )
        19           O   tau(  19) = (   0.5000000   0.0962250   1.0114904  )
        20           O   tau(  20) = (   0.3333333   0.1924501   0.7424307  )
        21           Zn  tau(  21) = (   0.5000000   0.0962250   1.3456396  )
        22           Zn  tau(  22) = (   0.3333333   0.1924501   1.0765798  )
        23           O   tau(  23) = (   0.5000000   0.0962250   1.5496099  )
        24           O   tau(  24) = (   0.3333333   0.1924501   1.2805502  )
        25           Zn  tau(  25) = (   0.8333333   0.0962250   0.2694007  )
        26           Zn  tau(  26) = (   0.6666667   0.1924501   0.0003409  )
        27           O   tau(  27) = (   0.8333333   0.0962250   0.4733710  )
        28           O   tau(  28) = (   0.6666667   0.1924501   0.2043113  )
        29           Zn  tau(  29) = (   0.8333333   0.0962250   0.8075201  )
        30           Zn  tau(  30) = (   0.6666667   0.1924501   0.5384604  )
        31           O   tau(  31) = (   0.8333333   0.0962250   1.0114904  )
        32           O   tau(  32) = (   0.6666667   0.1924501   0.7424307  )
        33           Zn  tau(  33) = (   0.8333333   0.0962250   1.3456396  )
        34           Zn  tau(  34) = (   0.6666667   0.1924501   1.0765798  )
        35           O   tau(  35) = (   0.8333333   0.0962250   1.5496099  )
        36           O   tau(  36) = (   0.6666667   0.1924501   1.2805502  )

   Crystallographic axes

     site n.     atom                  positions (cryst. coord.)
         1           Zn  tau(   1) = (  0.2222222  0.3333333  0.1668779  )
         2           Zn  tau(   2) = (  0.1111111  0.6666667  0.0002112  )
         3           O   tau(   3) = (  0.2222222  0.3333333  0.2932255  )
         4           O   tau(   4) = (  0.1111111  0.6666667  0.1265588  )
         5           Zn  tau(   5) = (  0.2222222  0.3333333  0.5002112  )
         6           Zn  tau(   6) = (  0.1111111  0.6666667  0.3335445  )
         7           O   tau(   7) = (  0.2222222  0.3333333  0.6265588  )
         8           O   tau(   8) = (  0.1111111  0.6666667  0.4598921  )
         9           Zn  tau(   9) = (  0.2222222  0.3333333  0.8335445  )
        10           Zn  tau(  10) = (  0.1111111  0.6666667  0.6668779  )
        11           O   tau(  11) = (  0.2222222  0.3333333  0.9598921  )
        12           O   tau(  12) = (  0.1111111  0.6666667  0.7932255  )
        13           Zn  tau(  13) = (  0.5555556  0.3333333  0.1668779  )
        14           Zn  tau(  14) = (  0.4444444  0.6666667  0.0002112  )
        15           O   tau(  15) = (  0.5555556  0.3333333  0.2932255  )
        16           O   tau(  16) = (  0.4444444  0.6666667  0.1265588  )
        17           Zn  tau(  17) = (  0.5555556  0.3333333  0.5002112  )
        18           Zn  tau(  18) = (  0.4444444  0.6666667  0.3335445  )
        19           O   tau(  19) = (  0.5555556  0.3333333  0.6265588  )
        20           O   tau(  20) = (  0.4444444  0.6666667  0.4598921  )
        21           Zn  tau(  21) = (  0.5555556  0.3333333  0.8335445  )
        22           Zn  tau(  22) = (  0.4444444  0.6666667  0.6668779  )
        23           O   tau(  23) = (  0.5555556  0.3333333  0.9598921  )
        24           O   tau(  24) = (  0.4444444  0.6666667  0.7932255  )
        25           Zn  tau(  25) = (  0.8888889  0.3333333  0.1668779  )
        26           Zn  tau(  26) = (  0.7777778  0.6666667  0.0002112  )
        27           O   tau(  27) = (  0.8888889  0.3333333  0.2932255  )
        28           O   tau(  28) = (  0.7777778  0.6666667  0.1265588  )
        29           Zn  tau(  29) = (  0.8888889  0.3333333  0.5002112  )
        30           Zn  tau(  30) = (  0.7777778  0.6666667  0.3335445  )
        31           O   tau(  31) = (  0.8888889  0.3333333  0.6265588  )
        32           O   tau(  32) = (  0.7777778  0.6666667  0.4598921  )
        33           Zn  tau(  33) = (  0.8888889  0.3333333  0.8335445  )
        34           Zn  tau(  34) = (  0.7777778  0.6666667  0.6668779  )
        35           O   tau(  35) = (  0.8888889  0.3333333  0.9598921  )
        36           O   tau(  36) = (  0.7777778  0.6666667  0.7932255  )

     number of k points=    12
                       cart. coord. in units 2pi/alat
        k(    1) = (   0.0000000   0.0000000   0.0000000), wk =   0.0833333
        k(    2) = (   0.0000000   0.0000000  -0.3097206), wk =   0.0833333
        k(    3) = (   0.0000000   0.5773503   0.0000000), wk =   0.3333333
        k(    4) = (   0.0000000   0.5773503  -0.3097206), wk =   0.3333333
        k(    5) = (   0.0000000   1.1547005   0.0000000), wk =   0.1666667
        k(    6) = (   0.0000000   1.1547005  -0.3097206), wk =   0.1666667
        k(    7) = (   0.0000000  -1.7320508   0.0000000), wk =   0.1666667
        k(    8) = (   0.0000000  -1.7320508  -0.3097206), wk =   0.1666667
        k(    9) = (  -0.5000000  -0.2886751   0.0000000), wk =   0.0833333
        k(   10) = (  -0.5000000  -0.2886751  -0.3097206), wk =   0.0833333
        k(   11) = (  -0.5000000   0.8660254   0.0000000), wk =   0.1666667
        k(   12) = (  -0.5000000   0.8660254  -0.3097206), wk =   0.1666667

                       cryst. coord.
[...]
     atom   18 type  1   force =     0.00000025    0.00000015   -0.00483142
     atom   19 type  2   force =    -0.00000025   -0.00000015    0.00575426
     atom   20 type  2   force =    -0.00000043   -0.00000025    0.00575404
     atom   21 type  1   force =     0.00000045    0.00000026   -0.00483347
     atom   22 type  1   force =    -0.00000024   -0.00000014   -0.00483412
     atom   23 type  2   force =     0.00000032    0.00000018    0.00575404
     atom   24 type  2   force =    -0.00000009   -0.00000005    0.00575363
     atom   25 type  1   force =    -0.00000010   -0.00000006   -0.00483311
     atom   26 type  1   force =     0.00000005    0.00000003   -0.00483268
     atom   27 type  2   force =    -0.00000009   -0.00000005    0.00575365
     atom   28 type  2   force =    -0.00000026   -0.00000015    0.00575468
     atom   29 type  1   force =     0.00000010    0.00000006   -0.00483263
     atom   30 type  1   force =    -0.00000078   -0.00000045   -0.00483162
     atom   31 type  2   force =     0.00000014    0.00000008    0.00575422
     atom   32 type  2   force =     0.00000013    0.00000007    0.00575423
     atom   33 type  1   force =     0.00000045    0.00000026   -0.00483394
     atom   34 type  1   force =    -0.00000020   -0.00000012   -0.00483426
     atom   35 type  2   force =     0.00000041    0.00000023    0.00575430
     atom   36 type  2   force =    -0.00000005   -0.00000003    0.00575379
     The ionic contribution  to forces
     atom    1 type  1   force =     0.00000001    0.00000000    0.06271746
     atom    2 type  1   force =     0.00000000    0.00000000    0.06271750
     atom    3 type  2   force =     0.00000001    0.00000000   -0.06271747
     atom    4 type  2   force =     0.00000000    0.00000000   -0.06271748
     atom    5 type  1   force =     0.00000001    0.00000000    0.06271750
     atom    6 type  1   force =     0.00000000    0.00000000    0.06271746
     atom    7 type  2   force =     0.00000001    0.00000000   -0.06271748
     atom    8 type  2   force =     0.00000000    0.00000000   -0.06271746
     atom    9 type  1   force =     0.00000001    0.00000000    0.06271746
     atom   10 type  1   force =     0.00000000    0.00000000    0.06271746
     atom   11 type  2   force =     0.00000001    0.00000000   -0.06271746
     atom   12 type  2   force =     0.00000000    0.00000000   -0.06271747
     atom   13 type  1   force =    -0.00000001    0.00000000    0.06271746
     atom   14 type  1   force =     0.00000001   -0.00000000    0.06271749
     atom   15 type  2   force =    -0.00000000    0.00000000   -0.06271747
     atom   16 type  2   force =     0.00000000   -0.00000000   -0.06271748
     atom   17 type  1   force =    -0.00000001    0.00000000    0.06271749
     atom   18 type  1   force =     0.00000001   -0.00000000    0.06271745
     atom   19 type  2   force =    -0.00000000    0.00000000   -0.06271748
     atom   20 type  2   force =     0.00000000   -0.00000000   -0.06271746
     atom   21 type  1   force =    -0.00000001    0.00000000    0.06271745
     atom   22 type  1   force =     0.00000001   -0.00000000    0.06271746
     atom   23 type  2   force =    -0.00000000    0.00000000   -0.06271746
     atom   24 type  2   force =     0.00000000   -0.00000000   -0.06271747
     atom   25 type  1   force =    -0.00000000   -0.00000000    0.06271746
     atom   26 type  1   force =    -0.00000001   -0.00000000    0.06271750
     atom   27 type  2   force =    -0.00000000   -0.00000000   -0.06271747
     atom   28 type  2   force =    -0.00000001   -0.00000000   -0.06271748
     atom   29 type  1   force =    -0.00000000   -0.00000000    0.06271750
     atom   30 type  1   force =    -0.00000001   -0.00000000    0.06271746
     atom   31 type  2   force =    -0.00000000   -0.00000000   -0.06271748
     atom   32 type  2   force =    -0.00000001   -0.00000000   -0.06271746
     atom   33 type  1   force =    -0.00000000   -0.00000000    0.06271746
     atom   34 type  1   force =    -0.00000001   -0.00000000    0.06271746
     atom   35 type  2   force =    -0.00000000   -0.00000000   -0.06271746
     atom   36 type  2   force =    -0.00000001   -0.00000000   -0.06271747
     The local contribution  to forces
     atom    1 type  1   force =     0.00000174    0.00000101   -0.05828840
     atom    2 type  1   force =    -0.00000011   -0.00000011   -0.05828832
     atom    3 type  2   force =    -0.00000047   -0.00000027    0.05696129
     atom    4 type  2   force =     0.00000149    0.00000085    0.05696521
     atom    5 type  1   force =     0.00000106    0.00000061   -0.05828924
     atom    6 type  1   force =     0.00000089    0.00000046   -0.05829407
     atom    7 type  2   force =     0.00000100    0.00000058    0.05696734
     atom    8 type  2   force =     0.00000072    0.00000040    0.05696285
     atom    9 type  1   force =     0.00000004    0.00000002   -0.05828760
     atom   10 type  1   force =     0.00000060    0.00000029   -0.05828410
     atom   11 type  2   force =     0.00000063    0.00000036    0.05696483
     atom   12 type  2   force =     0.00000058    0.00000032    0.05696729
     atom   13 type  1   force =    -0.00000328   -0.00000179   -0.05829199
     atom   14 type  1   force =     0.00000026    0.00000005   -0.05828661
     atom   15 type  2   force =    -0.00000128   -0.00000071    0.05696126
     atom   16 type  2   force =    -0.00000129   -0.00000077    0.05696375
     atom   17 type  1   force =    -0.00000219   -0.00000117   -0.05828718
     atom   18 type  1   force =    -0.00000295   -0.00000180   -0.05829241
     atom   19 type  2   force =    -0.00000056   -0.00000030    0.05696815
     atom   20 type  2   force =    -0.00000112   -0.00000067    0.05696462
     atom   21 type  1   force =    -0.00000095   -0.00000045   -0.05828701
     atom   22 type  1   force =     0.00000077    0.00000035   -0.05828450
     atom   23 type  2   force =    -0.00000029   -0.00000014    0.05696475
     atom   24 type  2   force =     0.00000037    0.00000019    0.05696717
     atom   25 type  1   force =     0.00000110    0.00000069   -0.05828833
     atom   26 type  1   force =    -0.00000001   -0.00000001   -0.05828962
     atom   27 type  2   force =     0.00000263    0.00000153    0.05696242
     atom   28 type  2   force =    -0.00000008   -0.00000004    0.05696273
     atom   29 type  1   force =     0.00000055    0.00000037   -0.05828817
     atom   30 type  1   force =     0.00000271    0.00000156   -0.05829273
     atom   31 type  2   force =    -0.00000039   -0.00000021    0.05696793
     atom   32 type  2   force =     0.00000035    0.00000020    0.05696475
     atom   33 type  1   force =    -0.00000050   -0.00000024   -0.05828533
     atom   34 type  1   force =    -0.00000038   -0.00000022   -0.05828454
     atom   35 type  2   force =    -0.00000042   -0.00000023    0.05696430
     atom   36 type  2   force =    -0.00000033   -0.00000019    0.05696709
     The core correction contribution to forces
     atom    1 type  1   force =    -0.00000004   -0.00000002    0.00046399
     atom    2 type  1   force =     0.00000003    0.00000001    0.00046399
     atom    3 type  2   force =    -0.00000000   -0.00000000   -0.00006504
     atom    4 type  2   force =     0.00000001    0.00000000   -0.00006503
     atom    5 type  1   force =    -0.00000001   -0.00000000    0.00046400
     atom    6 type  1   force =    -0.00000001   -0.00000001    0.00046405
     atom    7 type  2   force =     0.00000000    0.00000000   -0.00006503
     atom    8 type  2   force =    -0.00000000   -0.00000000   -0.00006504
     atom    9 type  1   force =    -0.00000003   -0.00000002    0.00046403
     atom   10 type  1   force =     0.00000001    0.00000000    0.00046399
     atom   11 type  2   force =     0.00000000    0.00000000   -0.00006503
     atom   12 type  2   force =     0.00000000    0.00000000   -0.00006502
     atom   13 type  1   force =     0.00000004    0.00000003    0.00046407
     atom   14 type  1   force =    -0.00000001   -0.00000002    0.00046395
     atom   15 type  2   force =     0.00000000    0.00000000   -0.00006504
     atom   16 type  2   force =    -0.00000000   -0.00000000   -0.00006504
     atom   17 type  1   force =     0.00000001    0.00000002    0.00046396
     atom   18 type  1   force =     0.00000008    0.00000003    0.00046402
     atom   19 type  2   force =     0.00000000    0.00000000   -0.00006503
     atom   20 type  2   force =     0.00000000    0.00000000   -0.00006503
     atom   21 type  1   force =     0.00000000    0.00000001    0.00046402
     atom   22 type  1   force =     0.00000000   -0.00000001    0.00046399
     atom   23 type  2   force =    -0.00000000   -0.00000000   -0.00006503
     atom   24 type  2   force =     0.00000000    0.00000000   -0.00006502
     atom   25 type  1   force =    -0.00000002   -0.00000000    0.00046401
     atom   26 type  1   force =    -0.00000001   -0.00000001    0.00046402
     atom   27 type  2   force =     0.00000001    0.00000000   -0.00006503
     atom   28 type  2   force =     0.00000000    0.00000000   -0.00006504
     atom   29 type  1   force =    -0.00000003   -0.00000001    0.00046396
     atom   30 type  1   force =    -0.00000003   -0.00000002    0.00046406
     atom   31 type  2   force =    -0.00000000   -0.00000000   -0.00006503
     atom   32 type  2   force =    -0.00000000   -0.00000000   -0.00006503
     atom   33 type  1   force =    -0.00000003   -0.00000001    0.00046399
     atom   34 type  1   force =     0.00000003    0.00000002    0.00046401
     atom   35 type  2   force =    -0.00000000   -0.00000000   -0.00006503
     atom   36 type  2   force =     0.00000000    0.00000000   -0.00006502
     The Hubbard contrib.    to forces
     atom    1 type  1   force =     0.00000000    0.00000000    0.00000000
     atom    2 type  1   force =     0.00000000    0.00000000    0.00000000
     atom    3 type  2   force =     0.00000000    0.00000000    0.00000000
     atom    4 type  2   force =     0.00000000    0.00000000    0.00000000
     atom    5 type  1   force =     0.00000000    0.00000000    0.00000000
     atom    6 type  1   force =     0.00000000    0.00000000    0.00000000
     atom    7 type  2   force =     0.00000000    0.00000000    0.00000000
     atom    8 type  2   force =     0.00000000    0.00000000    0.00000000
     atom    9 type  1   force =     0.00000000    0.00000000    0.00000000
     atom   10 type  1   force =     0.00000000    0.00000000    0.00000000
     atom   11 type  2   force =     0.00000000    0.00000000    0.00000000
     atom   12 type  2   force =     0.00000000    0.00000000    0.00000000
     atom   13 type  1   force =     0.00000000    0.00000000    0.00000000
     atom   14 type  1   force =     0.00000000    0.00000000    0.00000000
     atom   15 type  2   force =     0.00000000    0.00000000    0.00000000
     atom   16 type  2   force =     0.00000000    0.00000000    0.00000000
     atom   17 type  1   force =     0.00000000    0.00000000    0.00000000
     atom   18 type  1   force =     0.00000000    0.00000000    0.00000000
     atom   19 type  2   force =     0.00000000    0.00000000    0.00000000
     atom   20 type  2   force =     0.00000000    0.00000000    0.00000000
     atom   21 type  1   force =     0.00000000    0.00000000    0.00000000
     atom   22 type  1   force =     0.00000000    0.00000000    0.00000000
     atom   23 type  2   force =     0.00000000    0.00000000    0.00000000
     atom   24 type  2   force =     0.00000000    0.00000000    0.00000000
     atom   25 type  1   force =     0.00000000    0.00000000    0.00000000
     atom   26 type  1   force =     0.00000000    0.00000000    0.00000000
     atom   27 type  2   force =     0.00000000    0.00000000    0.00000000
     atom   28 type  2   force =     0.00000000    0.00000000    0.00000000
     atom   29 type  1   force =     0.00000000    0.00000000    0.00000000
     atom   30 type  1   force =     0.00000000    0.00000000    0.00000000
     atom   31 type  2   force =     0.00000000    0.00000000    0.00000000
     atom   32 type  2   force =     0.00000000    0.00000000    0.00000000
     atom   33 type  1   force =     0.00000000    0.00000000    0.00000000
     atom   34 type  1   force =     0.00000000    0.00000000    0.00000000
     atom   35 type  2   force =     0.00000000    0.00000000    0.00000000
     atom   36 type  2   force =     0.00000000    0.00000000    0.00000000
     The SCF correction term to forces
     atom    1 type  1   force =    -0.00000277   -0.00000160    0.00000011
     atom    2 type  1   force =     0.00000046    0.00000027   -0.00000002
     atom    3 type  2   force =     0.00000030    0.00000017    0.00000474
     atom    4 type  2   force =    -0.00000144   -0.00000083    0.00000037
     atom    5 type  1   force =    -0.00000167   -0.00000097    0.00000135
     atom    6 type  1   force =    -0.00000115   -0.00000066    0.00000819
     atom    7 type  2   force =    -0.00000115   -0.00000067   -0.00000216
     atom    8 type  2   force =    -0.00000087   -0.00000050    0.00000258
     atom    9 type  1   force =    -0.00000041   -0.00000024   -0.00000091
     atom   10 type  1   force =    -0.00000036   -0.00000021   -0.00000610
     atom   11 type  2   force =    -0.00000071   -0.00000041    0.00000049
     atom   12 type  2   force =    -0.00000041   -0.00000024   -0.00000143
     atom   13 type  1   force =     0.00000485    0.00000280    0.00000558
     atom   14 type  1   force =     0.00000005    0.00000003   -0.00000222
     atom   15 type  2   force =     0.00000176    0.00000102    0.00000479
     atom   16 type  2   force =     0.00000132    0.00000076    0.00000172
     atom   17 type  1   force =     0.00000269    0.00000155   -0.00000237
     atom   18 type  1   force =     0.00000527    0.00000304    0.00000579
     atom   19 type  2   force =     0.00000051    0.00000029   -0.00000305
     atom   20 type  2   force =     0.00000180    0.00000104    0.00000088
     atom   21 type  1   force =     0.00000087    0.00000051   -0.00000203
     atom   22 type  1   force =    -0.00000110   -0.00000063   -0.00000589
     atom   23 type  2   force =    -0.00000006   -0.00000004    0.00000088
     atom   24 type  2   force =    -0.00000016   -0.00000009   -0.00000103
     atom   25 type  1   force =    -0.00000216   -0.00000125    0.00000063
     atom   26 type  1   force =     0.00000008    0.00000004    0.00000204
     atom   27 type  2   force =    -0.00000284   -0.00000164    0.00000393
     atom   28 type  2   force =     0.00000024    0.00000014    0.00000267
     atom   29 type  1   force =    -0.00000112   -0.00000065   -0.00000051
     atom   30 type  1   force =    -0.00000378   -0.00000218    0.00000636
     atom   31 type  2   force =     0.00000024    0.00000014   -0.00000271
     atom   32 type  2   force =    -0.00000049   -0.00000028    0.00000060
     atom   33 type  1   force =     0.00000041    0.00000024   -0.00000454
     atom   34 type  1   force =     0.00000132    0.00000076   -0.00000586
     atom   35 type  2   force =     0.00000006    0.00000004    0.00000133
     atom   36 type  2   force =     0.00000063    0.00000037   -0.00000145

     Total force =     0.000369     Total SCF correction =     0.000024

     General routines

     Parallel routines

   This run was terminated on:  21:54:32  28Jul2025

   JOB DONE.
Note: The following floating-point exceptions are signalling: IEEE_INVALID_FLAG
Note: The following floating-point exceptions are signalling: IEEE_INVALID_FLAG
Note: The following floating-point exceptions are signalling: IEEE_INVALID_FLAG
Note: The following floating-point exceptions are signalling: IEEE_INVALID_FLAG
Note: The following floating-point exceptions are signalling: IEEE_INVALID_FLAG
Note: The following floating-point exceptions are signalling: IEEE_DENORMAL
Note: The following floating-point exceptions are signalling: IEEE_DENORMAL
Note: The following floating-point exceptions are signalling: IEEE_DENORMAL
Note: The following floating-point exceptions are signalling: IEEE_DENORMAL
Note: The following floating-point exceptions are signalling: IEEE_DENORMAL
Note: The following floating-point exceptions are signalling: IEEE_DENORMAL
Note: The following floating-point exceptions are signalling: IEEE_DENORMAL
Note: The following floating-point exceptions are signalling: IEEE_DENORMAL
Note: The following floating-point exceptions are signalling: IEEE_INVALID_FLAG
Note: The following floating-point exceptions are signalling: IEEE_INVALID_FLAG
Note: The following floating-point exceptions are signalling: IEEE_INVALID_FLAG