     Program PWSCF v.7.2 starts on 29Jul2025 at  3:24:52

     Reading input from /home/jvc/QEspresso7.2/ZnO_database/scripts/cell313.in/ZnO-3.20-1.55-313.in
Warning: card &CELL ignored
Warning: card / ignored
Warning: card &FCP ignored
Warning: card / ignored
Warning: card &RISM ignored
Warning: card / ignored

     Current dimensions of program PWSCF are:
     Max number of different atomic species (ntypx) = 10
     Max number of k-points (npk) =  40000
     Max angular momentum in pseudopotentials (lmaxx) =  4
     file Zn.upf: wavefunction(s)  3D renormalized
     Found identity + (  0.0000  0.0000  0.3333) symmetry
     This is a supercell, fractional translations are disabled
     Message from routine setup:
     using ibrav=0 with symmetry is DISCOURAGED, use correct ibrav instead

     K-points division:     npool     =       8
     R & G space division:  proc/nbgrp/npool/nimage =       4
     Subspace diagonalization in iterative solution of the eigenvalue problem:
     one sub-group per band group will be used

     Using Slab Decomposition

     bravais-lattice index     =            0
     lattice parameter (alat)  =      18.5365  a.u.
     unit-cell volume          =    2968.1791 (a.u.)^3
     number of atoms/cell      =           36
     number of atomic types    =            2
     number of electrons       =       324.00
     number of Kohn-Sham states=          162
     kinetic-energy cutoff     =      50.0000  Ry
     charge density cutoff     =     400.0000  Ry
     scf convergence threshold =      1.0E-08
     mixing beta               =       0.3000
     number of iterations used =            8  plain     mixing
     Exchange-correlation= PBE
                           (   1   4   3   4   0   0   0)

     celldm(1)=  18.536466  celldm(2)=   0.000000  celldm(3)=   0.000000
     celldm(4)=   0.000000  celldm(5)=   0.000000  celldm(6)=   0.000000

     crystal axes: (cart. coord. in units of alat)
               a(1) = (   1.000000   0.000000   0.000000 )
               a(2) = (  -0.166667   0.288675   0.000000 )
               a(3) = (   0.000000   0.000000   1.614358 )

     reciprocal axes: (cart. coord. in units 2 pi/alat)
               b(1) = (  1.000000  0.577350 -0.000000 )
               b(2) = (  0.000000  3.464102  0.000000 )
               b(3) = (  0.000000 -0.000000  0.619441 )

     PseudoPot. # 1 for Zn read from file:
     /home/jvc/QEspresso7.2/ZnO_database/pseudos/Zn.upf
     MD5 check sum: 7f56cabf9682ed8c977c2f7d0c5985c5
     Pseudo is Ultrasoft + core correction, Zval = 12.0
     Generated using &quot;atomic&quot; code by A. Dal Corso  v.6.2.2
     Using radial grid of 1201 points,  6 beta functions with:
                l(1) =   0
                l(2) =   0
                l(3) =   1
                l(4) =   1
                l(5) =   2
                l(6) =   2
     Q(r) pseudized with 0 coefficients

     PseudoPot. # 2 for O  read from file:
     /home/jvc/QEspresso7.2/ZnO_database/pseudos/O.upf
     MD5 check sum: 91400c9766925bcf19f520983a725ff0
     Pseudo is Ultrasoft + core correction, Zval =  6.0
     Generated using &quot;atomic&quot; code by A. Dal Corso  v.6.3MaX
     Using radial grid of 1095 points,  4 beta functions with:
                l(1) =   0
                l(2) =   0
                l(3) =   1
                l(4) =   1
     Q(r) pseudized with 0 coefficients

     atomic species   valence    mass     pseudopotential
        Zn            12.00    65.38000     Zn( 1.00)
        O              6.00    15.99900     O ( 1.00)

      2 Sym. Ops. (no inversion) found

                                    s                        frac. trans.

      isym =  1     identity

 cryst.   s( 1) = (     1          0          0      )
                  (     0          1          0      )
                  (     0          0          1      )

 cart.    s( 1) = (  1.0000000  0.0000000  0.0000000 )
                  (  0.0000000  1.0000000  0.0000000 )
                  (  0.0000000  0.0000000  1.0000000 )

      isym =  2     inv. 180 deg rotation - cryst. axis [0,1,0]

 cryst.   s( 2) = (     1          3          0      )
                  (     0         -1          0      )
                  (     0          0          1      )

 cart.    s( 2) = (  0.5000000  0.8660254  0.0000000 )
                  (  0.8660254 -0.5000000  0.0000000 )
                  (  0.0000000  0.0000000  1.0000000 )

   Cartesian axes

     site n.     atom                  positions (alat units)
         1           Zn  tau(   1) = (   0.1666667   0.0962250   0.2694007  )
         2           Zn  tau(   2) = (   0.0000000   0.1924501   0.0003409  )
         3           O   tau(   3) = (   0.1666667   0.0962250   0.4733710  )
         4           O   tau(   4) = (   0.0000000   0.1924501   0.2043113  )
         5           Zn  tau(   5) = (   0.1666667   0.0962250   0.8075201  )
         6           Zn  tau(   6) = (   0.0000000   0.1924501   0.5384604  )
         7           O   tau(   7) = (   0.1666667   0.0962250   1.0114904  )
         8           O   tau(   8) = (   0.0000000   0.1924501   0.7424307  )
         9           Zn  tau(   9) = (   0.1666667   0.0962250   1.3456396  )
        10           Zn  tau(  10) = (   0.0000000   0.1924501   1.0765798  )
        11           O   tau(  11) = (   0.1666667   0.0962250   1.5496099  )
        12           O   tau(  12) = (   0.0000000   0.1924501   1.2805502  )
        13           Zn  tau(  13) = (   0.5000000   0.0962250   0.2694007  )
        14           Zn  tau(  14) = (   0.3333333   0.1924501   0.0003409  )
        15           O   tau(  15) = (   0.5000000   0.0962250   0.4733710  )
        16           O   tau(  16) = (   0.3333333   0.1924501   0.2043113  )
        17           Zn  tau(  17) = (   0.5000000   0.0962250   0.8075201  )
        18           Zn  tau(  18) = (   0.3333333   0.1924501   0.5384604  )
        19           O   tau(  19) = (   0.5000000   0.0962250   1.0114904  )
        20           O   tau(  20) = (   0.3333333   0.1924501   0.7424307  )
        21           Zn  tau(  21) = (   0.5000000   0.0962250   1.3456396  )
        22           Zn  tau(  22) = (   0.3333333   0.1924501   1.0765798  )
        23           O   tau(  23) = (   0.5000000   0.0962250   1.5496099  )
        24           O   tau(  24) = (   0.3333333   0.1924501   1.2805502  )
        25           Zn  tau(  25) = (   0.8333333   0.0962250   0.2694007  )
        26           Zn  tau(  26) = (   0.6666667   0.1924501   0.0003409  )
        27           O   tau(  27) = (   0.8333333   0.0962250   0.4733710  )
        28           O   tau(  28) = (   0.6666667   0.1924501   0.2043113  )
        29           Zn  tau(  29) = (   0.8333333   0.0962250   0.8075201  )
        30           Zn  tau(  30) = (   0.6666667   0.1924501   0.5384604  )
        31           O   tau(  31) = (   0.8333333   0.0962250   1.0114904  )
        32           O   tau(  32) = (   0.6666667   0.1924501   0.7424307  )
        33           Zn  tau(  33) = (   0.8333333   0.0962250   1.3456396  )
        34           Zn  tau(  34) = (   0.6666667   0.1924501   1.0765798  )
        35           O   tau(  35) = (   0.8333333   0.0962250   1.5496099  )
        36           O   tau(  36) = (   0.6666667   0.1924501   1.2805502  )

   Crystallographic axes

     site n.     atom                  positions (cryst. coord.)
         1           Zn  tau(   1) = (  0.2222222  0.3333333  0.1668779  )
         2           Zn  tau(   2) = (  0.1111111  0.6666667  0.0002112  )
         3           O   tau(   3) = (  0.2222222  0.3333333  0.2932255  )
         4           O   tau(   4) = (  0.1111111  0.6666667  0.1265588  )
         5           Zn  tau(   5) = (  0.2222222  0.3333333  0.5002112  )
         6           Zn  tau(   6) = (  0.1111111  0.6666667  0.3335445  )
         7           O   tau(   7) = (  0.2222222  0.3333333  0.6265588  )
         8           O   tau(   8) = (  0.1111111  0.6666667  0.4598921  )
         9           Zn  tau(   9) = (  0.2222222  0.3333333  0.8335445  )
        10           Zn  tau(  10) = (  0.1111111  0.6666667  0.6668779  )
        11           O   tau(  11) = (  0.2222222  0.3333333  0.9598921  )
        12           O   tau(  12) = (  0.1111111  0.6666667  0.7932255  )
        13           Zn  tau(  13) = (  0.5555556  0.3333333  0.1668779  )
        14           Zn  tau(  14) = (  0.4444444  0.6666667  0.0002112  )
        15           O   tau(  15) = (  0.5555556  0.3333333  0.2932255  )
        16           O   tau(  16) = (  0.4444444  0.6666667  0.1265588  )
        17           Zn  tau(  17) = (  0.5555556  0.3333333  0.5002112  )
        18           Zn  tau(  18) = (  0.4444444  0.6666667  0.3335445  )
        19           O   tau(  19) = (  0.5555556  0.3333333  0.6265588  )
        20           O   tau(  20) = (  0.4444444  0.6666667  0.4598921  )
        21           Zn  tau(  21) = (  0.5555556  0.3333333  0.8335445  )
        22           Zn  tau(  22) = (  0.4444444  0.6666667  0.6668779  )
        23           O   tau(  23) = (  0.5555556  0.3333333  0.9598921  )
        24           O   tau(  24) = (  0.4444444  0.6666667  0.7932255  )
        25           Zn  tau(  25) = (  0.8888889  0.3333333  0.1668779  )
        26           Zn  tau(  26) = (  0.7777778  0.6666667  0.0002112  )
        27           O   tau(  27) = (  0.8888889  0.3333333  0.2932255  )
        28           O   tau(  28) = (  0.7777778  0.6666667  0.1265588  )
        29           Zn  tau(  29) = (  0.8888889  0.3333333  0.5002112  )
        30           Zn  tau(  30) = (  0.7777778  0.6666667  0.3335445  )
        31           O   tau(  31) = (  0.8888889  0.3333333  0.6265588  )
        32           O   tau(  32) = (  0.7777778  0.6666667  0.4598921  )
        33           Zn  tau(  33) = (  0.8888889  0.3333333  0.8335445  )
        34           Zn  tau(  34) = (  0.7777778  0.6666667  0.6668779  )
        35           O   tau(  35) = (  0.8888889  0.3333333  0.9598921  )
        36           O   tau(  36) = (  0.7777778  0.6666667  0.7932255  )

     number of k points=    12
                       cart. coord. in units 2pi/alat
        k(    1) = (   0.0000000   0.0000000   0.0000000), wk =   0.0833333
        k(    2) = (   0.0000000   0.0000000  -0.3097206), wk =   0.0833333
        k(    3) = (   0.0000000   0.5773503   0.0000000), wk =   0.3333333
        k(    4) = (   0.0000000   0.5773503  -0.3097206), wk =   0.3333333
        k(    5) = (   0.0000000   1.1547005   0.0000000), wk =   0.1666667
        k(    6) = (   0.0000000   1.1547005  -0.3097206), wk =   0.1666667
        k(    7) = (   0.0000000  -1.7320508   0.0000000), wk =   0.1666667
        k(    8) = (   0.0000000  -1.7320508  -0.3097206), wk =   0.1666667
        k(    9) = (  -0.5000000  -0.2886751   0.0000000), wk =   0.0833333
        k(   10) = (  -0.5000000  -0.2886751  -0.3097206), wk =   0.0833333
        k(   11) = (  -0.5000000   0.8660254   0.0000000), wk =   0.1666667
        k(   12) = (  -0.5000000   0.8660254  -0.3097206), wk =   0.1666667

                       cryst. coord.
[...]
     atom   19 type  2   force =     0.00000003    0.00000002    0.00575071
     atom   20 type  2   force =     0.00000072    0.00000042    0.00575404
     atom   21 type  1   force =     0.00000058    0.00000033   -0.00483181
     atom   22 type  1   force =     0.00000174    0.00000100   -0.00482658
     atom   23 type  2   force =    -0.00000044   -0.00000026    0.00575431
     atom   24 type  2   force =    -0.00000065   -0.00000037    0.00575347
     atom   25 type  1   force =     0.00000300    0.00000173   -0.00483508
     atom   26 type  1   force =     0.00000015    0.00000009   -0.00483627
     atom   27 type  2   force =    -0.00000277   -0.00000160    0.00575648
     atom   28 type  2   force =    -0.00000016   -0.00000009    0.00575640
     atom   29 type  1   force =     0.00000026    0.00000015   -0.00483436
     atom   30 type  1   force =     0.00000407    0.00000235   -0.00483813
     atom   31 type  2   force =     0.00000109    0.00000063    0.00575117
     atom   32 type  2   force =     0.00000002    0.00000001    0.00575463
     atom   33 type  1   force =    -0.00000069   -0.00000040   -0.00482875
     atom   34 type  1   force =    -0.00000219   -0.00000127   -0.00482801
     atom   35 type  2   force =     0.00000014    0.00000008    0.00575507
     atom   36 type  2   force =     0.00000093    0.00000054    0.00575186
     The ionic contribution  to forces
     atom    1 type  1   force =     0.00000001    0.00000000    0.06271746
     atom    2 type  1   force =     0.00000000    0.00000000    0.06271750
     atom    3 type  2   force =     0.00000001    0.00000000   -0.06271747
     atom    4 type  2   force =     0.00000000    0.00000000   -0.06271748
     atom    5 type  1   force =     0.00000001    0.00000000    0.06271750
     atom    6 type  1   force =     0.00000000    0.00000000    0.06271746
     atom    7 type  2   force =     0.00000001    0.00000000   -0.06271748
     atom    8 type  2   force =     0.00000000    0.00000000   -0.06271746
     atom    9 type  1   force =     0.00000001    0.00000000    0.06271746
     atom   10 type  1   force =     0.00000000    0.00000000    0.06271746
     atom   11 type  2   force =     0.00000001    0.00000000   -0.06271746
     atom   12 type  2   force =     0.00000000    0.00000000   -0.06271747
     atom   13 type  1   force =    -0.00000001    0.00000000    0.06271746
     atom   14 type  1   force =     0.00000001   -0.00000000    0.06271749
     atom   15 type  2   force =    -0.00000000    0.00000000   -0.06271747
     atom   16 type  2   force =     0.00000000   -0.00000000   -0.06271748
     atom   17 type  1   force =    -0.00000001    0.00000000    0.06271749
     atom   18 type  1   force =     0.00000001   -0.00000000    0.06271745
     atom   19 type  2   force =    -0.00000000    0.00000000   -0.06271748
     atom   20 type  2   force =     0.00000000   -0.00000000   -0.06271746
     atom   21 type  1   force =    -0.00000001    0.00000000    0.06271745
     atom   22 type  1   force =     0.00000001   -0.00000000    0.06271746
     atom   23 type  2   force =    -0.00000000    0.00000000   -0.06271746
     atom   24 type  2   force =     0.00000000   -0.00000000   -0.06271747
     atom   25 type  1   force =    -0.00000000   -0.00000000    0.06271746
     atom   26 type  1   force =    -0.00000001   -0.00000000    0.06271750
     atom   27 type  2   force =    -0.00000000   -0.00000000   -0.06271747
     atom   28 type  2   force =    -0.00000001   -0.00000000   -0.06271748
     atom   29 type  1   force =    -0.00000000   -0.00000000    0.06271750
     atom   30 type  1   force =    -0.00000001   -0.00000000    0.06271746
     atom   31 type  2   force =    -0.00000000   -0.00000000   -0.06271748
     atom   32 type  2   force =    -0.00000001   -0.00000000   -0.06271746
     atom   33 type  1   force =    -0.00000000   -0.00000000    0.06271746
     atom   34 type  1   force =    -0.00000001   -0.00000000    0.06271746
     atom   35 type  2   force =    -0.00000000   -0.00000000   -0.06271746
     atom   36 type  2   force =    -0.00000001   -0.00000000   -0.06271747
     The local contribution  to forces
     atom    1 type  1   force =    -0.00000345   -0.00000199   -0.05828836
     atom    2 type  1   force =     0.00000265    0.00000148   -0.05828434
     atom    3 type  2   force =     0.00000047    0.00000027    0.05696920
     atom    4 type  2   force =    -0.00000038   -0.00000023    0.05696601
     atom    5 type  1   force =    -0.00000209   -0.00000121   -0.05827903
     atom    6 type  1   force =    -0.00000219   -0.00000131   -0.05827174
     atom    7 type  2   force =    -0.00000146   -0.00000084    0.05695992
     atom    8 type  2   force =    -0.00000001   -0.00000002    0.05696884
     atom    9 type  1   force =    -0.00000147   -0.00000085   -0.05829086
     atom   10 type  1   force =     0.00000015    0.00000004   -0.05830440
     atom   11 type  2   force =    -0.00000026   -0.00000015    0.05696605
     atom   12 type  2   force =    -0.00000010   -0.00000007    0.05696302
     atom   13 type  1   force =     0.00000983    0.00000577   -0.05827411
     atom   14 type  1   force =    -0.00000077   -0.00000054   -0.05829015
     atom   15 type  2   force =     0.00000224    0.00000132    0.05696959
     atom   16 type  2   force =     0.00000234    0.00000133    0.05696787
     atom   17 type  1   force =     0.00000370    0.00000223   -0.05829410
     atom   18 type  1   force =     0.00001252    0.00000713   -0.05827554
     atom   19 type  2   force =    -0.00000036   -0.00000018    0.05695981
     atom   20 type  2   force =     0.00000085    0.00000046    0.05696585
     atom   21 type  1   force =    -0.00000014    0.00000002   -0.05829007
     atom   22 type  1   force =    -0.00000516   -0.00000308   -0.05830336
     atom   23 type  2   force =    -0.00000047   -0.00000024    0.05696730
     atom   24 type  2   force =    -0.00000042   -0.00000027    0.05696402
     atom   25 type  1   force =    -0.00000684   -0.00000390   -0.05828461
     atom   26 type  1   force =    -0.00000121   -0.00000070   -0.05827980
     atom   27 type  2   force =    -0.00000284   -0.00000163    0.05696915
     atom   28 type  2   force =    -0.00000056   -0.00000032    0.05696913
     atom   29 type  1   force =    -0.00000173   -0.00000095   -0.05828779
     atom   30 type  1   force =    -0.00001021   -0.00000590   -0.05827594
     atom   31 type  2   force =     0.00000110    0.00000065    0.05696048
     atom   32 type  2   force =    -0.00000085   -0.00000049    0.05696536
     atom   33 type  1   force =     0.00000083    0.00000053   -0.05829778
     atom   34 type  1   force =     0.00000513    0.00000296   -0.05829957
     atom   35 type  2   force =    -0.00000034   -0.00000018    0.05696756
     atom   36 type  2   force =     0.00000138    0.00000079    0.05696277
     The core correction contribution to forces
     atom    1 type  1   force =     0.00000008    0.00000005    0.00046406
     atom    2 type  1   force =    -0.00000010   -0.00000007    0.00046406
     atom    3 type  2   force =    -0.00000001   -0.00000001   -0.00006507
     atom    4 type  2   force =     0.00000002    0.00000001   -0.00006502
     atom    5 type  1   force =    -0.00000003   -0.00000002    0.00046407
     atom    6 type  1   force =     0.00000012    0.00000006    0.00046384
     atom    7 type  2   force =     0.00000001    0.00000001   -0.00006499
     atom    8 type  2   force =     0.00000000    0.00000000   -0.00006507
     atom    9 type  1   force =     0.00000005    0.00000003    0.00046396
     atom   10 type  1   force =    -0.00000008   -0.00000005    0.00046421
     atom   11 type  2   force =     0.00000000    0.00000000   -0.00006503
     atom   12 type  2   force =     0.00000000    0.00000000   -0.00006500
     atom   13 type  1   force =    -0.00000014   -0.00000007    0.00046377
     atom   14 type  1   force =     0.00000006    0.00000002    0.00046413
     atom   15 type  2   force =    -0.00000002   -0.00000001   -0.00006507
     atom   16 type  2   force =    -0.00000002   -0.00000001   -0.00006505
     atom   17 type  1   force =    -0.00000006   -0.00000002    0.00046423
     atom   18 type  1   force =    -0.00000027   -0.00000017    0.00046400
     atom   19 type  2   force =     0.00000000    0.00000000   -0.00006499
     atom   20 type  2   force =    -0.00000001   -0.00000001   -0.00006503
     atom   21 type  1   force =    -0.00000009   -0.00000004    0.00046403
     atom   22 type  1   force =     0.00000012    0.00000006    0.00046419
     atom   23 type  2   force =     0.00000001    0.00000000   -0.00006503
     atom   24 type  2   force =     0.00000001    0.00000001   -0.00006502
     atom   25 type  1   force =     0.00000005    0.00000004    0.00046405
     atom   26 type  1   force =     0.00000005    0.00000003    0.00046390
     atom   27 type  2   force =     0.00000004    0.00000002   -0.00006506
     atom   28 type  2   force =     0.00000000    0.00000000   -0.00006506
     atom   29 type  1   force =     0.00000009    0.00000006    0.00046420
     atom   30 type  1   force =     0.00000015    0.00000009    0.00046386
     atom   31 type  2   force =    -0.00000001   -0.00000001   -0.00006499
     atom   32 type  2   force =    -0.00000000   -0.00000000   -0.00006504
     atom   33 type  1   force =     0.00000002    0.00000002    0.00046411
     atom   34 type  1   force =    -0.00000005   -0.00000003    0.00046414
     atom   35 type  2   force =    -0.00000000   -0.00000000   -0.00006504
     atom   36 type  2   force =    -0.00000001   -0.00000001   -0.00006500
     The Hubbard contrib.    to forces
     atom    1 type  1   force =     0.00000000    0.00000000    0.00000000
     atom    2 type  1   force =     0.00000000    0.00000000    0.00000000
     atom    3 type  2   force =     0.00000000    0.00000000    0.00000000
     atom    4 type  2   force =     0.00000000    0.00000000    0.00000000
     atom    5 type  1   force =     0.00000000    0.00000000    0.00000000
     atom    6 type  1   force =     0.00000000    0.00000000    0.00000000
     atom    7 type  2   force =     0.00000000    0.00000000    0.00000000
     atom    8 type  2   force =     0.00000000    0.00000000    0.00000000
     atom    9 type  1   force =     0.00000000    0.00000000    0.00000000
     atom   10 type  1   force =     0.00000000    0.00000000    0.00000000
     atom   11 type  2   force =     0.00000000    0.00000000    0.00000000
     atom   12 type  2   force =     0.00000000    0.00000000    0.00000000
     atom   13 type  1   force =     0.00000000    0.00000000    0.00000000
     atom   14 type  1   force =     0.00000000    0.00000000    0.00000000
     atom   15 type  2   force =     0.00000000    0.00000000    0.00000000
     atom   16 type  2   force =     0.00000000    0.00000000    0.00000000
     atom   17 type  1   force =     0.00000000    0.00000000    0.00000000
     atom   18 type  1   force =     0.00000000    0.00000000    0.00000000
     atom   19 type  2   force =     0.00000000    0.00000000    0.00000000
     atom   20 type  2   force =     0.00000000    0.00000000    0.00000000
     atom   21 type  1   force =     0.00000000    0.00000000    0.00000000
     atom   22 type  1   force =     0.00000000    0.00000000    0.00000000
     atom   23 type  2   force =     0.00000000    0.00000000    0.00000000
     atom   24 type  2   force =     0.00000000    0.00000000    0.00000000
     atom   25 type  1   force =     0.00000000    0.00000000    0.00000000
     atom   26 type  1   force =     0.00000000    0.00000000    0.00000000
     atom   27 type  2   force =     0.00000000    0.00000000    0.00000000
     atom   28 type  2   force =     0.00000000    0.00000000    0.00000000
     atom   29 type  1   force =     0.00000000    0.00000000    0.00000000
     atom   30 type  1   force =     0.00000000    0.00000000    0.00000000
     atom   31 type  2   force =     0.00000000    0.00000000    0.00000000
     atom   32 type  2   force =     0.00000000    0.00000000    0.00000000
     atom   33 type  1   force =     0.00000000    0.00000000    0.00000000
     atom   34 type  1   force =     0.00000000    0.00000000    0.00000000
     atom   35 type  2   force =     0.00000000    0.00000000    0.00000000
     atom   36 type  2   force =     0.00000000    0.00000000    0.00000000
     The SCF correction term to forces
     atom    1 type  1   force =     0.00000377    0.00000218    0.00000047
     atom    2 type  1   force =    -0.00000325   -0.00000188   -0.00000409
     atom    3 type  2   force =    -0.00000080   -0.00000046   -0.00000507
     atom    4 type  2   force =     0.00000102    0.00000059    0.00000001
     atom    5 type  1   force =     0.00000185    0.00000107   -0.00000900
     atom    6 type  1   force =     0.00000302    0.00000174   -0.00001695
     atom    7 type  2   force =     0.00000188    0.00000108    0.00000742
     atom    8 type  2   force =     0.00000030    0.00000018   -0.00000462
     atom    9 type  1   force =     0.00000184    0.00000106    0.00000215
     atom   10 type  1   force =    -0.00000063   -0.00000037    0.00001699
     atom   11 type  2   force =     0.00000012    0.00000007   -0.00000038
     atom   12 type  2   force =     0.00000010    0.00000006    0.00000420
     atom   13 type  1   force =    -0.00001001   -0.00000578   -0.00001524
     atom   14 type  1   force =     0.00000126    0.00000072    0.00000231
     atom   15 type  2   force =    -0.00000279   -0.00000161   -0.00000512
     atom   16 type  2   force =    -0.00000251   -0.00000145   -0.00000281
     atom   17 type  1   force =    -0.00000350   -0.00000202    0.00000676
     atom   18 type  1   force =    -0.00001316   -0.00000760   -0.00001308
     atom   19 type  2   force =     0.00000020    0.00000011    0.00000756
     atom   20 type  2   force =    -0.00000102   -0.00000059    0.00000004
     atom   21 type  1   force =     0.00000001    0.00000001    0.00000086
     atom   22 type  1   force =     0.00000584    0.00000337    0.00001542
     atom   23 type  2   force =     0.00000052    0.00000030   -0.00000132
     atom   24 type  2   force =     0.00000104    0.00000060    0.00000238
     atom   25 type  1   force =     0.00000699    0.00000404   -0.00000361
     atom   26 type  1   force =     0.00000168    0.00000097   -0.00000922
     atom   27 type  2   force =     0.00000374    0.00000216   -0.00000424
     atom   28 type  2   force =     0.00000068    0.00000039   -0.00000436
     atom   29 type  1   force =     0.00000206    0.00000119    0.00000020
     atom   30 type  1   force =     0.00001055    0.00000609   -0.00001288
     atom   31 type  2   force =    -0.00000188   -0.00000108    0.00000678
     atom   32 type  2   force =     0.00000079    0.00000046    0.00000009
     atom   33 type  1   force =    -0.00000063   -0.00000036    0.00000933
     atom   34 type  1   force =    -0.00000542   -0.00000313    0.00001136
     atom   35 type  2   force =    -0.00000024   -0.00000014   -0.00000211
     atom   36 type  2   force =    -0.00000163   -0.00000094    0.00000427

     Total force =     0.000367     Total SCF correction =     0.000055
     SCF correction compared to forces is large: reduce conv_thr to get better values

     General routines

     Parallel routines

   This run was terminated on:   3:37: 6  29Jul2025

   JOB DONE.
Note: The following floating-point exceptions are signalling: IEEE_DENORMAL
Note: The following floating-point exceptions are signalling: IEEE_DENORMAL
Note: The following floating-point exceptions are signalling: IEEE_DENORMAL
Note: The following floating-point exceptions are signalling: IEEE_DENORMAL
Note: The following floating-point exceptions are signalling: IEEE_INVALID_FLAG
Note: The following floating-point exceptions are signalling: IEEE_DENORMAL
Note: The following floating-point exceptions are signalling: IEEE_INVALID_FLAG
Note: The following floating-point exceptions are signalling: IEEE_INVALID_FLAG
Note: The following floating-point exceptions are signalling: IEEE_DENORMAL
Note: The following floating-point exceptions are signalling: IEEE_INVALID_FLAG
Note: The following floating-point exceptions are signalling: IEEE_INVALID_FLAG
Note: The following floating-point exceptions are signalling: IEEE_DENORMAL
Note: The following floating-point exceptions are signalling: IEEE_DENORMAL
Note: The following floating-point exceptions are signalling: IEEE_INVALID_FLAG
Note: The following floating-point exceptions are signalling: IEEE_INVALID_FLAG
Note: The following floating-point exceptions are signalling: IEEE_INVALID_FLAG